LAMMPS (22 Aug 2018)
##
dimension 3
boundary p p p
atom_style full
units metal
kspace_style pppm/cg 1.0e-4
kspace_modify pressure/scalar no
bond_style harmonic
angle_style harmonic

neighbor 2.0 bin
neigh_modify delay 0 every 1 check yes page 500000 one 50000

region box1 block -40.0 40.0 -40.0 40.0 -40.0 40.0
create_box 4 box1 bond/types 2 extra/bond/per/atom 2 angle/types 1 extra/angle/per/atom 1 extra/special/per/atom 10
Created orthogonal box = (-40 -40 -40) to (40 40 40)
  1 by 1 by 1 MPI processor grid

molecule cat_ion cation_mol.txt
Read molecule cat_ion:
  3 atoms with max type 4
  2 bonds with max type 2
  1 angles with max type 1
  0 dihedrals with max type 0
  0 impropers with max type 0

mass    1  86.81 #anion
mass    2  67.07 #ring
mass    3  15.04 #methyl
mass    4  29.07 #ethyl

create_atoms 1 random 40 1340 box1                     #at least 40
Created 40 atoms
  Time spent = 0.00139904 secs
create_atoms 0 random 40 2345 box1 mol cat_ion 1234    #at least 40
Created 120 atoms
  Time spent = 8.89301e-05 secs
#create_atoms 1 single  10.0 0.0 0.0
#create_atoms 0 single 0.0 0.0 0.0 mol cat_ion 1234
group anion type 1
40 atoms in group anion
group ring type 2
40 atoms in group ring
group methyl type 3
40 atoms in group methyl
group ethyl type 4
40 atoms in group ethyl

bond_coeff 1 207.729 2.689748837
bond_coeff 2 207.729 3.04931147
angle_coeff 1 207.729 144.1868904


## -- INTERATOMIC POTENTIALS -- #
pair_style lj/cut/coul/long 18.0
pair_modify mix geometric
#pair_style nm/cut/coul/long 18.0
################### properties to change
## values from easy begin

pair_coeff 1 1 0.03358 4.51
pair_coeff 2 2 0.026533 4.38
pair_coeff 3 3 0.0037311 3.41
pair_coeff 4 4 0.012852 4.38

#create_bonds single/bond 1 2 3
#create_bonds single/bond 2 2 4
#create_bonds single/angle 1 3 2 4

set type 1 charge -0.78
  40 settings made for charge
#set type 2 charge  0.408675
#set type 3 charge  0.317505
#set type 4 charge  0.273820

########################################

write_data solid.data pair ij
PPPM initialization ...
  using 12-bit tables for long-range coulomb (../kspace.cpp:321)
  G vector (1/distance) = 0.103821
  grid = 10 10 10
  stencil order = 5
  estimated absolute RMS force accuracy = 0.00106761
  estimated relative force accuracy = 7.41413e-05
  using double precision FFTs
  3d grid and FFT values/proc = 3375 1000
Neighbor list info ...
  update every 1 steps, delay 0 steps, check yes
  max neighbors/atom: 50000, page size: 500000
  master list distance cutoff = 20
  ghost atom cutoff = 20
  binsize = 10, bins = 8 8 8
  1 neighbor lists, perpetual/occasional/extra = 1 0 0
  (1) pair lj/cut/coul/long, perpetual
      attributes: half, newton on
      pair build: half/bin/newton
      stencil: half/bin/3d/newton
      bin: standard

thermo_style	custom step temp pe ke ebond press density

##################################
variable    T equal 500
variable    V equal vol
variable    dt equal 0.001  # default
variable    p equal 400     # correlation length
variable    s equal 5       # sample interval
variable    d equal $p*$s   # dump interval
variable    d equal 400*$s   
variable    d equal 400*5   

# convert from LAMMPS real units to SI

variable    kB equal 1.3806504e-23    # [J/K/** Boltzmann
variable    bar2Pa equal 100000.0
variable    A2m equal 1.0e-10
variable    ps2s equal 1.0e-12
variable    convert equal ${bar2Pa}*${bar2Pa}*${ps2s}*${A2m}*${A2m}*${A2m}
variable    convert equal 100000*${bar2Pa}*${ps2s}*${A2m}*${A2m}*${A2m}
variable    convert equal 100000*100000*${ps2s}*${A2m}*${A2m}*${A2m}
variable    convert equal 100000*100000*1e-12*${A2m}*${A2m}*${A2m}
variable    convert equal 100000*100000*1e-12*1e-10*${A2m}*${A2m}
variable    convert equal 100000*100000*1e-12*1e-10*1e-10*${A2m}
variable    convert equal 100000*100000*1e-12*1e-10*1e-10*1e-10
timestep    ${dt}
timestep    0.001
variable    tdamp equal ${dt}*10.
variable    tdamp equal 0.001*10.
variable    pdamp equal ${dt}*100.
variable    pdamp equal 0.001*100.
thermo      $d
thermo      2000

variable    ILdens equal density
variable    ILstep equal step
variable    ILtime equal time*1.0e-12 #from ps to s
variable    ILtemp equal temp
variable    ILpe equal pe
variable    ILke equal ke
variable    ILpr equal press

##################################
fix         333 all print 2000 "${ILstep} ${ILtime} ${ILdens} ${ILtemp} ${ILpr} ${ILpe} ${ILke}" file density.dat screen no
dump        1 all dcd $d minim.dcd
dump        1 all dcd 2000 minim.dcd
dump        2 all custom $d dump.atom id mass type x y z
dump        2 all custom 2000 dump.atom id mass type x y z

##################################
##################################
#  Minimize initial
##################################

velocity     all create $T 502844619  mom yes rot yes dist gaussian
velocity     all create 500 502844619  mom yes rot yes dist gaussian
minimize 1.e-4 1.0e-6 1000 10000
PPPM initialization ...
  using 12-bit tables for long-range coulomb (../kspace.cpp:321)
  G vector (1/distance) = 0.103821
  grid = 10 10 10
  stencil order = 5
  estimated absolute RMS force accuracy = 0.00106761
  estimated relative force accuracy = 7.41413e-05
  using double precision FFTs
  3d grid and FFT values/proc = 3375 1000
  PPPM/cg optimization cutoff: 1e-05
  Total charged atoms: 100.0%
  Min/max charged atoms/proc: 100.0% 100.0%
Per MPI rank memory allocation (min/avg/max) = 11.73 | 11.73 | 11.73 Mbytes
Step Temp PotEng KinEng E_bond Press Density 
       0          500    8400890.1    10.276182   0.58297596 1.051608e+08  0.025685164 
     382          500   -53.273597    10.276182 0.0029246214    -11.06807  0.025685164 
Loop time of 0.278562 on 1 procs for 382 steps with 160 atoms

89.3% CPU use with 1 MPI tasks x no OpenMP threads

Minimization stats:
  Stopping criterion = energy tolerance
  Energy initial, next-to-last, final = 
         8400890.10824     -53.2686211541     -53.2735974251
  Force two-norm initial, final = 1.48053e+08 2.47445
  Force max component initial, final = 6.53831e+07 1.10191
  Final line search alpha, max atom move = 0.115668 0.127455
  Iterations, force evaluations = 382 702

MPI task timing breakdown:
Section |  min time  |  avg time  |  max time  |%varavg| %total
---------------------------------------------------------------
Pair    | 0.040529   | 0.040529   | 0.040529   |   0.0 | 14.55
Bond    | 0.0044415  | 0.0044415  | 0.0044415  |   0.0 |  1.59
Kspace  | 0.2272     | 0.2272     | 0.2272     |   0.0 | 81.56
Neigh   | 0.0014334  | 0.0014334  | 0.0014334  |   0.0 |  0.51
Comm    | 0.0017047  | 0.0017047  | 0.0017047  |   0.0 |  0.61
Output  | 0          | 0          | 0          |   0.0 |  0.00
Modify  | 0          | 0          | 0          |   0.0 |  0.00
Other   |            | 0.003254   |            |       |  1.17

Nlocal:    160 ave 160 max 160 min
Histogram: 1 0 0 0 0 0 0 0 0 0
Nghost:    350 ave 350 max 350 min
Histogram: 1 0 0 0 0 0 0 0 0 0
Neighs:    931 ave 931 max 931 min
Histogram: 1 0 0 0 0 0 0 0 0 0

Total # of neighbors = 931
Ave neighs/atom = 5.81875
Ave special neighs/atom = 1.5
Neighbor list builds = 16
Dangerous builds = 0

reset_timestep 0
fix 1 all npt temp $T $T ${tdamp} iso 1.0 1.0 ${pdamp}
fix 1 all npt temp 500 $T ${tdamp} iso 1.0 1.0 ${pdamp}
fix 1 all npt temp 500 500 ${tdamp} iso 1.0 1.0 ${pdamp}
fix 1 all npt temp 500 500 0.01 iso 1.0 1.0 ${pdamp}
fix 1 all npt temp 500 500 0.01 iso 1.0 1.0 0.1
run             200000
PPPM initialization ...
  using 12-bit tables for long-range coulomb (../kspace.cpp:321)
  G vector (1/distance) = 0.103821
  grid = 10 10 10
  stencil order = 5
  estimated absolute RMS force accuracy = 0.00106761
  estimated relative force accuracy = 7.41413e-05
  using double precision FFTs
  3d grid and FFT values/proc = 3375 1000
Per MPI rank memory allocation (min/avg/max) = 10.6 | 10.6 | 10.6 Mbytes
Step Temp PotEng KinEng E_bond Press Density 
       0          500   -53.273597    10.276182 0.0029246214    -11.06807  0.025685164 
    2000    502.40282   -101.40103    10.325565  0.071561757    268.18526   0.41842121 
    4000    517.31184   -113.34601    10.631981  0.099006736    1295.9503   0.80071993 
    6000     471.9993   -115.10389     9.700701   0.15802097    8052.6513     0.916821 
    8000    475.43517   -116.62456    9.7713163   0.41091286   -19125.426   0.98807651 
   10000    474.50869   -119.49076    9.7522749   0.16437417     11249.05    1.0495749 
   12000     496.9452   -119.83236    10.213398  0.042139717   -3208.7979    1.0085588 
   14000    487.01126   -117.85188    10.009232  0.042024117   -4640.6301   0.96281776 
   16000    475.96052    -118.0275    9.7821134   0.19840365    11174.692    1.0030157 
   18000    498.60454   -117.74392    10.247501   0.23240967   -11956.505    1.0263541 
   20000    457.29164   -118.83625    9.3984238  0.053205558    2154.0203    1.0230253 
   22000    529.96914   -119.24454    10.892118  0.097308802     8036.296    1.0041036 
   24000    524.44018   -118.65721    10.778485   0.24657025   -15102.085     1.016774 
   26000    463.19811   -116.53312    9.5198158   0.39198507    16115.759   0.97989984 
   28000    491.33966    -119.5043    10.098191   0.18327011   -12097.783    1.0529922 
   30000    503.66925   -117.33638    10.351593  0.045752526   -1534.5213   0.98249849 
   32000     491.1995   -118.99579     10.09531    0.1907282    10429.393   0.98495471 
   34000    536.25765   -117.24482    11.021362   0.18618065   -12354.507   0.97926389 
   36000    576.59273   -118.24436    11.850343    0.1006893    6721.6403    1.0160776 
   38000    500.41731   -117.74648    10.284758  0.057077058      257.971    0.9890827 
   40000    502.04982   -119.54379     10.31831    0.1144649   -8464.9869    1.0036569 
   42000    504.50009   -117.28577    10.368669   0.20711863    11276.674   0.98168276 
   44000    437.47796   -118.65446     8.991206   0.09639449   -9873.7481    1.0198938 
   46000    482.52544   -117.46215     9.917038  0.038420577    1808.1236   0.98242015 
   48000    469.30966   -116.50634    9.6454224   0.14328894    7732.7957   0.96269044 
   50000    526.48619      -116.55    10.820535   0.13104116   -8018.1756   0.96780677 
   52000    455.81214   -116.85158    9.3680167   0.13857475    8322.0194   0.96935976 
   54000    541.64481    -115.2136    11.132081  0.057284045   -3603.9313   0.92902516 
   56000     500.6456    -119.6666     10.28945  0.082645102   -6783.9214    1.0265049 
   58000    564.09866   -116.34765     11.59356   0.13296661     7359.243   0.94736377 
   60000     454.1549   -119.11356    9.3339564   0.16263574     -11582.5     1.032137 
   62000    492.76447   -118.83983    10.127474  0.085180034   -6033.9606     1.027624 
   64000    435.26608   -118.02756    8.9457464   0.39421043    17436.829    1.0030109 
   66000    467.47905   -118.23077    9.6077992   0.29284747   -15805.122   0.98794513 
   68000    543.80034   -118.16543    11.176382  0.050101464    2340.9114    1.0223284 
   70000    480.59591   -120.55685    9.8773817   0.14055669    8973.3666    1.0476789 
   72000    491.85083   -118.00016    10.108697     0.241085   -13362.927    1.0174109 
   74000    533.26338    -117.0279    10.959823   0.10453138    7243.3146    1.0120052 
   76000    496.77553   -118.14367    10.209911  0.041458278   -674.14138    1.0076017 
   78000    529.23856   -117.41099    10.877103  0.095615168   -6845.3987    0.9595244 
   80000    485.49409   -116.43658    9.9780509   0.32369058    14707.759   0.94079919 
   82000    486.35359   -118.82813    9.9957156   0.25829605   -15469.818    1.0423639 
   84000    565.71089    -118.9892    11.626696  0.069247884    2201.0541    1.0239822 
   86000    516.28464   -116.59183    10.610869    0.2197905    10845.736   0.94796092 
   88000    496.76934   -118.43928    10.209784   0.23162651   -14797.004    1.0105377 
   90000    464.20215   -119.66641    9.5404511   0.19747517    11852.111    1.0446212 
   92000    480.51446   -119.77259    9.8757076  0.055464049   -1307.0386    1.0167993 
   94000    513.81268   -119.74386    10.560065  0.076975625   -5828.2326    1.0226996 
   96000    495.44553   -120.65895    10.182576   0.24291611    13924.088    1.0763785 
   98000    479.00569   -119.00959    9.8446989   0.16894227   -12266.318    1.0558573 
  100000    490.69899   -117.29781    10.085024  0.054861809    1331.2833   0.95949731 
  102000    420.02412   -117.65717    8.6324882   0.19163023    11364.286     1.027857 
  104000    489.37164   -116.01743    10.057744   0.37364988   -17763.507   0.97961218 
  106000     493.6542   -116.38152     10.14576   0.16641647    10279.204     1.029743 
  108000    487.37096   -114.92429    10.016625  0.059391313    626.68086   0.88330618 
  110000    458.48491   -118.32454    9.4229484  0.065174307    -6071.088    0.9741347 
  112000    553.47839   -117.96042    11.375289   0.10536602    6917.4419   0.99842482 
  114000    479.64856   -117.93703    9.8579113   0.16657968   -10994.339   0.99542141 
  116000    470.22534   -120.52501     9.664242  0.070333824    4815.4685    1.0753889 
  118000    506.98119   -116.75936    10.419662   0.19928029    10326.269   0.97784514 
  120000    518.90255   -119.08679    10.664673    0.1782924   -12312.951     1.019804 
  122000    501.79137   -119.00858    10.312999   0.19188089    11332.247    1.0309433 
  124000    506.07511   -116.41359    10.401039  0.047586284    -1411.273   0.93202338 
  126000    501.82492   -118.10795    10.313688  0.097188392   -6979.0763    1.0194614 
  128000    469.71281   -117.56514    9.6537081   0.38233349    16138.534   0.99971132 
  130000    506.58714   -118.84708    10.411563   0.19859663   -12802.001    1.0204291 
  132000    514.54969   -117.65793    10.575212  0.041821941    1010.6006     1.009366 
  134000      503.943   -116.49012     10.35722   0.14107604    9134.9699   0.99120378 
  136000     426.6259   -116.04927    8.7681704    0.2589473   -13929.594   0.95089832 
  138000    562.02894   -118.91145    11.551023   0.20774417    10801.275    0.9896502 
  140000      490.348   -117.09114     10.07781  0.062213685   -3553.3868   0.95603165 
  142000    468.35904   -118.38779    9.6258851   0.04222185   -2181.0544   0.99399215 
  144000    491.25854   -116.51262    10.096524   0.17185472    9452.0644   0.96234964 
  146000     537.2788   -116.86094    11.042349  0.082642157   -5895.4374   0.97022559 
  148000    546.29395   -119.10188    11.227632   0.15696815    8883.9409    1.0238418 
  150000    452.64415   -117.48927     9.302907  0.087995983     4340.095   0.96091298 
  152000    498.26156   -116.22795    10.240453   0.45725939   -19840.205   0.97393729 
  154000    527.39994   -117.73184    10.839315   0.29487668    14868.466   0.99827416 
  156000    474.62357   -118.08574    9.7546358  0.065404873   -4943.3493    1.0179299 
  158000    502.31725   -119.35386    10.323806  0.096806354   -6828.1509    1.0564824 
  160000    545.37447      -117.87    11.208734   0.53738814    19503.548   0.97456055 
  162000    498.28594     -117.427    10.240954   0.22538276   -13262.403    1.0521215 
  164000    576.56339   -115.75999     11.84974  0.060486607    2212.5334   0.95548304 
  166000    488.33963    -118.0567    10.036533    0.2079109    11540.158   0.99248207 
  168000    467.89134   -118.10314    9.6162726   0.18301211   -11921.538    1.0026857 
  170000    500.69319   -116.28752    10.290428   0.13913362    7157.1449   0.96673369 
  172000    504.31071   -115.11016    10.364777  0.060271836    11.540699    0.9379251 
  174000    503.63403   -116.59822    10.350869   0.13976131   -9394.5382    0.9436781 
  176000    461.52381   -117.99914    9.4854048   0.32377813     15574.43    1.0204537 
  178000     524.8172   -118.46395    10.786234   0.20445225   -12668.642   0.98830505 
  180000    536.92477   -117.67965    11.035073  0.065150348    1039.0107   0.98155772 
  182000    475.80858   -117.53922    9.7789907   0.10260869    6776.0059     1.037029 
  184000    480.18671    -117.6419    9.8689716    0.1398423   -10261.236   0.99800814 
  186000    534.93327   -118.14535    10.994143   0.24818755    13518.264    1.0273793 
  188000    528.64653   -119.35395    10.864935   0.07475472    4365.4377    1.0328862 
  190000    535.38731   -116.15721    11.003474   0.26277696   -13735.361   0.98630029 
  192000    472.61017   -117.31867    9.7132558   0.46537418    19153.557    1.0107778 
  194000    453.23435   -119.37436    9.3150369   0.10989606   -8367.9793    1.0378111 
  196000    510.75212   -115.92747    10.497163  0.077871447   -5205.2194   0.99215331 
  198000    446.93878   -118.33628     9.185648   0.26851691    13858.857    1.0343562 
  200000    460.13101    -117.6477    9.4567796   0.14194648   -9382.1362   0.99022202 
Loop time of 268.571 on 1 procs for 200000 steps with 160 atoms

Performance: 64.341 ns/day, 0.373 hours/ns, 744.683 timesteps/s
98.4% CPU use with 1 MPI tasks x no OpenMP threads

MPI task timing breakdown:
Section |  min time  |  avg time  |  max time  |%varavg| %total
---------------------------------------------------------------
Pair    | 145.9      | 145.9      | 145.9      |   0.0 | 54.33
Bond    | 1.4374     | 1.4374     | 1.4374     |   0.0 |  0.54
Kspace  | 64.122     | 64.122     | 64.122     |   0.0 | 23.88
Neigh   | 3.9308     | 3.9308     | 3.9308     |   0.0 |  1.46
Comm    | 3.2271     | 3.2271     | 3.2271     |   0.0 |  1.20
Output  | 0.062353   | 0.062353   | 0.062353   |   0.0 |  0.02
Modify  | 49.067     | 49.067     | 49.067     |   0.0 | 18.27
Other   |            | 0.8217     |            |       |  0.31

Nlocal:    160 ave 160 max 160 min
Histogram: 1 0 0 0 0 0 0 0 0 0
Nghost:    2916 ave 2916 max 2916 min
Histogram: 1 0 0 0 0 0 0 0 0 0
Neighs:    31935 ave 31935 max 31935 min
Histogram: 1 0 0 0 0 0 0 0 0 0

Total # of neighbors = 31935
Ave neighs/atom = 199.594
Ave special neighs/atom = 1.5
Neighbor list builds = 3634
Dangerous builds = 0
unfix 1
unfix 333
fix 1 all nvt temp $T $T ${tdamp}
fix 1 all nvt temp 500 $T ${tdamp}
fix 1 all nvt temp 500 500 ${tdamp}
fix 1 all nvt temp 500 500 0.01

reset_timestep 0
variable     pxy equal pxy
variable     pxz equal pxz
variable     pyz equal pyz
fix          SS all ave/correlate $s $p $d              v_pxy v_pxz v_pyz type auto file S0St.dat ave running
fix          SS all ave/correlate 5 $p $d              v_pxy v_pxz v_pyz type auto file S0St.dat ave running
fix          SS all ave/correlate 5 400 $d              v_pxy v_pxz v_pyz type auto file S0St.dat ave running
fix          SS all ave/correlate 5 400 2000              v_pxy v_pxz v_pyz type auto file S0St.dat ave running
variable     scale equal ${convert}/(${kB}*$T)*$V*$s*${dt}
variable     scale equal 1e-32/(${kB}*$T)*$V*$s*${dt}
variable     scale equal 1e-32/(1.3806504e-23*$T)*$V*$s*${dt}
variable     scale equal 1e-32/(1.3806504e-23*500)*$V*$s*${dt}
variable     scale equal 1e-32/(1.3806504e-23*500)*13280.6621039509*$s*${dt}
variable     scale equal 1e-32/(1.3806504e-23*500)*13280.6621039509*5*${dt}
variable     scale equal 1e-32/(1.3806504e-23*500)*13280.6621039509*5*0.001
variable     v11 equal trap(f_SS[3])*${scale}
variable     v11 equal trap(f_SS[3])*9.61913465128529e-11
variable     v22 equal trap(f_SS[4])*${scale}
variable     v22 equal trap(f_SS[4])*9.61913465128529e-11
variable     v33 equal trap(f_SS[5])*${scale}
variable     v33 equal trap(f_SS[5])*9.61913465128529e-11
variable     v equal (v_v11+v_v22+v_v33)/3.0
fix          333 all print $d "${ILstep} ${ILtime} ${ILdens} ${ILtemp} ${ILpr} ${ILpe} ${v}" file visco.dat screen no
fix          333 all print 2000 "${ILstep} ${ILtime} ${ILdens} ${ILtemp} ${ILpr} ${ILpe} ${v}" file visco.dat screen no
thermo_style custom step temp pe press v_pxy v_pxz v_pyz v_v11 v_v22 v_v33
run          8000000
PPPM initialization ...
  using 12-bit tables for long-range coulomb (../kspace.cpp:321)
  G vector (1/distance) = 0.140477
  grid = 6 6 6
  stencil order = 5
  estimated absolute RMS force accuracy = 0.000362703
  estimated relative force accuracy = 2.51883e-05
  using double precision FFTs
  3d grid and FFT values/proc = 1331 216
Per MPI rank memory allocation (min/avg/max) = 10.66 | 10.66 | 10.66 Mbytes
Step Temp PotEng Press v_pxy v_pxz v_pyz v_v11 v_v22 v_v33 
       0    460.13101   -117.70635   -9398.7174    -3478.333    1002.4376    119.32736 0.00058189995 4.8330433e-05 6.8483518e-07 
    2000    521.63859   -117.24182    6429.7084   -212.82043    -1922.184     847.6679 0.0065932929 0.00014865436 0.00029271579 
    4000    481.31528   -117.42284   -2120.1075   -336.70354   -536.75163   -1552.3312 0.0022097652 -7.4075532e-05 0.00061688162 
    6000    527.53784   -117.73952    -1490.281    314.83089    261.45704    358.76349 0.0015391428 -5.4775479e-05 0.00065233703 
    8000    498.90312   -118.01179    7733.7554   -1721.6829    2299.3751   -1150.1187 0.0016437297 -1.6032191e-05 0.00052631929 
   10000    463.73531   -117.18992   -7531.9309    118.73744    417.86119   -53.826624 0.0014591608 0.00013425656 0.00032016578 
   12000    485.54652   -118.01845    6410.1338    1629.4164    25.518475    1118.0522  0.001338409 9.4147634e-05 0.00025422397 
   14000     517.0048   -117.91309   -5127.7317   -605.89524    513.09647   -822.24802  0.001149217 7.772219e-05 0.00032677638 
   16000    515.37385   -117.60943   -2771.5671   -600.71085   -147.10811   -40.188229 0.00099153245 9.0076086e-05 0.00049156555 
   18000    484.29202    -116.8644    6147.6615    1058.5763   -729.59683   -1645.2417 0.00094679136 0.00015642743 0.00040303771 
   20000    478.67826   -118.04666   -7398.0229    561.06325   -723.70503   -496.46248 0.00083464944 0.00023558536 0.00034036226 
   22000    533.96857   -116.19608     9005.093   -164.44695   -199.34482   -1489.2296 0.00076167446 0.00020293558 0.00038524549 
   24000    482.99219   -117.78157   -2449.9501   -257.05075   -30.461986   -542.63382 0.00070886544 0.00019873059 0.00034001345 
   26000    502.28431    -117.9729   -951.50321   -97.019958    1019.8677     178.8285 0.00068384063 0.00013816888 0.00037182671 
   28000    555.58488   -117.78226    3319.5567    849.02389     1355.465   -146.34148 0.00064901901 0.00018743665 0.00033898157 
   30000    486.83793   -117.44395   -9619.2347    572.46688   -1982.1628   -710.17679 0.00064251704 0.00018826069 0.00032243827 
   32000    569.04011   -118.17066    6599.6857   -1262.0488   -452.66389    1638.5189 0.00061605351 0.00018997567 0.00046587862 
   34000    535.44918   -118.35605   -3291.8721    1144.2808    163.13092   -417.78243 0.00056066705 0.00018535369 0.00039904061 
   36000    528.48724    -118.4934    1742.8603   -974.43783    22.646002    608.25725 0.00053440113 0.00019219229 0.00041811499 
   38000    486.29272   -118.64566    4537.7013   -413.57467    1253.4515   -151.45449 0.00050167835 0.00017411615 0.00042456274 
   40000    505.07879   -119.33079    -6707.799   -967.17411    637.49088    144.02722 0.00048629047 0.00017006204 0.0004216712 
   42000    524.50267   -117.31699    7790.7719   -1500.7649    256.74364   -32.814215 0.00049468228 0.00016864472 0.00048634986 
   44000     472.2539   -117.23423   -6528.6388    -733.0969     388.0319   -1535.4618 0.00055202447 0.00017310095 0.00049508208 
   46000    488.98967   -118.88331    872.79867    1553.5295   -1378.8382   -1308.8896 0.00056438774 0.00016527886 0.00050282201 
   48000    503.31405   -118.10276    2684.7801    -507.6988    1377.3834     786.3788 0.00053364068 0.00016125809 0.00049463596 
   50000    508.62251   -117.16956   -4967.3271   -770.24093   -1517.2625    49.182167 0.00052899082 0.00015888687 0.0004794661 
   52000    429.90864   -116.39536    8629.8152    -1098.479    745.88299    773.77192 0.00052389287 0.00015192598 0.00046564533 
   54000    526.24913   -117.70826   -5304.6786   -279.19377   -129.98941   -789.36536 0.00050792755 0.00017747914 0.00047072288 
   56000    520.14553   -117.37272    363.09773   -552.46657   -987.79629    846.43862 0.00049338029 0.00016094671 0.00045627484 
   58000    472.24837   -116.95144    907.47939    1475.0454    1112.0241    1362.3022 0.00047862386 0.00017801398 0.00042863906 
   60000    498.07109    -117.4396   -5494.0924    1225.9938     138.7028   -712.38481 0.00047520532 0.00017430808 0.00041905039 
   62000    464.19565   -116.83133    6853.3461   -999.36452    127.63154    1571.5398 0.00047665851 0.00017362993 0.00041623045 
   64000    473.68723   -116.41205    -3564.515   -84.945857    -535.9206   -277.22173 0.00051791975 0.0001914103 0.00041561931 
   66000    506.16925   -117.48881    3186.1885   -551.01869    867.32268    17.620026 0.00050224866 0.00023812563 0.00040427864 
   68000    481.82574   -116.64282    2804.2064   -165.28705   -1168.8061   -354.10073 0.00049471326 0.00022381386 0.00040889721 
   70000    535.73392   -119.29059   -5929.3114    557.55113   -464.62244    440.70045 0.00048390016 0.00023625107 0.00043817845 
   72000    481.16154   -117.73179    4599.4621    274.87781   -1990.6556   -549.80109 0.00049846524 0.00023650859 0.00047569331 
   74000    529.92933   -116.54676    -6905.538    -927.4586   -212.51543    113.44528 0.00048973336 0.00022367413 0.00048661925 
   76000    501.80032   -117.86782    2316.7516   -533.11583    1283.4937    578.59352 0.00055187111 0.00022075744 0.00052382397 
   78000    515.07678     -117.709     1394.055   -266.06161   -837.14512    957.29836 0.00053978289 0.00021302403 0.00051554451 
   80000    500.84619    -117.8827   -2407.2014    721.38817    944.90254   -1058.9584 0.00054205186 0.00020320697 0.00052361555 
   82000    542.48935    -117.9395    6529.2123   -97.043143   -948.51505    511.09876 0.00051797953 0.00020790042 0.00054432278 
   84000     480.2218   -118.14198   -5978.5597    436.94657    1974.8785   -2887.0254 0.00050837661 0.00019991858 0.00052804401 
   86000    499.02142   -119.41177    1808.3424   -954.37703   -3.3105895   -1355.2653 0.00050669282 0.00020027505 0.00052070432 
   88000    500.23108   -117.42183   -1287.8983   -528.78577   -537.06601   -443.68868 0.00050280564 0.00020156221 0.00057923745 
   90000    467.71286   -117.28788    -2741.628   -752.20383    655.27501   -1635.4993 0.00052324731 0.00019348434 0.00057252157 
   92000    489.12003   -116.43835     5424.472    1369.8424    -280.7356    1840.8554 0.00051186955 0.00019727786 0.00056232363 
   94000    546.82353   -116.78036   -4664.5217   -927.97603    1211.1462   -320.09934 0.00051440278 0.00022932251 0.00060122004 
   96000      468.829   -118.03942    3769.2486    213.72354   -323.47539   -742.04651 0.00051381206 0.00022741474  0.000587354 
   98000    501.46732   -116.61907   -1697.7576    205.16593   -413.17646   -427.66115 0.00054245692 0.00023921251 0.0005865302 
  100000    520.15924   -117.98681   -2983.7215   -280.24275   -1566.9997   -112.53899 0.00056769433 0.00026095876 0.00057699556 
  102000    501.48804   -116.76856    2399.8408    1206.6215    2219.6542   -1658.4916 0.00057439144 0.00027795389 0.00056454316 
  104000    524.89677   -117.37107   -5763.0447   -1221.0004    890.57022   -1242.6814 0.00056338521 0.00027886037 0.0005538288 
  106000     454.4151   -117.12405    4237.8756    582.43613   -1855.8695    1252.4804 0.00055299992 0.00027284102 0.00055520907 
  108000    531.93707   -118.37488   -1018.9849   -453.65004   -541.04386    827.78346 0.00054129628 0.00027038099 0.00056097788 
  110000    506.26639   -117.97377    752.24368    1678.1318   -781.21817   -459.90448 0.00053153768 0.00027171032 0.00055726758 
  112000    536.77861   -117.81104    3308.7863    999.83794   -744.65555   -100.81306 0.00053871236 0.00027745205 0.00054548642 
  114000    488.31299   -118.39422   -5357.0661   -2990.3863    187.93896   -1067.4844 0.00057818943 0.00028482339 0.0005358114 
  116000    491.76832   -117.79606    2668.7271   -99.200063    828.62715   -902.24398 0.00056867707 0.00027945776 0.00055414965 
  118000    529.18727   -117.35088    -2291.971   -1303.1976    23.849471   -772.69055 0.00057700379 0.00027625722 0.00057505904 
  120000    496.16584   -118.42511   -1044.2442     -813.826    12.519075   -414.70553 0.00057268857 0.00031234194 0.00057215006 
  122000    652.44644   -117.97244    3812.3943    3028.3364   -401.00573   -1318.8251 0.00056428561 0.00030410338 0.00058171738 
  124000    505.83857   -118.47374   -3296.9235   -818.45076    953.88974    1536.9011 0.00055633978 0.00031314662 0.00061625775 
  126000    509.56852   -117.65582    4019.8939   -25.858047    81.467928   -1482.3677 0.00055134279 0.0003190615 0.00061032406 
  128000    502.14306    -119.1531   -2430.0541    1158.7669     1716.809   -1073.0766 0.0005615668 0.00031620936 0.00060289161 
  130000    488.91616   -117.25855   -2386.3792   -487.92892   -1247.2884    4.1011531 0.00055104828 0.00031737628 0.00059482633 
  132000    524.56243   -118.07023    1627.6252    1289.8281    472.45192   -468.95687 0.00056043945 0.00030839199 0.00059014562 
  134000    501.68083   -118.72147   -4124.7379    1806.8056   -471.57115   -468.63991 0.00055330974 0.00030720497 0.00057943957 
  136000    485.42576   -117.75428    4417.2149   -2917.6912     464.2963    -1245.374 0.00054514534 0.00031081446 0.00057019224 
  138000    464.21396   -118.92684   -1896.9301   -78.425711     1123.938   -214.56406 0.00054160755 0.00031038768 0.00057043909 
  140000    442.10019   -117.59301    1465.5714   -1199.7293    1046.7294    806.80793 0.00053588463 0.00030446088 0.00056590356 
  142000    388.43563   -117.45749    2748.0316    247.96088    237.70138   -1353.3169 0.00053488223 0.00030001991 0.00055914605 
  144000    470.59063    -117.5926   -4988.0821   -387.15218    705.23665   -413.99339 0.00055663274 0.00029922676 0.00055495245 
  146000    497.17736   -116.88106    3375.7888    538.49278    193.66409    1552.4329 0.00054613147 0.00030403052 0.00054779521 
  148000    453.56264   -119.30301   -4798.1734    8.3069206   -863.31582   -928.77752 0.00053841078 0.00038832563 0.00054643569 
  150000    495.24109   -117.04122    24.593051   -262.51819   -48.403636    1878.3053 0.00052770652 0.00038556263 0.00054458703 
  152000    459.27309   -118.03746    2680.1172   -123.72783    957.29708   -1137.8149 0.0005150054 0.0003860657 0.00057596434 
  154000    482.87403   -117.27052   -2587.5014    2147.6614    105.11889    274.64363 0.00051886953 0.00040315542 0.00063836882 
  156000    517.03018   -115.80513    4645.6941    1688.6535    1620.7045    2560.2684 0.00051587777 0.0003896094 0.00062525377 
  158000    470.06761   -117.58885   -2977.1603     199.2507    763.25335   -648.28541 0.00051275914 0.00039138091 0.00062025517 
  160000    509.20511   -118.99847   -1189.5715    1064.6394    961.44865    705.81167 0.00050669744 0.00038983365 0.00061355909 
  162000    505.11742   -118.10481    774.90112    196.97103    1033.7268   -766.30886 0.00051701481 0.00038627267  0.000608722 
  164000    485.17873   -117.86544   -3775.7387   -1625.2049    518.25116   -918.46409 0.00052395716 0.00037944724 0.00060307328 
  166000    475.71886   -117.32434    5613.3915   -2979.5651   -2111.8371    1414.1472 0.00051781142 0.00039530786 0.00061178048 
  168000    577.52889   -116.29907   -655.46534   -66.379923    1854.9921   -1472.8406 0.00051499361 0.0003844273 0.0006376869 
  170000    500.29746    -118.5307    1901.5134    359.99938    -994.6505    642.84994 0.00051807247 0.00039026134 0.00063123411 
  172000    511.33405    -119.1723    739.71559   -113.94386   -532.70759    189.96412 0.00051044723 0.00038786098 0.00062805732 
  174000    484.33891   -119.82616   -4329.3976    150.54876   -353.16421    192.99025 0.00050164777 0.00038424851 0.00062788728 
  176000    488.66352   -118.23863    1913.6795   -945.42138   -905.05295   -1647.9709 0.00049873986 0.00039459315 0.00061980655 
  178000    565.41145   -118.47388   -4342.5998    505.68504   -1603.9542    1308.8868 0.00049478039 0.00039121503 0.0006176377 
  180000    472.73993   -118.16208    1473.5089   -1279.1475     727.8794   -1607.9945 0.00049137437 0.00041735368 0.00060755601 
  182000    493.28107   -117.76962     1106.924    100.78643   -504.78287    671.82773 0.00049192579 0.00042211989 0.00060814462 
  184000    487.83051   -116.65423   -1744.6032    1334.2935    446.77036   -1362.2144 0.00048836456 0.00041893165 0.00060758978 
  186000    499.16722   -117.61687    3460.6366    1167.8397    147.28764   -1276.5634 0.00048439559 0.00041761831 0.00060245731 
  188000    500.29159    -119.1475   -3888.1071   -498.28474   -672.93533    157.71224 0.00047983344 0.00042180189 0.00062039918 
  190000    490.02198   -117.79809    606.34836   -1152.4663     180.8233    556.00355 0.00047403112 0.0004180089 0.00062017331 
  192000    446.92709   -117.71039   -95.768451    1503.7681    558.60397    494.75361 0.00047228048 0.0004142839 0.00061933189 
  194000    524.71089   -117.93303    -3522.058   -175.58523   -1529.3802    107.80629 0.00047098885 0.00041226252 0.00061239381 
  196000    423.19502   -117.26653    4645.8861   -663.93415     1585.136   -1234.8843 0.00047128114 0.00040910162 0.00061418172 
  198000    528.30695   -117.99032    -2192.498     1253.762     470.2694    57.482457 0.00047245172 0.00041391953 0.00060936399 
  200000    495.70581   -117.97638    3060.2435   -648.14764   -917.18213   -696.12493 0.00047048028 0.00041503854 0.00060412832 
  202000    423.83234   -118.45329    94.300292    -986.2607   -771.46464    808.99173 0.00046360313 0.00043547441 0.00059447616 
  204000    445.50267   -118.34703   -3970.9405    337.12766    1635.7911   -632.64584 0.00046039255 0.00043779299 0.00059637122 
  206000    504.69091   -116.94045    2566.1592   -1088.7982   -785.20513   -1613.6493 0.00045746695 0.00045795944 0.00059207137 
  208000    457.12303   -117.26532   -3116.5369    351.83693    749.83454   -479.90099 0.00045383576 0.00045217544 0.00058722938 
  210000    491.81287   -116.41873    2919.8655   -804.07665   -7.3958172      197.724 0.00045747824 0.00045012822 0.00059720345 
  212000    435.55368   -118.81195    467.05072   -1250.0851   -1230.6974    455.18713 0.00045971645 0.00044642978  0.000599078 
  214000    472.71258   -117.84947    87.694555   -629.31464   -588.38716    1038.8942 0.00045999894 0.00044309744 0.00059351263 
  216000    442.43362   -118.26109    3439.0638   -1707.9615    262.26135    783.20099 0.00045502287 0.00043900317 0.00059004267 
  218000    503.33941   -117.99565    -3457.806   -1814.0777    1513.6119    20.314844 0.00044958853 0.00043647526 0.00058455305 
  220000    475.37069   -117.99507    1016.3122   -1066.7097   -712.50235   -1126.6168 0.00044624212 0.00043271908 0.00057981735 
  222000    507.21151   -118.27689   -452.53094   -978.81667   -662.87599   -596.53782 0.00044128121 0.0004318447 0.00057459406 
  224000    494.80939   -118.22952   -2091.9995    1190.8795   -943.96266   -1724.4085 0.00043790478 0.00042720983 0.00057372542 
  226000    554.90967   -117.60735    4829.4827    84.535001    1121.3052   -802.36546 0.00043755709 0.0004246812 0.00057237211 
  228000    605.67191   -117.44015   -2226.7979   -602.29851   -531.25846    755.20446 0.00043571132  0.000417444 0.00057574569 
  230000     507.7403    -117.8366    2226.6642   -1171.4515    83.896046   -1295.2612 0.0004297116 0.00042471782 0.00057123443 
  232000    516.17578   -117.84519    -1376.402   -1410.3339     -1339.21   -794.16346 0.0004308979 0.00043288087 0.00056762488 
  234000    550.73088   -117.66347   -3375.6385    639.16697   -1080.9204   -798.63236 0.00043317571 0.00043707906 0.00056752984 
  236000    499.89491   -117.24527    1650.9205   -1008.8067   -560.74608   -867.60873 0.00042927388 0.00043355948 0.00056684021 
  238000    498.52683   -118.40076   -3130.2686   -615.78508    639.99087    2854.0563 0.00042497165 0.00042982941 0.00056179223 
  240000    510.51826   -118.10226    3649.6895    1120.7167   -557.05388    642.84711 0.00042103413 0.00042812537 0.00055831898 
  242000    457.42735   -118.27212    40.282525   -1371.3878    1058.2165   -317.49255 0.00042091529 0.00043058349 0.00055547779 
  244000    432.85493   -118.59112    730.94759    269.30936   -174.24478    337.09975 0.00041776453 0.00042655054 0.00055919003 
  246000    472.10637   -118.89395    2178.6758   -1146.6555   -153.35417    974.77869 0.00042723621 0.00042955055 0.00056315248 
  248000    531.56725   -117.54886   -3860.4833    126.07719    725.88761   -2242.1948 0.00042215549 0.00042554859 0.00056354103 
  250000    506.82753    -119.0586    1771.8255   -1125.3622    502.93449    661.00576 0.00042382439 0.00042752886 0.00057236526 
  252000    505.31016   -117.72737   -3172.5941     -120.963    13.244248    1002.9422 0.00044254933 0.0004235103 0.0005635009 
  254000    469.27673   -117.66803   -1066.7656   -1030.5938   -571.27537    1462.8015 0.00045375571 0.00042324422 0.00056433765 
  256000    507.48599   -117.32462    2688.6184   -1756.5878    -673.5967   -485.85689 0.00045324587 0.00041987655 0.00056270403 
  258000    471.76825   -117.18104   -3160.4256   -1505.0783   -462.53119    1990.4666 0.00045162093 0.00041674573 0.00055822946 
  260000    482.72523   -118.18998    2934.3167    706.06067   -764.27437   -379.65643 0.00044898239 0.00041691698 0.00055409528 
  262000    477.13561   -116.41329   -2680.3056    103.05628    -2404.628    898.69452 0.00044413048 0.00041441751 0.00055259297 
  264000    511.09947   -117.16645   -1367.1088    -569.2303   -1220.2933    -447.0377 0.00044645757 0.0004159256 0.00055137974 
  266000     492.5018   -117.23423    2219.8618   -486.07455    -18.01201    1135.7405 0.00044192272 0.00042212666 0.00054792038 
  268000    494.41685   -117.90223   -2736.4476    1339.7818   -654.49146    185.10445 0.00044510405 0.00041963892 0.00054309021 
  270000    512.55908   -116.68341    5195.1495    1757.5224   -407.53081   -1540.0208 0.00049176285 0.00041846253 0.00054339094 
  272000    498.20808   -116.33078   -695.96603   -870.06765    1845.5739    442.03814 0.00051050622 0.00043493899 0.00053772333 
  274000    534.76864   -118.63326    441.53928    -287.7336   -436.19796    417.22396 0.00051228297 0.00043933881 0.00053637582 
  276000    523.93249   -118.52051   -59.413207    899.23703    1630.4255    23.586721 0.00054759277 0.00044035092 0.00053513868 
  278000    454.33932   -118.01665     -4040.73     209.8014    -1937.424    266.70345 0.00055344664  0.000453113 0.00053105026 
  280000    500.29346   -118.20977    1509.9648    2306.3738    1145.0587   -586.84306 0.00057679527 0.00044937179 0.00052588366 
  282000    567.16912   -117.88424   -3013.9238     876.1972   -1087.5855   -328.18248 0.00058371756 0.00044592977 0.00052357578 
  284000    466.92686   -117.98137    1700.2073    617.15852    1055.3959   -800.21419 0.00058281936 0.00044273802 0.00051986308 
  286000    498.70085   -117.55741    2701.7362    965.89161     2737.182    677.23819 0.00057541168 0.00044227631 0.00051831065 
  288000    449.22801   -117.24603   -1390.8963   -524.45677    1151.8701     446.6047 0.00058018323 0.00044021834  0.000512989 
  290000    492.80848   -118.13021    3294.5125   -1003.2111    2558.8997    490.06615 0.00059119987 0.00043760095 0.00050868785 
  292000    542.62865   -118.55849   -3729.8118    2920.4459    452.74352    235.88209 0.00060129944 0.00043224049 0.0005153759 
  294000    516.34938   -117.25803    528.12417    872.69702   -133.23342   -1127.6667 0.00059804784 0.00042785321 0.00051452689 
  296000    505.74057    -118.5163     136.6938   -571.77731   -448.76106   -91.626068 0.0005929278 0.00042499935 0.00051496176 
  298000    527.55375   -117.61695    -2718.051   -324.65651   -1029.9398   -563.25019 0.00059176953 0.00042430728 0.0005109331 
  300000    485.77562   -117.84607     3205.996    55.809446   -1142.6773    674.03864 0.00058860639 0.00041975172 0.00051303302 
  302000     471.7519   -118.03193   -3044.1568     3220.146    391.50789    1523.3874 0.00058510206 0.00041593502 0.00050898597 
  304000    497.28325    -117.5018    1464.5071   -1919.3705     116.5487    1461.8773 0.0005974092 0.00042042693 0.00050617256 
  306000    542.62576   -117.88464   -794.77306    515.67609   -1475.5048   -128.58586 0.00059462295 0.00043261261 0.00050252114 
  308000    422.38733   -117.94554   -3086.7785    612.05947   -811.67308    313.00486 0.00059482918 0.00043493874 0.00049889295 
  310000    480.98691    -119.2745    2001.4109    -1162.056   -291.98026   -1711.4806 0.0006001323 0.00043501021 0.00050089898 
  312000     542.0771   -117.47812   -2272.7704   -685.61842   -295.38405    108.40609 0.0005946345 0.00043531155 0.00050425416 
  314000    470.94162    -117.5055    2682.6191    944.78206   -1199.2181   -277.42986 0.00059157978 0.00043118801 0.00050194218 
  316000    532.79167    -118.0182    1721.6335   -911.63475   -953.31779    325.04487 0.00059974148 0.0004309662 0.00049946132 
  318000    473.86334   -118.35116   -1942.4949   -607.40462    1897.9386    1218.7365 0.00059759821 0.00043010591 0.00049744049 
  320000    505.55558   -117.67927    2753.1083   -1830.0639    1893.8109   -1712.9692 0.00060796926 0.00042676091 0.00049499337 
  322000    494.48667   -116.37724    -4426.788    -1913.215   -1380.7677    909.90453 0.00061753886 0.00042608501 0.00050106795 
  324000    538.81615   -118.11609    289.95695     1245.438   -197.79075    735.80944  0.000614103 0.00042494958 0.00050096682 
  326000    537.48035   -117.09168   -238.73544   -2560.4582   -604.36188    716.66813 0.00061152651 0.00042261531 0.00050046832 
  328000    530.00543   -116.87689   -1443.2319   -1027.4828   -1053.8015    750.77028 0.00060794253 0.0004191664 0.00050413034 
  330000    502.22312   -118.14384    3552.9322    146.71351   -761.68843   -1023.0318 0.00060573476 0.00041723142  0.000507416 
  332000    514.20543   -118.19878   -2540.2591    67.167173    405.59555    -40.59196 0.00060105322 0.00041325221 0.0005012543 
  334000    488.63865   -117.33267    1331.1415    742.89014    -713.9367    871.12561 0.00059788818 0.00041059301 0.0004992277 
  336000    556.68194   -119.09055   -514.98631    -199.3288    1044.6999    136.13617 0.00059445593 0.0004092655 0.00050145864 
  338000    479.96611    -117.6139    -2406.222    1446.2157   -1869.1493    1060.1731 0.00059179725 0.00040701909 0.00050069872 
  340000    504.66529   -118.99061    2880.3678   -683.72887    -758.2323     1172.099 0.00058694027 0.00040768806 0.00049651776 
  342000    499.26193   -118.93127   -2770.0683   -1799.9232    1185.1151    948.64891 0.00058286699 0.00040621193 0.00049677438 
  344000    458.22019   -118.41375     928.4902   -454.16313   -530.37313   -1304.4121 0.00058514566 0.00040451482 0.00049811984 
  346000    516.52151   -118.57539    1011.1021   -978.61345   -34.379903   -662.26929 0.00058745125 0.00042613587 0.0004948207 
  348000    500.25973   -118.46169   -2986.4143   -1348.2415   -124.92265   -724.61052 0.00060258237 0.00043743773 0.00049392731 
  350000    503.90788   -119.22492    1941.7243   -160.97783   -366.93268   -1991.8626 0.00060226181 0.00044856101 0.00049136545 
  352000     472.2738    -118.2677   -4722.2359    994.08808   -465.81126    50.003072 0.00059983164 0.00044696841 0.00048904109 
  354000    512.76305   -118.10615    242.73529    1796.9906   -1479.7448     2245.216 0.00059542265 0.0004472116 0.00049211787 
  356000    509.02716   -117.36209    931.02558    -363.4367   -901.47099   -414.01075 0.00059276886 0.00045087842 0.00048836353 
  358000    444.32385   -118.06023   -1856.9245   -648.03222    1206.2762   -237.13613 0.00059301469 0.00044796262 0.00048770328 
  360000    512.96006   -118.13545    3306.6038   -623.67236   -1321.4234   -646.17858 0.00059378972 0.00044552055 0.00048341526 
  362000    472.57851   -116.58078   -1792.7772    955.81479    25.578818   -572.36802 0.00058721925 0.00044507009 0.00048230985 
  364000    451.16837   -117.40874    1221.7612    -143.5985    1115.6795    921.46806 0.00058899754 0.00044353582 0.00047714944 
  366000    533.36481   -118.23499     80.74059    433.68983    342.41443    470.55052 0.00059972519 0.00044148845 0.00047492785 
  368000    457.93737   -117.59805   -2477.6447   -1165.4486    944.22376   -1567.9287 0.00060733026 0.00044033755 0.00047261153 
  370000    550.47647   -118.43671    3008.7426    770.59484    2059.4322   -1956.7916 0.00060413571 0.00043856477 0.00047969492 
  372000    554.74551   -116.72543   -2188.4315    452.98817    699.50936    849.16006 0.00060157051 0.00043603485 0.00048330919 
  374000    501.17491   -118.88407    1768.3816   -39.136611   -229.87126    304.17942 0.00059984613 0.00043321412 0.00049142554 
  376000    536.38921   -118.21573    584.53119   -1644.3638   -120.34689   -160.15229 0.00060558507 0.0004334312 0.00049684501 
  378000    532.53418   -118.71688   -2994.5331    228.85951    62.389932   -441.49874 0.00060084679 0.00043235148 0.00049429005 
  380000     455.4599    -117.5488    1686.4464   -1569.9598    1904.1059   -1061.5734 0.00059823621 0.00044863332 0.00049171875 
  382000    500.62194   -117.55113   -3890.6677    258.39815    1329.6236   -553.64403 0.00060499237 0.00045349552 0.00048921861 
  384000     557.1753     -117.898    1474.1881     1083.585   -608.89819    873.97919 0.00060870467 0.0004514129 0.0004934746 
  386000    455.44939   -118.32779    -560.0109   -312.80065   -466.22417   -515.06892 0.00061017809 0.00044918399 0.00049012442 
  388000    519.06899   -117.30741   -1083.7161    252.96583   -555.10633   -2672.3757 0.00060779167 0.00044705455 0.00049090596 
  390000    496.52989   -117.85142    3356.3622    1881.7974    821.52619   -1176.5034 0.00060476443 0.00044624183 0.00048892008 
  392000     486.0691   -118.19145    -3106.654   -645.81208    489.95446   -756.80077 0.00060164183 0.00045232647 0.00048816074 
  394000    454.12266   -116.95487    1917.0635      1374.94   -961.91962   -1117.9356 0.00059902295 0.00047027804 0.00048992918 
  396000    507.87069   -117.13591   -1323.1831     150.6069    967.82979    271.37011 0.00059631312 0.00047153716 0.00049930806 
  398000    477.38128   -116.72624   -1513.5076    1339.5293   -62.935153   -1494.8514 0.0005927211 0.00047317777 0.00050071694 
  400000    458.41963   -116.68405    1815.0767    509.79947   -741.29155    134.00423 0.00058985182 0.00047347895 0.00049967029 
  402000    461.34732   -116.57718   -2977.3921    912.28713    690.45058   -585.14117 0.00058984161 0.0004717111 0.00049790383 
  404000    497.63208   -117.18378    3026.5247    246.99597    315.07087   -2208.2672 0.00058589691 0.00046831189 0.00049952542 
  406000    530.17741   -117.01484   -726.24235    -206.0163   -1376.6554    1106.3552 0.00058406606 0.0004659535 0.00050101557 
  408000    555.32822   -117.27041    -943.6845      326.223   -1224.6116    841.14297 0.00058160886 0.00046689172 0.00049960759 
  410000    479.06448   -119.06624     448.1865    566.37895    973.97065   -46.232427 0.00058080645 0.0004687262 0.00049986881 
  412000    506.74682   -117.30105   -2719.2946    685.29942   -1504.6525   -14.208815 0.00058120543 0.00046626968 0.00049667188 
  414000    540.83498   -117.49391    3169.2733   -715.49206    582.33944    665.14691 0.00058006977 0.00046649676 0.00049306383 
  416000    492.21945   -117.36243   -236.97149    17.544603   -960.76741    1453.7216 0.0005765802 0.00047077694 0.00049007004 
  418000    525.36386   -117.14928    2203.1451    -1555.386   -511.40466    1333.4935 0.00058073604 0.00046766813 0.00048822054 
  420000    496.15949   -116.20064    1813.7014    -189.5185    585.15451   -1048.1179 0.00058009221 0.00047009629 0.00049400216 
  422000    506.53299   -117.55854   -1610.2796   -2078.3428   -206.58991    1315.3817 0.00058187903 0.00046859542 0.00049072513 
  424000    416.64861   -117.74166    2465.5488    693.95541    1851.8017    -1797.895 0.00058164696 0.00046622049 0.0004903636 
  426000    446.83227   -118.09947   -2692.0222   -407.79841    1762.1386    1351.4143 0.00058102533 0.0004684271 0.00049759108 
  428000    497.77982   -117.58433   -459.92898    23.191905   -299.33674    238.60571 0.00057771306 0.00047549771 0.00050157897 
  430000    525.70376   -116.95759      579.834    940.70238    2779.4975    -1065.669 0.00057545035 0.0004772098 0.00050266863 
  432000    472.16101    -117.5193   -2168.2147    1435.8935    -812.0192    1076.4634 0.00057293581 0.00047532017 0.00050006731 
  434000    536.70862   -117.34453     2876.256   -1562.7145    767.73657    337.65427 0.00058366717 0.00047453468 0.00049846739 
  436000    525.40882   -118.86237   -1771.0133   -1618.9377    34.236965    765.64768 0.0005896778 0.00047862471 0.00050006047 
  438000    503.92396   -116.92942    1510.8851   -905.08592   -233.36309    1437.3229 0.00059407663 0.00047938338 0.00049496509 
  440000    488.09543   -118.40833    684.57008    2479.6112   -124.09859    1654.8277 0.00059320962 0.00048690112 0.00049329689 
  442000    460.71109   -116.92713   -1765.2456   -1219.1062    360.40118    1344.4434 0.00059304853 0.00048345365 0.00049546998 
  444000    498.93547   -117.28342    2638.6881   -750.32626   -1250.6791    382.71532 0.00059483354 0.0004911765 0.00049210543 
  446000    463.76818   -118.17033   -1893.7125    88.413776    890.73883   -956.67893 0.00059904023 0.0004888018 0.0004896079 
  448000     489.3135   -118.16752    1199.2535    1732.1601   -296.39617   -513.81879 0.00059973781 0.00048909056 0.00049106232 
  450000    542.09461   -118.00492     421.4507    143.87312    -432.6506   -1013.2107 0.00059651028 0.00048706187 0.00049746552 
  452000    466.95179   -118.19796   -2584.5207   -1796.8511    1739.0709   -438.05367 0.00059432872 0.00048190334 0.00049652246 
  454000    489.01185    -117.7447    2037.8611     31.97804    786.52345   -2195.2456 0.00059219365 0.00047873756 0.00049383597 
  456000     448.7967   -117.35495   -3608.8049   -637.41547     392.4714   -1034.9457 0.00059240159 0.00048255928 0.0004914901 
  458000    488.19757   -116.51876    1013.2664     1635.941    206.43534   -621.49594 0.00059020072 0.00048057155 0.00050231363 
  460000    501.30844   -118.62884   -283.66943    2419.6089    1616.5387    1051.8615 0.00058775879 0.00047990149 0.00052910708 
  462000    501.72292   -118.92615   -1467.3407   -2497.0769   -148.34321   -1734.8308 0.00058561355 0.00047883021 0.00053642189 
  464000    450.43061   -118.86908    2765.6194   -533.90506   -401.30532   -1069.8645 0.00058495409 0.00047859661 0.00053622073 
  466000    534.80747   -117.45105   -1489.3335    2482.7186    1391.0847     1806.679 0.00058932781 0.00047790145 0.00053626954 
  468000    517.65978   -117.71208    1536.5595    122.94156   -768.19824   -698.36063 0.00058420231 0.00047917778 0.00053713105 
  470000    506.67547   -118.92688   -859.66462   -362.71038   -99.309196   -72.466024 0.00058069233 0.00047669419 0.0005436784 
  472000    530.96676   -117.54699   -1513.3205   -158.19078    1454.2977     832.8944 0.00057809251 0.00047777327 0.00055039862 
  474000    456.91264       -117.1    1752.8958   -1336.2861   -1288.4292    46.857918 0.00057605393 0.00048130124 0.00054820169 
  476000     432.4121   -117.95937   -2922.2539    2026.5179    148.82779     1314.421 0.00057544797 0.00048163028 0.00054918513 
  478000    509.91246   -117.68672    1337.8363      556.276   -1144.5463   -844.06748 0.0005909591 0.00047949276 0.0005475122 
  480000    491.10894   -117.74207   -1281.9394    338.70915    1354.4138    39.590688 0.0006013409 0.00047987834 0.00054896999 
  482000     495.6191   -117.81341   -618.52533    1678.1155    334.05129   -495.94099 0.00060002879 0.00047990478 0.00054474574 
  484000    466.90743   -117.64039    911.98993   -1465.2445    208.35044    351.83854 0.00060383972 0.00049228258 0.00054325407 
  486000    466.74372   -116.99222   -2045.9964   -436.35961     1390.129    1845.4474 0.00060625944 0.00049557347 0.00054390704 
  488000    490.72399   -117.90428    1135.5231   -900.61507   -249.91913   -922.18473 0.00060582221 0.00049716918 0.00054364739 
  490000    501.92953   -118.38199   -92.749456    1720.8734   -25.629423   -967.82966 0.0006043726 0.00049566125 0.00054260875 
  492000    525.08381   -116.69254    1588.5245    793.81081   -117.59034   -997.43933 0.00060172995 0.00050271911 0.00054263163 
  494000    469.96009   -117.26145    2311.0547    606.25692    281.13611    192.51532 0.00060442629 0.00050569679 0.00054140544 
  496000    475.06038    -117.5243    -1866.901   -1262.2202   -1646.9175     634.5883 0.00060316404 0.00050886072 0.00054009694 
  498000     471.0298   -118.38881    891.03653   -1371.8319    -705.3277   -16.696666 0.00059943342 0.00051257683 0.00053824852 
  500000    487.70029   -118.96417   -2117.1314    398.95287    1009.8365    1606.9661 0.00060386846 0.0005107376 0.00054142152 
  502000    552.96877   -117.33224   -1661.2711   -830.22444   -1007.6006   -2879.0709 0.00060084547 0.00051131707 0.00053941104 
  504000     497.7338   -117.94821    740.38392    492.94998    571.83099    1824.0171 0.00060995953 0.00051197124 0.00054139503 
  506000    502.60251   -118.99661    -2865.818   -762.10789   -530.83991   -69.006824 0.00061010208 0.00051282831 0.00053890233 
  508000    461.61114   -117.77131    1228.8076    811.79006   -567.59993   -753.95951 0.00060767133 0.00051382367 0.00053736743 
  510000    524.12351   -118.69767   -1455.6518   -275.15952    944.23417   -457.67235 0.00060689932 0.00051224917 0.00053646614 
  512000    489.38696   -118.18001   -505.92897    -690.9844    1070.8542   -397.34388 0.00060555023 0.00051333053 0.00054414781 
  514000    520.13027   -118.82188    525.78467    8.7742785   -561.05646    420.62071 0.00060349118 0.00051023036 0.00054163718 
  516000    530.39624   -118.53854    -832.2426    1176.4222    1480.3034    303.52182 0.00060100309 0.00050676058 0.00053954279 
  518000    499.89307   -117.78124    1778.7815    416.19347   -836.83367    2393.2203 0.00059994262 0.00050416189 0.00053745797 
  520000    503.72896   -119.29395   -1656.5887    334.98072   -1827.5357   -497.07536 0.00060501561 0.00050423037 0.00053665121 
  522000    524.91851   -117.55808    824.26522    1322.4201    141.52062    138.16698 0.00060297843 0.00050268671 0.00053500456 
  524000    442.15584   -116.89765      562.942   -575.73862   -265.77811     1248.496 0.00060320932 0.00049962817 0.00053455081 
  526000    515.51892   -116.80052   -1775.3814    1450.1922     1364.965    2034.7311 0.00060406969 0.0004975679 0.00053298184 
  528000    522.85289   -117.29062     1587.984    1926.2682    1277.5234    1280.4301 0.00060188489 0.00049611798 0.00053123765 
  530000    443.36304   -117.64878   -1787.4532    189.67558   -2480.6361   -558.76493 0.00060207544 0.00049442292 0.00053041954 
  532000    569.61981   -117.89831    95.438257   -391.46256   -433.96993    679.07941 0.00060068239 0.00049281409 0.00052895484 
  534000     529.6586   -116.56956    1326.5827     1245.715   -1022.6926   -723.76059 0.00060025264 0.00049318079 0.00052914293 
  536000    504.23844   -118.20724   -1202.9636   -2358.4997    892.69246   -619.50979 0.00060063726 0.00049157611 0.00052692397 
  538000    547.06457   -118.02927    2793.6194    456.42722     350.7221    151.24661 0.00059731767 0.00049085872 0.00052897488 
  540000    482.05131    -116.3787   -705.81305   -962.33289   -1621.3767   -289.08639 0.00059674881 0.00049016466 0.0005315822 
  542000    480.30417   -116.85736    928.73093   -49.459603   -107.21201   -1105.7607 0.00059502249 0.00049213629 0.00053708408 
  544000    474.06335   -117.93071    539.34776    304.44792     9.813995    1494.0997   0.00059085 0.00049004163 0.00053376507 
  546000    499.40522     -118.944   -2633.7982   -1144.8522   -3179.3665    1073.2634 0.00059185921 0.00048852821 0.00053160398 
  548000    551.44372   -118.14119    2337.3106   -1040.2745    882.87679    370.98008 0.00059231995 0.0004875433 0.0005319536 
  550000    451.77286   -118.42259   -2048.8002   -512.34229    634.97855    1511.3331  0.000591691 0.00048922462 0.00053074367 
  552000    553.06164   -116.91476    561.97846    1324.4543    799.04831   -1503.6142 0.00058896255 0.00048774892 0.00052849745 
  554000    488.14826   -116.74394    405.53552    291.07038   -165.57036     1634.057 0.0005876291 0.00048677761 0.00052673091 
  556000    489.49477   -117.32603   -2203.6944   -476.99934    1072.9512    1723.2628 0.00058587365 0.00048505542 0.00052545331 
  558000    522.22545   -117.69488    1357.7994    1623.7654   -885.29495    709.63255 0.00058249724 0.00048503673 0.00052659137 
  560000    425.15818   -118.91894   -2343.4234    685.44675    225.65653   -1046.0387 0.00058188219 0.00048627149 0.00052458271 
  562000    464.78581   -117.04224     1319.752   -2715.6135    1839.3383    1232.7783 0.00058080092 0.00048918699 0.00052265984 
  564000    498.36584    -118.4912    386.13593    1439.0255   -992.63743   -43.387468 0.00058159641 0.00048734236 0.00052249915 
  566000    522.11311   -117.30669   -882.90877   -975.66135   -466.71806   -473.61065 0.00057965377 0.00048867491 0.00052240999 
  568000    518.53671   -118.06002    1835.4077   -140.98318    219.58836   -387.42329 0.00057967715 0.0004910063 0.0005200869 
  570000    514.80608   -117.82293   -1636.9957   -938.70366   -2076.3781   -1422.0008 0.00057873633 0.00048971093 0.00052358998 
  572000    565.62662   -116.70763    -11.07895   -48.801586   -1217.3286   -305.60693 0.00057616518 0.00048767109 0.00052548735 
  574000    554.92111   -118.91666    -1210.794     1239.926    198.41497   -2179.1179 0.00057440292 0.00048614441 0.00052373232 
  576000     516.2493   -116.95688    -1784.086    2460.1895   -746.64978   -300.74954 0.00057658633 0.00048585782 0.00052320608 
  578000    524.19584   -117.23331    2337.1694    701.52974     1613.432    578.60765 0.00057551335 0.00048677176 0.00052267776 
  580000    491.23567   -118.24333   -2409.9508   -982.42457    310.24744   -726.37158 0.00057415221 0.00048609203 0.00052283821 
  582000     455.1245   -117.68593    2384.1897   -594.61363   -1039.5663    125.07044 0.00057110054 0.0004897103 0.00052052114 
  584000    564.59141   -117.94471   -298.38598    1167.5016    1670.0771   -965.31458 0.00056980191 0.00049745027 0.00051941812 
  586000    491.01347   -117.01628   -1570.1193   -1641.6146     2058.298   -528.93808 0.00057561737 0.00049320481 0.00051854732 
  588000    462.22478   -117.83076    1570.8089    162.96729     1459.139   -319.50465 0.0005770468 0.00048987171 0.0005171069 
  590000    554.35328   -117.33734   -2587.4795   -6027.4435   -1091.9853     1679.944 0.00057733266 0.00049061185 0.00051827696 
  592000    495.93418   -116.92333    990.89755   -440.99336   -2790.9857    471.40514 0.00057726011 0.00048715367 0.00051855864 
  594000    497.48008   -118.02153   -2037.0638    1171.2516    600.74058   -1112.6131 0.00057850278 0.0004867815 0.00051714116 
  596000    468.66999    -119.6792   -1758.0756    493.30515   -331.28342    609.93798 0.00057785979 0.00048794871 0.00051806394 
  598000    510.80118    -117.5902     2043.933   -1560.4318   -560.96956   -1115.1111 0.00057821508 0.00048956947 0.0005186445 
  600000    521.08565   -118.25867    -3687.032    23.382663    394.20462    2725.1983 0.00057598367 0.00049005659 0.00051800375 
  602000    524.74241   -117.26096    2829.0713   -126.35096   -2300.2117   -262.18626 0.00057518549 0.00049337518 0.00052254947 
  604000    457.07629   -117.80821   -1015.1227   -733.24189   -1022.2458    1237.6931 0.00057282245 0.00049705309 0.00052343418 
  606000    448.30031   -117.75515    -620.7336    -233.5099   -90.218722   -673.81838 0.00057050722 0.00049604465 0.00052306209 
  608000    509.33382   -118.81883    2418.6328    1350.0281   -590.69502   -679.35409 0.00056851664 0.00049481607 0.00052490575 
  610000    471.11615   -116.51802   -2668.2191    1304.1174   -1145.8344   -961.07505 0.0005700965 0.00049505153 0.00053192721 
  612000    484.52619   -118.20482    2187.1288   -171.08076   -2204.6888    709.67224 0.00056851954 0.00049728246 0.00053053138 
  614000     536.1131   -116.92415   -233.80734   -1109.5641    1210.2048    1549.0174 0.00056693368 0.0004973309 0.00052921175 
  616000    536.62778   -118.58614   -1402.2663    831.42004     2736.958   -1790.6889 0.00056745458 0.00049490252 0.00052830155 
  618000    459.02419   -117.60952    2218.4929   -2511.7402    560.13166    -400.6879 0.00056909917 0.00049514763 0.00052630194 
  620000    503.14074   -117.78988   -4508.4492   -833.09429    -1518.838    1532.2518 0.00056769034 0.00049461449 0.00052406269 
  622000    548.06318   -117.23126     2121.096   -45.459704    905.03131   -225.64191 0.00056554637 0.00049300271 0.00052202086 
  624000    484.92307   -116.75608   -1722.5473   -5.5865671    1283.1417    1506.3759 0.00057145704 0.00049293199 0.00052220297 
  626000    484.63821   -117.90717   -65.608398   -885.49663   -1069.3129   -151.30004 0.00056891547 0.00049258055 0.00052360062 
  628000    534.27838   -117.94188    2277.4681    852.01755    267.70415    143.25217 0.00056786711 0.00049490613 0.00052134672 
  630000    494.19386   -117.19703   -1816.3476   -1436.6247   -3345.7065    -1283.629 0.00056644143 0.00049037115 0.0005206743 
  632000    491.75454   -117.22287    3580.9625     692.6464    406.49608   -221.71992 0.00057493858 0.00049149795 0.00052503523 
  634000    473.90661   -117.54592    -1966.211    1096.7129   -301.05162   -1336.2778 0.00058378563 0.00049244496 0.00052514988 
  636000    499.40575   -117.93078   -85.169084    1476.1347    451.34177   -903.37947 0.00058399558 0.00049990607 0.00052368609 
  638000    520.09112   -117.80421    35.407246    754.91317   -1158.5847   -187.06223 0.00058283235 0.00049841352 0.0005225279 
  640000    469.19419   -117.60854   -2849.2444    144.83558   -375.71336    -3187.817 0.00058102175 0.00049687898 0.00052241699 
  642000     517.6004   -118.39624    2607.8456   -811.81004   -351.75594    524.23075 0.00057908499 0.00049662167 0.00052241917 
  644000    548.95304   -117.65836   -2648.5205   -331.92561    836.44039    659.04045 0.00058975338 0.00049698937 0.00052269022 
  646000    485.42108   -117.11619    1432.3172     840.6812   -2053.8143    87.735611 0.00058854089 0.00050168818 0.00052392004 
  648000    551.65553   -117.85014   -952.41194    1051.2299   -1880.2069    1750.3496 0.00058581523 0.00049957941 0.00052651428 
  650000    480.32256   -116.98918   -2195.3291    -1238.793   -292.57362    972.34848 0.00058401084 0.00049766897 0.00052717597 
  652000    508.08395    -118.7454    1734.8039     1618.576   -782.53289    -557.9639 0.00058232943 0.00049644924 0.00052529146 
  654000    519.14398   -118.06668   -2759.6961   -243.57412   -38.926461    2496.2033 0.00058057011 0.00049491809 0.00052369953 
  656000    517.95201    -117.7007    2824.9825    668.89339    -209.8155   -1449.6978 0.00057892807 0.00049349912 0.00052264606 
  658000     464.2777   -117.78079    433.95346   -1603.9979    698.29157    349.53712 0.00057774394 0.0005018665 0.0005215574 
  660000    497.12498   -117.99312    -1233.092   -1206.1778    2856.2998   -1777.3548 0.00057636158 0.00050450428 0.00052135417 
  662000    472.86079   -117.66397    2584.7128    745.32764    703.82915   -298.11608 0.00057508234 0.00051651075 0.0005208264 
  664000    447.98203   -118.35165   -3305.7383    163.65443    273.27052   -888.78379 0.00057308407 0.00052289065 0.00052310887 
  666000    459.92926   -117.82046     1889.331   -1274.9029   -3775.5202   -1137.4562 0.00057415649 0.00052401762 0.00052380109 
  668000     468.3834   -118.06461   -482.89105   -893.42328    1155.1459   -304.04416 0.00056973663 0.00053489939 0.00052176308 
  670000    480.44534   -117.87871   -1480.6072   -266.97211   -4.7176213   -1073.6689 0.00056937332 0.00054788392 0.00052162779 
  672000    509.13484   -117.90024    2925.9788    492.23611    1254.7861    1801.1913 0.00056914608 0.00054968206 0.00051940695 
  674000    425.73616   -117.89802   -2810.7797   -323.53794    1886.2698   -2481.3951 0.00056919056 0.00054802905  0.000517839 
  676000    501.44401    -118.4254    1227.3775    338.08729    398.76713    850.65838 0.00056839636 0.00054791877 0.00052092861 
  678000    467.25305   -117.65278   -1115.0648     969.8073    959.02882   -115.54289 0.0005663066 0.0005466627 0.00052735988 
  680000    463.78349   -117.66094   -950.86916   -1361.0867    690.03279    1476.1632 0.00056511006 0.00054854884 0.00052696172 
  682000    467.60157   -119.06197    1293.6682   -1064.6966   -1302.9504   -31.987615 0.00056752012 0.00054951802 0.00052532286 
  684000     505.2655   -116.63942   -1079.7839    764.79759     2380.045   -1078.9994 0.00056750966 0.00054781932 0.00052391665 
  686000    518.90846   -117.60533    3464.8002    811.79056   -860.89271    1093.4331 0.00056590674 0.00054603391 0.00052268613 
  688000    482.70382   -118.66008   -963.71531   -1094.3955    1147.1912    488.29284 0.00056465712 0.00054477112 0.00052195834 
  690000    505.18583    -117.9273    226.73791    481.17341   -468.46366    715.42086 0.00056351485 0.00055326898 0.00052042731 
  692000    525.28819   -117.42353    883.97801    1295.5549   -49.284596    839.89979 0.00056557894 0.00055277008 0.00051938998 
  694000    523.32438   -117.16238   -1959.0564   -685.02794    163.14029   -1577.2677 0.00056453433 0.0005531867 0.00052015225 
  696000    474.61547   -117.32544     2835.242      2548.39   -2237.1584    2636.2478 0.00056344289 0.00055932698 0.0005199734 
  698000     511.2118   -118.49591   -2127.7722    1026.2383   -320.27622    932.17502 0.00056553809 0.00056492148 0.0005183852 
  700000    495.68172    -117.7411    813.28632    2117.4205   -2203.8915    146.22572 0.00056543279 0.00056589305 0.00051699063 
  702000    475.25239     -118.405    375.72826    -483.1658    1299.8877   -1881.4588 0.0005637134 0.00056515836 0.00051768577 
  704000    504.28164   -117.35817   -1849.7854    538.55473   -2739.6566   -980.54559 0.00056150728 0.00056350251 0.00052272842 
  706000    522.51206   -117.75392    1445.1284   -3923.3502    -1459.927   -767.02746 0.00056060094 0.00056248018 0.00052215846 
  708000    528.03716   -118.92678   -3340.4138   -747.03658    364.10166   -281.31411 0.00056109165 0.00056053224 0.00052155805 
  710000    513.67355     -119.097    389.68468   -604.41713     1317.291   -937.46915 0.00055787918 0.00055824762 0.00052020504 
  712000     532.4444   -118.76705   -903.71221    1328.7615   -648.50383   -407.62883 0.0005568351 0.00055618853 0.00051819699 
  714000     467.4102   -117.47165   -1185.0305   -2163.1159   -764.34762     500.7647 0.0005555191 0.0005551772 0.00051755376 
  716000    484.37246    -117.1112    2639.2192   -601.12681    1456.1272   -470.58982 0.00055395599 0.00055407102 0.00051586135 
  718000    445.77685   -118.35813   -1743.7771    1682.1188   -917.33856   -1712.3545 0.00055339376 0.00055366601 0.00051421888 
  720000    507.48057   -117.41987    1699.7334   -1092.9183    476.98396   -689.88829 0.00055338777 0.00055316309 0.0005153855 
  722000    558.16193   -117.61827   -971.35595    591.52933   -2108.0216    835.95233 0.0005517066 0.00055515725 0.00051531103 
  724000    465.33055   -115.93648   -95.644768     -1784.71   -129.00787   -164.47001 0.00055068019 0.00055835915 0.00051702527 
  726000    482.83125   -117.88727    786.18417   -1013.6485    1583.8597   -1040.4504 0.00054994904 0.00056008414 0.00051556535 
  728000    466.71522   -117.32507   -2254.8017   -1059.9645    405.82012    693.73915 0.00054996519 0.00055966398 0.00051388035 
  730000    507.27453   -116.58708    2115.6938   -961.98511    209.55743    548.83809 0.00054784469 0.00056141077 0.00051167576 
  732000     539.7066   -117.50045   -646.86839    1348.4378    3543.3657   -1398.3102 0.00054722722 0.00056099649 0.0005157698 
  734000    553.40613   -117.75188   -275.29711   -1339.3006   -992.23813    2535.4791 0.00055156837 0.00056132403 0.00051452783 
  736000    469.14428   -118.64715    330.32205    1764.3764    1151.8792    -1316.597 0.00055050215 0.00056064764 0.00051352209 
  738000    549.81758   -117.19014   -900.03182    404.49043   -1512.8212    855.86201 0.00055045564 0.00055896847 0.00051236816 
  740000    482.76275   -118.62516    2483.7455   -701.46873    269.60959   -497.08533 0.00054946521 0.00055803243 0.00051288077 
  742000    438.67348   -118.91135   -2472.3475   -23.163943   -556.33241    1883.8144 0.00054917933 0.00055646103 0.00052113039 
  744000    509.28297   -116.31423    2284.2844   -146.79918   -1508.1319   -264.03019 0.00055018655 0.0005556555 0.00052002506 
  746000    486.07942   -117.46476    694.29917   -199.32213    1130.1208     2860.063 0.0005477195 0.00055675538 0.00052056576 
  748000    480.22518   -118.44781   -1397.6151    157.11937    1822.4428   -673.38707 0.00054777551 0.00055544106 0.00051938362 
  750000    481.53593   -117.76543    2172.3705   -1442.6619   -92.146067   -940.78576 0.00054527195 0.00055541883 0.00051839289 
  752000    463.75659   -118.54539   -3520.0332    578.39407    421.49844    1162.8356 0.00054435674 0.00055521495 0.00051916798 
  754000    472.20998   -117.45564    1226.3871   -327.95988    1351.5994   -312.53031 0.00054652202 0.00055355446 0.00051782244 
  756000    447.69426   -117.69199   -1536.3199    668.28762    210.77816    1590.9566 0.00054560951 0.00055489161 0.00052017478 
  758000    489.43241   -116.75697   -429.37809     345.9957      226.343   -1021.5234 0.00054716383 0.0005535988 0.00051917636 
  760000    501.23633   -119.05208    825.20506    1061.6545    1662.9672    71.801355 0.00054696286 0.00055313119 0.00051808193 
  762000    529.81276   -117.41113   -2784.1511    1705.7082    441.44059   -1994.6422 0.00055602114 0.00055378646 0.0005197523 
  764000    491.73556   -119.33714    1783.0236    -228.8923   -232.00308    1129.3944 0.00055689129 0.0005532095 0.00051894614 
  766000    514.36795   -118.60819   -1757.3842    609.12954    73.314435   -2762.3623 0.00055766187 0.00055183511 0.00052243624 
  768000    451.61289   -117.88459   -137.80279    1145.7236   -1872.4073     520.9936 0.00055783804 0.00055039151 0.00052014055 
  770000    523.29338   -118.14171    2108.3837   -1184.2136    902.17169   -890.87858 0.00055679602 0.00055497762 0.00051928294 
  772000    466.50452   -117.34356   -2313.7314   -737.90027    744.43611    707.30765 0.00055748823 0.00056110013 0.00051881541 
  774000    513.89365   -118.20377    3613.9562    1535.7862   -1211.5963   -1997.6537 0.00055768308 0.00055860412 0.00051677802 
  776000    525.12489   -118.45479   -1527.7676    579.07731   -715.11464    144.36243 0.00055592364 0.00055769938 0.00051516632 
  778000    490.50038   -118.70345   -405.80589    805.44497    1460.2397    591.55174 0.00055713712 0.00055644971 0.00051227033 
  780000    482.56209   -117.79813    508.46602   -810.48695   -1494.3099   -2435.2903 0.00055572986 0.00055628605 0.00051427989 
  782000     520.1967   -118.46054   -4734.7913    1570.0162    1057.2127    1114.9597 0.00055576759 0.00055741703 0.00051337124 
  784000    485.34081    -117.9292    3441.7988   -910.33881   -1074.9479    18.230037 0.00055525498 0.00055652544 0.00051230378 
  786000    467.51177   -117.94254   -3208.0402   -2085.0454     4871.708   -365.54538 0.00055393536 0.00055529692 0.00051099526 
  788000    520.79628   -117.65015    661.92951   -113.56104    1237.3678    -240.1179 0.00055204982 0.00055738858 0.00051348893 
  790000    489.60259   -117.31857    1315.2243    1085.0912    1688.6094   -1559.6896 0.00055265629 0.0005584754 0.00051313444 
  792000    499.40224   -118.35208   -3157.3716    557.38727    1818.9604    656.34965 0.00055341711 0.00056254012 0.00051156041 
  794000    441.75357   -117.32098    4638.6216   -1878.0171     395.9282    1901.9547 0.0005541664 0.00057346102 0.00051446949 
  796000    521.73556   -117.83301   -5599.3454    1408.4233   -1324.4652   -1524.3842 0.00055225685 0.00057547223 0.00051306586 
  798000    517.55456   -115.80944    2105.7371   -534.43983    -990.0816    2231.9856 0.00055071665 0.00057587741 0.00051182224 
  800000    503.33237   -117.39874    208.94252    639.16706    1217.8139    690.86682 0.00054950142 0.00058030602 0.00051123384 
  802000     485.9678   -117.47967   -3273.2656    502.19822   -1893.5176    1163.7163 0.00054899858 0.00058262963 0.00051054279 
  804000    528.57187   -116.03555    4706.5946   -1290.0049    3891.2884    943.97124 0.00055103146 0.00058169183 0.00050992516 
  806000    455.32386   -117.31293   -3985.2165   -515.74422   -47.893821   -364.21518 0.0005649916 0.00058034697 0.00050916545 
  808000    488.50549   -118.02511    2083.9771   -114.31791    1343.4627   -813.26703 0.00056339752 0.0005791583 0.00050823796 
  810000    478.88484   -118.51252   -196.52637    -1037.004    1037.6888   -1218.9712 0.00056195812 0.00058246999 0.00050744201 
  812000    509.58569   -117.32826   -3902.6393    6.5818133    1202.6951    1563.0962 0.00056055466 0.00058134973 0.00050702536 
  814000     530.7998   -117.45456    3924.6482   -1367.0603   -242.46012    1340.5231 0.00055851141 0.00057991352 0.00050483885 
  816000    465.80459   -116.90598   -4721.3066    724.13056    1998.3308    553.00063 0.00055776211 0.00057897357 0.00050427388 
  818000    489.75477   -117.69887    2420.5147    220.77656     472.1959   -946.84399 0.00055702996 0.00057782147 0.00050417494 
  820000    465.20359   -117.61222   -188.04172   -1226.7149   -107.98271    1112.9451 0.00055734888 0.00057739257 0.0005059678 
  822000    487.36478   -116.81684   -1939.9127    3910.5171    211.57116   -1725.3772 0.00055887215 0.00058448389 0.00050493522 
  824000    524.51469   -118.21956    3616.6759   -523.41741    1991.6637   -2838.0648 0.00055928563 0.0005915448 0.00050481181 
  826000    456.09398   -117.16865   -5219.7404   -1072.2906   -1087.6375    527.00796 0.00055739175 0.00059176624 0.00050384586 
  828000    559.41756   -116.93936    3531.5594   -889.99468    1205.1432    841.67129 0.00055624446 0.00058958756 0.00050533084 
  830000     511.8925   -117.66276   -836.59178   -319.44046    354.96345    682.07631 0.00055493496 0.00058823081 0.0005040386 
  832000    497.96485   -117.15907   -1509.7769    1821.1868   -537.98815    1630.5279 0.00055403178 0.00058693252 0.00050495716 
  834000    492.95688   -117.45471    3888.4674      -885.74    2114.4078    789.71933 0.00055269527 0.00058872133 0.00050319315 
  836000    520.70721   -117.71488   -3682.6399   -1088.4384   -1762.0598   -570.19014 0.00055425008 0.00058696959 0.00050185977 
  838000    533.48863   -117.34362    3587.3496    233.20628   -1061.2756    794.27539 0.00055315412 0.00058585592 0.00050080751 
  840000    553.00567   -117.84522   -2529.0159    925.10698    1348.7587    482.78029 0.00055641782 0.00058680513 0.00050285885 
  842000    518.96585   -118.26141   -836.87793   -49.696032   -3423.9381    742.68502 0.0005546228 0.0005839584 0.00050188453 
  844000    493.21958   -117.21263    2416.7975   -189.91448   -771.60108    2396.9877 0.00055353887  0.000582261 0.00050116284 
  846000    541.27564   -117.28045   -3649.6926    155.52668   -62.024747    552.75835 0.00055378054 0.00058137519 0.00050504708 
  848000    532.64903   -117.46987    3714.0602    512.21831    943.36269    721.81859 0.00055276529 0.00057973387 0.00050598602 
  850000    492.96865   -117.73969   -3394.3982    76.881594    943.56978   -2076.1428 0.00055146023 0.00057843121 0.00050441723 
  852000    521.17928    -118.4356   -58.647949     847.2014    1687.9274   -21.221188   0.00055188 0.00057722022 0.0005028564 
  854000     481.5272   -118.59743    1585.2451    699.61365     1503.039    857.12488 0.0005511056 0.00057567358 0.00050157974 
  856000    494.15783   -118.10855   -3819.6087   -1046.9447   -287.30334   -286.76653 0.00055142944 0.00057586632 0.00050166738 
  858000    481.74543   -117.84891    2749.6308   -1464.9217    607.15582    327.80417 0.00055127874 0.0005744419 0.00050203403 
  860000    473.95765     -118.561   -1944.3106   -1914.5242   -1463.3952    925.11045 0.00054945483 0.0005761597 0.00050011487 
  862000    554.13945   -118.39647    821.75906   -1201.5692    108.68216   -1161.4438 0.00054864365 0.00057537493 0.00049936323 
  864000    458.18407   -117.72128    1843.7217    1547.5481   -412.27846   -1589.4555 0.0005480514 0.00057382358 0.00049853209 
  866000      461.356   -116.85728    -2241.152    468.10723    462.84967     832.7044 0.00054845985 0.00057357648 0.00049760356 
  868000    442.28026   -117.49493    2487.3715    -435.6423   -601.96662    3209.5618 0.00054772926 0.00057361077 0.00049911175 
  870000    557.38292   -117.60423   -3182.9355    -951.2965   -241.88261   -1729.1023 0.00054613131 0.00057382818 0.00049781986 
  872000    485.27225   -117.62067    1160.0189    417.65214    2095.1657    370.89188 0.00054556778 0.00057291355 0.00049670254 
  874000    528.59325   -118.00751    760.39264    1075.1408   -398.18611   -2882.4824 0.00054488175 0.00057118568 0.00049627553 
  876000     447.7175   -117.88766   -1976.1357    83.280365    2096.3947    -1814.153 0.00054442149 0.00057070234 0.00049757313 
  878000    510.49549   -115.89229    2124.8908    717.68394   -413.15274    982.24502 0.0005428644 0.00056974015 0.00049833331 
  880000    501.30408   -118.26575    -2699.284    1980.7438   -272.99546   -828.58609 0.00054176196  0.000571398 0.00049859729 
  882000     480.2863   -118.59339    751.39525    620.81073    249.82371   -893.44708 0.00054136576 0.00057384812 0.0005001042 
  884000    459.32422   -116.17279   -548.85786   -1163.1802   -3141.7318   -2601.7511 0.00054147781 0.00057376849 0.00050059207 
  886000    460.18623   -119.09063   -1733.6582   -1255.0685   -176.24862    1905.3078 0.00053974039 0.0005731772 0.0004992024 
  888000    464.07468   -117.71168    1487.5274   -47.989626    864.23739    1045.4588 0.00053827178 0.00057178017 0.0004984662 
  890000    505.79116   -118.47879   -2709.7104    87.569305    792.25632   -631.62619 0.00053715278 0.00057347144 0.00049740262 
  892000     497.5245   -117.64947    1899.8291    1455.1319   -311.35431    1528.0828 0.00053601191 0.00057291588 0.00049690483 
  894000    470.78549   -117.62866   -913.43699   -461.49446   -1625.6688   -792.31206 0.00053473456 0.00057222455 0.00049618679 
  896000    495.12905   -119.04625   -626.12187    861.70683   -686.57401   -2335.5264 0.00053371001 0.00057227167 0.00049498997 
  898000    501.59297   -117.25541    223.43201   -437.70919    16.502282   -1149.4779 0.0005350387 0.00057214206 0.00049440699 
  900000    512.30897   -118.31101   -3919.6993   -680.64867   -859.28445   -543.12692 0.00053181381 0.00057121551 0.00049339909 
  902000    560.18837   -118.44662    1238.1795   -1080.0371   -341.22481    1148.3632 0.00053104989 0.00056983017 0.00049241822 
  904000    453.41315   -116.49706   -908.99601   -2671.4884    1174.8729    908.19258 0.00052995436 0.00056899564 0.00049637819 
  906000    505.90492   -118.09983   -79.991655    2674.1663    2750.0438    74.835131 0.00052862805 0.00056904516 0.00049760634 
  908000    501.09701   -118.16992    1462.7686   -2824.4211   -868.16195    954.02871 0.00052861651 0.00057138747 0.00049646322 
  910000    482.50251   -116.26066    67.708489     444.2537    19.828509    1892.2751 0.00052872723 0.00057245247 0.0004956065 
  912000    471.14268    -117.4934    1766.5177   -1704.0665    1842.2588   -449.69309 0.00052743959 0.00057457181 0.00049494747 
  914000    459.87816   -117.78533   -1833.4355   -1282.4768    321.83837   -1352.0409 0.00052582007 0.00057353256 0.00049391425 
  916000    474.37192   -117.45268    774.16686   -1514.7517    301.58602   -722.82806 0.00052572573 0.00057507196 0.00049739557 
  918000    482.92092   -117.88918    393.34519   -2386.5676   -1187.0658   -2929.6547 0.00052434827 0.0005736026 0.00049775978 
  920000    487.49231   -118.15572    -1997.925    683.90116      925.628   -930.42707 0.00052438732 0.00057214999 0.00049725092 
  922000    505.65758   -118.56464    1095.2291    873.85357   -2440.2158   -1398.7832 0.00052405223 0.0005724728 0.0004965136 
  924000    495.99703   -118.00754   -1754.1377    563.36564    371.86904    741.19984 0.00053121899 0.00057349172 0.00049879409 
  926000    476.43874   -118.03778   -292.03312   -1144.9868   -762.17827   -2958.1413 0.00053327435 0.00057449827 0.00050068038 
  928000     512.3149   -117.48177   -1146.0916   -1755.9491    -238.4678   -863.04494 0.00053152266 0.00057342087 0.00050061374 
  930000    471.45253   -118.86579   -1766.2412   -335.34851   -2754.8621    -830.2741 0.00053171768 0.00057180117 0.00049976875 
  932000    477.52618   -117.62704    824.53026    990.25299    3.4024237     1644.984 0.00053070737 0.00057194689 0.00049874827 
  934000    505.07642   -118.08887    -2219.461   -38.079899    714.67086    1803.1623 0.00053768485 0.00056997839 0.00049771395 
  936000    496.54094   -118.35769    1293.4533   -869.65562   -2812.2766    -1105.888 0.00053504604 0.00056952567 0.00049885493 
  938000    558.69514    -118.2577   -767.05686   -43.765727   -44.461166    209.82215 0.00053454841 0.00056966853 0.00049750983 
  940000    508.15442   -118.01011    12.357556    156.72579   -673.21568   -1798.3995 0.00053444434 0.00056918959 0.00050019262 
  942000    456.25871   -118.72342    587.27704   -406.60476   -167.09107    445.02506 0.00053397337 0.00056738718 0.00049905141 
  944000    481.54087   -117.73409   -1052.3456   -116.35333    1004.0416    1034.5211 0.00053477827 0.00056655253 0.00050040573 
  946000    497.86981    -117.3643    1219.3279    795.18699   -899.14723    3631.9137 0.00053406518 0.00056536254 0.00049890912 
  948000    536.03813   -117.76848   -2257.3228   -1581.8456    1985.3756   -2385.0783 0.00053302776 0.00056395519 0.00049845836 
  950000    529.87207   -117.46041   -1749.6956    1057.7218   -1118.6752     349.7757 0.00053207849 0.00056311038 0.00049717475 
  952000    492.42754   -117.51571    746.38269    1076.1831    2000.8358   -5.2363988 0.00053039328 0.0005623769 0.00049675239 
  954000    531.16722   -119.20284   -2650.7771    1224.6529    1041.1458   -1159.3863 0.00052982209 0.00056139305 0.00049550007 
  956000     486.4029   -117.56207    1025.8458   -2447.7431   -1808.1103    -2294.172 0.00052928821 0.00056096815 0.00049459368 
  958000    517.61144   -117.82246   -1195.9178   -1868.6727    3266.3844   -654.97852 0.00053331361 0.00056027393 0.00049381722 
  960000    438.14924   -118.03071    1146.3643   -1187.8711   -3260.9918     464.2796 0.00053154951 0.00055928231 0.00049260484 
  962000    521.77619   -118.61879      599.481    536.61775    304.27558   -504.37897 0.00053056285 0.00056022986 0.00049273882 
  964000    489.64631   -116.11086    193.64766    163.16125    798.62946   -123.62138 0.00053046297 0.00055831484 0.00049220156 
  966000    526.29683   -117.47308    1710.2321   -2692.9668     1345.792   -1797.7787 0.00052914907 0.00055759536 0.0004918618 
  968000    458.60544   -119.42236   -1653.6259    -101.4943     700.8834   -1469.7368 0.00052854066 0.00055671748 0.00049110441 
  970000    559.47637   -118.09237    620.70192   -1224.4543    1875.5152   -778.03379 0.00052791749 0.00055576908 0.00049032587 
  972000    503.21798   -118.52524   -533.82691    489.13529    760.78267    119.12791 0.00052717832 0.00055751752 0.00048970679 
  974000    506.61377    -119.0475   -2105.7267   -249.36667   -1911.8208   -1405.4443 0.00052620886 0.00056206884 0.00048926908 
  976000     476.6448   -117.49833    -110.2837    847.75385   -42.692639    1776.5841 0.0005280709 0.00056028108 0.00048874815 
  978000    526.69617   -117.62867   -2120.3407   -1055.3816   -314.92127     2293.327 0.00052855215 0.00055984898 0.00048769874 
  980000    419.10977   -117.25427    123.99515   -225.96708    1109.8952   -7.3174896 0.0005317084 0.00055823006 0.00048682764 
  982000     509.4477   -119.76035   -1317.7322     1892.153   -767.05654   -597.01333 0.00053429168 0.00056026117 0.00048735759 
  984000    507.51929   -118.35757   -1035.6766   -543.61348   -345.92873   -287.97853 0.00053369996 0.00055818813 0.00048698781 
  986000    487.63042   -117.58541    1555.3264    1135.6679    308.54587   -948.12412 0.00053245242 0.00055793385 0.00048741078 
  988000    481.80179   -117.29111   -595.17401   -1018.3702   -1104.4718    2053.8245 0.00053163613 0.00055698407 0.00048550617 
  990000    459.51308   -116.64494     1786.086   -1594.3209    782.96075    135.34465 0.0005326366 0.00055588329 0.00048690055 
  992000    461.99342   -116.75133   -1030.3992    471.99075   -625.06296    -354.0859 0.00053193928 0.00055519981 0.00049019162 
  994000    463.36706   -118.16769   -626.97292   -220.41425   -597.44589   -1140.1535 0.00053106795 0.00055495941 0.0004895932 
  996000    480.10607   -116.61038    669.61907    527.12693   -754.63058   -2808.4938 0.00053059553 0.00055349372 0.00049122364 
  998000    483.55227   -118.44273   -2063.2643    860.51678    2856.2184    222.93891 0.00053111754 0.00055389563 0.00049018376 
 1000000    524.45204   -117.11617   -44.924409     1126.428    632.85555    268.56264 0.00052979625 0.0005533838 0.00048946972 
 1002000    502.10259   -116.29101   -491.56865    1275.4616     3706.046   -1698.5558 0.00052894436 0.00055480683 0.00048952831 
 1004000    496.81925   -117.47118   -435.01462   -672.89175    1396.0271   -208.13591 0.00052835447 0.00055436953 0.0004906783 
 1006000    470.86963   -117.71331    524.31694    1959.6013     534.0473    1625.4664 0.00052917424 0.00055355593 0.0004929794 
 1008000    478.73984   -117.66959    -1279.812   -67.491568    1424.8612    993.89165 0.00052833826 0.00055517554 0.00049178476 
 1010000    528.72999   -117.45031    835.85339   -907.83002    1386.9925    1139.8427 0.00052733249 0.00055503811 0.00049074016 
 1012000    501.83107   -116.28132   -76.343199   -931.26601    516.67614    414.30799 0.00052661326 0.00055468071 0.00048967198 
 1014000    464.58976   -117.92624    395.01876    2150.1441    813.71218    1626.8298 0.00052558407 0.00055347855 0.00049012979 
 1016000    481.28673   -116.88822    1685.0742     1588.745   -108.71991    277.01225 0.00052463881 0.00055362585 0.00048871186 
 1018000    613.71634   -117.86981   -673.08547    -221.6776    1134.3267   -2045.7374 0.00052412267 0.00055344297 0.0004889737 
 1020000    502.14359   -117.42976    2260.8019   -137.79785     1418.522   -1153.3749 0.00052321022 0.00055151061 0.00049031381 
 1022000     563.9641   -116.65791   -793.05706    1026.7643    109.21713    31.533454 0.00052192099 0.00055084709 0.00049732715 
 1024000     474.7659   -117.01786   -241.74773   -378.95651     1530.016    1479.6754 0.00052490583 0.00054973393 0.00050406887 
 1026000    470.60493   -118.03775   -1180.3894    756.75281   -35.091784    95.062674 0.00052367858 0.00055094065 0.00050353146 
 1028000    479.05335   -118.71921   -1150.0721    1141.4654    1102.1122    687.72155 0.00052240312 0.00055641839 0.0005024436 
 1030000    452.64414   -117.65663    2109.0115   -1665.8732    2397.7706   -4231.9586 0.00052173367 0.00055459926 0.00050139227 
 1032000     471.6522   -116.22151   -1324.8018     954.9041     -1576.14   -1337.6651 0.00052093459 0.00055415721 0.00050102782 
 1034000    494.32918   -118.27762    1756.2707    980.85739    1079.4182   -2120.5986 0.00051931556 0.00055395382 0.00050040395 
 1036000    476.52117   -118.24843   -764.62697    852.61932   -705.57288    -1226.434 0.00051810501 0.00055535243 0.00050099629 
 1038000    514.79385   -118.75905   -537.05602   -2443.4022   -1068.4518    760.10377 0.00051768064 0.00055397921 0.00050081409 
 1040000     514.7403   -117.80977    381.01398   -605.95527    428.19624   -2503.9504 0.00051741468 0.00055300553 0.00050029544 
 1042000    502.66617   -118.30962   -2137.8224   -259.28205   -369.92898    -1720.333 0.00051553679 0.00055196975 0.00049990035 
 1044000    509.78706   -117.33913    1281.1527   -604.70086    996.80174    1741.1081 0.00051428391 0.00055062908 0.00050125418 
 1046000    458.06246   -118.41916   -1369.8315    1341.1198   -1362.9311    70.982644 0.00051314119 0.00054980273 0.00050224538 
 1048000    495.12761   -117.84234    421.73131   -939.28053   -1366.7504    812.38695 0.00051221688 0.00054843556 0.00050200203 
 1050000    469.49149   -117.58789    612.41685    84.858588    -1121.235    617.36566 0.00051244502 0.00054741638 0.00050345386 
 1052000     494.4262   -118.28433   -2221.7652    -575.1031   -261.05541    17.182461 0.00051182533 0.00054601574 0.00050656928 
 1054000    558.27757   -118.00899    1236.2492    1014.7075    922.56433    1561.5458 0.00051495754 0.00054573289 0.00050750241 
 1056000    447.69106   -119.47897   -2500.4155   -659.08844    1330.7831   -290.73928 0.00051373352 0.00054429008 0.00050687329 
 1058000    482.84078   -117.36384    430.43609   -525.77384    734.10809    1226.2369 0.00051375278 0.00054393172 0.00050992515 
 1060000    462.49984   -117.57351    816.22367    195.95829    -684.6952   -2731.0032 0.0005123166 0.0005422414 0.00050883269 
 1062000    539.63016   -117.92839   -1669.9599   -1389.0175    1145.2717    2893.5963 0.0005119231 0.00054053941  0.000509208 
 1064000    486.56429   -117.63752    1035.7614   -2318.3645    208.69144    1505.8611 0.00051398998 0.00053948169 0.00050834794 
 1066000    545.87929   -118.14405   -2119.1412    1379.5567    49.573292   -2782.6627 0.00051357382 0.00053876924 0.00050742766 
 1068000     535.9371   -117.31371   -56.357082   -1355.8311   -204.78023    521.82179 0.00051492691 0.00053811292 0.00051264513 
 1070000    463.63972   -119.15225   -755.75674   -138.10782   -997.55526   -800.43903 0.00051450257 0.00053711286 0.00051170391 
 1072000    461.25541   -117.79862   -309.68904    342.59686   -1786.5816   -682.88856 0.00051361751 0.00053833762 0.00051055677 
 1074000    466.06957   -118.25224    1651.0281   -656.01575     1107.114    41.449959 0.00051285822 0.00053878008 0.00051084389 
 1076000     457.5842   -117.89607   -1453.6254    1401.3362   -570.17165   -1531.5686 0.00051166202 0.00053987074 0.00051102321 
 1078000    539.80865    -118.2132    710.01615   -249.00398    1007.3984    1509.2185 0.00051283005 0.00054320608 0.00050998701 
 1080000    591.28672   -118.09541   -1154.6533   -1283.0507   -1191.1843     -448.252 0.00051306386 0.00054235887 0.00050910072 
 1082000    521.93414   -118.11175   -1422.1617   -636.19246   -677.61083   -1929.1855 0.00051201923 0.0005466003 0.00051103879 
 1084000    473.56077   -116.78116    594.14924   -693.11649   -769.91835    1648.4199 0.00051318343 0.00054620364 0.00050953414 
 1086000    453.91581    -117.4969   -1847.5352    -546.7559    46.906322   -3265.8339 0.00051414456 0.00054633325 0.00050823693 
 1088000    514.39733   -119.15648    1315.3866   -357.63393   -700.97235    -818.9791 0.00051302496 0.00054577486 0.00050762539 
 1090000    505.44109   -117.40931     -278.799   -382.15939   -796.14061   -1373.9289 0.00051229235 0.00055009082 0.00050746476 
 1092000    587.52176    -118.0902    203.34457    94.206134    826.98209   -1620.2182 0.00051136226 0.00055101852 0.00050663565 
 1094000     476.7039   -117.00172    104.66392    763.91708   -684.06709    707.39494 0.00051268278 0.00055045145 0.00050551343 
 1096000    502.18312   -118.17671   -1566.1836   -729.02281   -158.93955   -683.15463 0.00051184224 0.00054966452 0.00050623335 
 1098000    465.51125   -116.40845    1185.3607    1859.7259    2671.1783   -2985.3536 0.00051175894 0.00054881159 0.00050800553 
 1100000    530.51335   -116.41813   -1005.5528    1406.8493    1789.2492    393.47404 0.00051162996 0.00054767945 0.00050739384 
 1102000    485.41012   -117.23192    344.69915    1231.3693   -2744.7643    3149.9194 0.00051714367 0.00054673472 0.00050912216 
 1104000    545.92986   -117.20917    356.44564   -71.320097     6.498868    1515.9515 0.00051539681 0.00054565903 0.00050931937 
 1106000    491.33169   -117.90438   -1743.4808   -455.69912     -952.644   -728.42356 0.00051722604 0.00054542163 0.00050814478 
 1108000    504.95856   -117.68223    144.39782   -2660.4512   -1673.0966   -81.240198 0.00051732796 0.00054557701 0.00050730385 
 1110000    494.22306   -117.40657   -1837.4144    756.47582     258.9075    25.318355 0.00051649126 0.00054646861 0.00050635294 
 1112000    503.69501   -117.39292    7.7973738   -1495.8084    1342.2485   -1245.6178 0.00051790247 0.00054442225 0.0005056954 
 1114000    504.16404   -117.45874   -726.90894   -622.41686   -422.91264    241.79481 0.00051905489 0.00054431982 0.00050709336 
 1116000    523.94464   -118.92305   -104.38689   -91.839238   -1838.3623    787.07845 0.0005178856 0.00054419718 0.00050609764 
 1118000    580.80238   -117.90657    2594.7769   -3013.5272     1074.463   -1447.2128 0.00051704485 0.00054301958 0.00050588211 
 1120000    526.94401   -118.95429   -1158.8565   -1208.8502   -32.681501    -2096.397 0.00051596613 0.0005429186 0.00050664172 
 1122000    494.04834   -118.18353    319.26474   -1378.6539    2008.5536    730.88416 0.00051496377 0.00054164534 0.00050758693 
 1124000     479.7535   -116.78715   -2196.6797   -2363.6874    540.43404    640.48491 0.00051760805  0.000542972 0.00050732014 
 1126000    518.39343   -117.80974     673.2806   -722.54899   -703.87426   -1075.7346 0.00051699259 0.00054180263 0.00050898497 
 1128000    519.41704   -117.30634   -8.1371966   -135.71149    3282.4243    3014.3366 0.00051599616 0.00054092305 0.0005104423 
 1130000    500.55276    -116.6732   -442.15972    772.56955   -457.45789   -338.85899 0.00052011494 0.00054083937 0.00051063187 
 1132000    496.98395   -118.57306    1702.3555   -1784.2217    343.52049     179.9984 0.00052224615 0.00054156858 0.00051235016 
 1134000    550.97339   -118.73482   -1178.1402   -881.16603    2266.7561    1065.4671 0.00052089546 0.00054093386 0.00051367451 
 1136000    494.05088   -117.88346    895.32998    337.48442    -1396.186    804.02686 0.00051984804 0.00054537639 0.00051400332 
 1138000    506.60017   -116.45566    65.652547    827.52269   -972.74167    3329.6896 0.00051878931 0.00054582691 0.00051330565 
 1140000    516.25814   -117.35879   -1420.9733    479.75633    1237.3187    42.948495 0.00052111645 0.00054516882 0.00051227022 
 1142000    553.86157   -117.10971    603.25503   -113.14437    1695.1132    402.39355 0.00052042681 0.00054395079 0.00051301903 
 1144000    514.29648    -118.0119    -1285.627    262.91826   -995.04987    1427.0059 0.0005205463 0.00054351141 0.00051525531 
 1146000    547.50194   -118.35658    1273.1902    386.42602    1546.7923    2432.0002 0.00051954105 0.00054485917 0.00051660868 
 1148000    470.25944   -116.94661   -981.36505    1375.3709    2463.1723     -1534.64 0.00051994058 0.00054660353 0.00051680957 
 1150000    482.11066   -117.42728   -893.31386    722.97273     909.7548     574.5959 0.00052055243 0.00054854047 0.00051763043 
 1152000    468.68018   -117.67655   -42.685633    496.30872    590.07684    1229.1901 0.00052556111 0.00054940158 0.00052028937 
 1154000    495.11746   -116.95945   -2332.1145    1536.7924   -314.48067   -238.85355 0.00052566259 0.00054979288 0.00051849206 
 1156000    522.27569   -118.19924    955.04364    1332.2154     -523.418    738.32056 0.00052575637 0.00054846895 0.00051830994 
 1158000    465.22612   -117.87001    -1025.046   -525.01157    139.12349   -1066.4251 0.00052517532 0.00054917008 0.00051821969 
 1160000    516.79432   -117.84358    1774.0914    325.37128    455.66008   -2175.0905 0.00052485016 0.00054889686 0.00051720003 
 1162000    443.51609    -117.3015    790.17129     1282.347    1540.5528    2689.4471 0.0005240819 0.00054840553 0.00051591883 
 1164000    502.68286   -117.16431   -300.00717    -1672.316   -2089.2827   -1997.6341 0.00052367348 0.00054718107 0.00051464672 
 1166000    479.61309   -117.22904    442.22094    2755.6096    1746.8375    3212.6078 0.00052243636 0.00054696193 0.00051423359 
 1168000    497.43841   -118.27341    -2645.157    661.31234   -1527.8279    249.14923 0.00052223044 0.00054559911 0.00051341014 
 1170000    476.18999   -117.86772    792.54809   -1362.3642   -314.40089   -574.01849 0.00052436628 0.00054497554 0.00051278554 
 1172000    457.89106   -117.67456     -91.4416   -849.80624    954.10711    -23.19728 0.00052358969 0.00054569381 0.00051397276 
 1174000    459.18185   -118.18195   -278.12741   -993.75855    80.348387   -742.82854 0.00052785014 0.00054452768 0.00051719234 
 1176000    473.89848   -116.44349    2176.5003    137.80406   -613.25112   -1868.9719 0.00052688136 0.00054386322 0.0005234935 
 1178000    463.37382   -116.54303   -374.44023   -510.26371    1724.6321     476.2951 0.00052600393 0.00054288976 0.0005232678 
 1180000    497.14704   -117.39497     45.15358   -447.04996    1123.8358    -322.5337 0.00052729744 0.00054209194 0.0005230153 
 1182000    482.70499   -118.58261   -1284.9962    3259.6215    1861.2714   -83.323758 0.00052749205 0.00054372902 0.00052318681 
 1184000    488.16001   -117.84069     -1510.38   -2159.9359    1146.3875   -667.07882 0.00052704414 0.00054291525 0.00052343203 
 1186000    489.36629   -117.58142   -658.43866   -1403.5517   -421.15677    877.19305 0.00052612014 0.00054167997 0.00052257235 
 1188000    532.41256   -117.31357    -355.9402   -308.96993   -1175.0688   -1430.9592 0.00052593476 0.00054174286 0.00052164149 
 1190000    497.89095   -118.07089    96.047713    2317.4483    236.57551    1015.4309 0.0005254338 0.0005411049 0.00052048444 
 1192000    501.48809   -117.84957    324.67178    4.8265814    1832.1167   -831.86579 0.0005295086 0.00054076369 0.00052178044 
 1194000    515.22357   -118.07808   -83.656732    584.04304   -562.58649   -1219.6888 0.00053128342 0.00054694591 0.00052177338 
 1196000    465.61566   -116.50532   -401.06406    699.00258   -1482.7402    -584.8157 0.00053827433 0.00054822573 0.00052093997 
 1198000    459.03212   -117.35693   -614.41321    2325.9604   -996.28083   -316.04217 0.00053746473 0.00054677164 0.0005199722 
 1200000    478.77136   -118.98605   -494.44596     679.2933   -483.59296    1945.7546 0.0005360674 0.00054879099 0.00051967536 
 1202000    461.58896    -117.1578    453.91341   -3672.6257   -2682.0624   -297.99499 0.00053593768 0.00055213354 0.00052014593 
 1204000    488.29233   -118.12417    792.23788   -285.87879   -1883.8955   -283.02389 0.00053692821 0.00055356548 0.00052131989 
 1206000     519.9334   -119.23296   -482.04808   -2452.5423    1381.4013     122.6252 0.00053668527 0.00055474062 0.00052189324 
 1208000    532.89318   -117.94869    61.747421   -1686.3173    2858.7124    -630.5393 0.00053572666 0.00055444152 0.00052083433 
 1210000    526.93793   -117.73851   -1120.0281    164.28684   -814.64957   -736.75331 0.00053598803 0.00055429933 0.00052002471 
 1212000    511.77771   -117.74761   -1801.1922   -699.21964    1376.4131    2539.2216 0.00053506933 0.00055341682 0.00051935552 
 1214000    487.63448   -116.74525   -189.10252   -1164.2083   -1651.1777     554.8464 0.00053533002 0.00055265706  0.000518889 
 1216000    459.08719   -117.74306   -222.89648   -3323.3189    -1085.103     2508.375 0.00053628752 0.00055170954 0.00051796441 
 1218000     509.5658    -116.8893    586.90899    635.17551    655.32034    -780.8902  0.000535119 0.00055071441 0.00051995331 
 1220000    481.10842     -117.786    854.77834   -764.69849   -1926.3119   -906.80636 0.00053468988 0.00055265418 0.0005206631 
 1222000    552.33396   -114.71637    854.88349   -3501.1502     921.4706    107.40141 0.00053667301 0.00055159338 0.00052023195 
 1224000    559.10276   -118.32791   -350.77055   -1170.5557    1358.7425   -1915.4658 0.00053734993 0.00055128837 0.00051912654 
 1226000    488.90448   -117.01157   -370.26113   -592.53135     565.5545   -661.54598 0.00053638485 0.00055043028 0.00051889803 
 1228000    560.77003   -117.40568    -26.39128   -841.72235    312.24807    1361.7798 0.00053732102 0.00054955989 0.00051813991 
 1230000    489.90355   -117.29753    447.70658    3783.4346   -1553.3865   -144.23002 0.00053704727 0.00054922549 0.00051740897 
 1232000    508.08222   -117.71365    6.0967179   -661.00029   -616.06502    -3245.359 0.00053635201 0.00054991244 0.00051639623 
 1234000     505.5165   -117.72074    300.08707    2513.3371   -408.24353    676.12856 0.00053575078 0.0005528872 0.00051725976 
 1236000     468.0782   -117.29701   -1465.6796    370.15672    275.32611    606.51359 0.00053502769 0.00055250411 0.00051611794 
 1238000    486.12276   -116.03263   -51.814285      634.126     49.15742    3554.4403 0.00053435327 0.00055168911 0.00051593337 
 1240000    471.63501   -118.00119   -1087.6988   -1726.7556    1261.4021   -62.691831 0.00053358199 0.00055448619 0.0005163438 
 1242000    543.75052   -117.25074    -350.8286   -1720.9044    1997.1681    1751.9261 0.00053266858 0.00055551756 0.00051515831 
 1244000    484.40371    -116.6493    401.16705   -1660.8578   -269.79568    2154.1487 0.00053150885 0.00055518807 0.00051411146 
 1246000    432.59214   -117.70914   -254.59101    1709.8572    614.42685    672.07624 0.00053072901 0.0005544482 0.00051323017 
 1248000    454.94203   -117.07809    1185.4122   -842.34773    510.16566   -878.97862 0.00052934237 0.00055386834 0.00051248049 
 1250000    488.48544   -116.45722   -772.62339   -624.76195   -764.92736    1792.1678 0.0005283641 0.00055259599 0.00051406829 
 1252000    502.04178    -117.1942   -900.78278    -32.86166    256.42379    111.89796 0.00052850398 0.00055226088 0.00051578922 
 1254000    497.87448    -117.9142   -1401.9247   -911.05935    876.86072     498.9419 0.00052800222 0.00055153274 0.00051925511 
 1256000    492.01342   -117.85561   -1516.3064    763.29039   -53.367047    345.20348 0.00052672857 0.00055063395 0.00051923224 
 1258000    555.59688   -118.28318    449.16152    -284.4752   -702.53508    1054.1019 0.00053075167 0.00055031429 0.00051830081 
 1260000    463.46419   -117.11241    54.553303   -492.50852   -118.82617   -532.41077 0.00053079804 0.00055156776 0.00051841874 
 1262000    515.57601   -118.31528    1146.5495    2108.2448   -197.25239    -1071.442 0.00052996025 0.00055146079 0.0005208387 
 1264000    506.77698   -118.90089    257.14151   -625.66979    137.46669     2272.268 0.0005290838 0.00055033634 0.00052381946 
 1266000      497.086    -118.0559   -979.46585   -360.54975    1942.4773    1231.2418 0.00052815693 0.00055008109 0.00052224408 
 1268000    471.89768   -117.41427    1092.4807    2710.3034    767.38864    808.04784 0.00052755034 0.00054953983 0.00052143349 
 1270000    520.86332   -116.94983   -969.61094     711.1418    1417.9709    1306.3847 0.00052693616 0.00054883927 0.00052069789 
 1272000    485.57818   -118.13116   -135.92297    543.68406    698.73312    638.38399 0.00052628783 0.00054988192 0.00051965044 
 1274000    534.65243   -117.82936   -330.76039    476.33451    1086.8276    6137.5049 0.00052536963 0.00055058474 0.00051848285 
 1276000    536.76587   -117.57641   -28.773794    665.37916    174.54735   -84.152275 0.00052568669 0.00054965516 0.00052014313 
 1278000    494.55169   -117.32304    174.60985    808.78145   -2364.0738   -1174.8619 0.00052480207 0.00054873776 0.00052062341 
 1280000    522.98147   -117.65444   -1283.9548    256.42456   -955.00828    452.09614 0.00052497475 0.00054840664 0.00052234568 
 1282000    470.39461   -117.00299   -66.481797    3419.2074     2312.687    447.23291 0.00052494097 0.00054871962 0.00052462459 
 1284000    519.05595   -116.59492   -1075.0866   -3271.0415     1547.386    202.38676 0.00052576255 0.00054760221 0.00052436026 
 1286000    529.18199   -118.47426   -592.64202    85.673788    3415.0717   -2678.2056 0.00052459698 0.0005469908 0.0005253568 
 1288000    474.26356   -116.73593    861.84537    543.78577    687.58106    -1008.022 0.00052380221 0.00054539188 0.0005251015 
 1290000    523.07755    -117.9793    1278.9813   -790.16843   -1235.6453   -504.71622 0.00052352883 0.00054368626 0.00052423327 
 1292000    488.02869   -118.05023     950.7197   -838.01369    1114.6551    1018.8266 0.0005224759 0.00054281492 0.00052507576 
 1294000    482.68885   -118.20753   -51.621602    -1170.532    951.52934     634.5595 0.00052137287 0.00054203127 0.00052608691 
 1296000    529.23089   -117.51081   -1101.1133   -1628.3085    1367.3022   -196.04031 0.00052103065 0.00054111193 0.00052545758 
 1298000    494.03761   -117.87993    -1968.223   -114.53025   -490.85679    1910.7259 0.00052523384 0.00054037088 0.00052550967 
 1300000    532.33314   -118.04094   -1078.9606   -400.39126    -1320.343    414.23525 0.00052353759 0.00053937665 0.00052563548 
 1302000    525.12728   -118.26551    -873.9398    841.27713   -1994.9518    1113.7025 0.00052250494 0.00053850588 0.00052557194 
 1304000    487.63187   -117.29436    89.959022    383.54084    2082.6864     915.9041 0.00052307122 0.00053822596 0.00052472044 
 1306000    460.17961   -117.47988   -44.391726   -2798.2221     273.9711   -1056.9563 0.0005221208 0.00053814494 0.00052396805 
 1308000    526.73349   -118.75289    193.54467    918.57925   -659.24537   -143.80272 0.0005212561 0.00054064548 0.00052305169 
 1310000    584.23922   -117.22021   -10.156709   -1554.5285    1204.2548   -4326.9486 0.00052319302 0.00053936878 0.00052352106 
 1312000    454.66312   -116.90215   -549.77459   -264.06304    2345.8747    2311.4955 0.00052319808 0.00053894903 0.00052337834 
 1314000    492.94059   -119.49906    -1080.824     144.4886   -3811.6893    745.81547 0.00052205866 0.00053807117 0.00052230337 
 1316000     465.2062   -118.03908    584.32644   -989.29996   -1296.9554   -363.50248 0.00052252566 0.00053728419 0.00052161751 
 1318000    546.02164   -116.83581    1278.8427    394.31736   -277.99305   -405.61313 0.00052134527 0.00053794245 0.00052171901 
 1320000    462.16658   -117.19676    1630.0733   -1701.3301    928.50497     1150.403 0.00052219339 0.00053663102 0.00052093558 
 1322000    521.77266   -116.37011    711.56863   -1504.5559    894.41097    1465.7817 0.00052162034 0.00053645202 0.00052045799 
 1324000    507.70566   -118.10704   -36.148463    106.61683   -39.028966    1190.2033 0.00052027247 0.00053569761 0.00052049235 
 1326000    508.83803    -117.5919   -1188.4109     1458.053    515.34451    774.38684 0.00051951493 0.00053597568 0.00051958383 
 1328000    486.55755    -117.8466   -2525.0066     -233.179    447.27117    1691.5943 0.00051919525 0.00053494787 0.00051983718 
 1330000     505.7634   -117.90291   -1352.9539    2620.8693    -2885.096    2368.8663 0.00051800934 0.0005353965 0.00051871088 
 1332000    552.74389   -117.64183   -273.05419    1132.5567   -1167.4068   -1096.2895 0.00051688582 0.00053540171 0.00051834655 
 1334000    463.09574   -117.55688   -1269.1255    1781.6156     282.9231    740.44029 0.00051551149 0.00053483636 0.00051965736 
 1336000    501.75087   -118.01785    847.32657   -334.84048    -932.4318   -1059.5619 0.00051483607 0.00053394464 0.00051884078 
 1338000    510.67226   -117.88599   -326.64174    1161.3198     545.0754   -1517.9445 0.0005144656 0.00053376038 0.00051899952 
 1340000    493.68619    -117.3719    723.27661    1100.1942   -14.035661    3911.4237 0.00051538336 0.00053661542 0.00051878788 
 1342000    453.85858   -118.06411   -495.52978    2743.5754    2092.9946    2561.1424 0.00051482214 0.00053908804 0.00051893574 
 1344000    524.59152    -117.8215   -793.40515    1026.9924    302.91379    1454.5248 0.00051413326 0.00054077207 0.0005185824 
 1346000    523.37118   -117.22348    1731.1289   -709.47788   -1719.9888    1244.4391 0.00051380352 0.00053985009 0.00051784664 
 1348000     508.3971   -118.10017    351.16598    950.50393    3150.2409   -1142.8595 0.00051500877 0.00053898004 0.00051819963 
 1350000     537.5995   -118.42903    809.29077   -988.71998    139.01618   -1811.5192 0.0005145729 0.00053850484  0.000519398 
 1352000    445.56204   -116.42219   -451.97078     912.1094    3014.4024   -586.71577 0.0005157217 0.00053791859 0.00052041726 
 1354000     521.5343   -117.13388   -2141.9717     1737.496   -1430.9779   -944.77185 0.00051471424 0.00053728304 0.00051969772 
 1356000    512.03904   -118.06031   -1073.7451    315.24758   -1242.6051    1364.9961 0.00051453318 0.00053752696 0.00051850815 
 1358000     479.2302   -117.77104   -1951.2419    1450.9718    1557.4447   -1952.1735 0.00051377922 0.00053710445 0.00051804728 
 1360000    516.32251   -118.02495    700.08608    205.20652    -774.5587    1011.1374 0.00051282294 0.00053620249 0.00051782761 
 1362000    461.48675   -118.76579    8.2903809   -1262.9712     1950.864    2089.5001 0.00051201706 0.00053563868 0.00051962131 
 1364000    477.25286   -117.75234   -182.25726   -5.8076803   -1501.6637   -2078.8353 0.00051119683 0.00053507048 0.00052080287 
 1366000    506.12345   -118.14432    2232.9967   -769.83787   -788.72283   -850.98685 0.00051212795 0.00053455547 0.00052426296 
 1368000    460.43146   -117.95658   -514.37668    325.56797     453.2561    1983.8015 0.00051264097 0.00053395994 0.0005236214 
 1370000    517.01655   -117.73263    646.61032    323.98312    1500.9182   -2765.6436 0.00051221165 0.00053312825 0.00052268345 
 1372000    497.35911   -118.03025   -1416.9301     -846.971   -26.691353     459.4455 0.00051269624 0.00053272754 0.00052471342 
 1374000    493.85986   -117.16372   -80.000674    957.06797    -714.1564   -1818.0798 0.00051275738 0.00053201633 0.00052536517 
 1376000    497.84506   -117.89774    1624.6288     -1985.52   -646.88033    2405.6136 0.00051204238 0.00053311625 0.00052628065 
 1378000    483.91425   -116.49136   -1331.1418    109.12147    1846.2195    438.96004 0.00051150765 0.00053314653 0.00052534314 
 1380000    490.54918    -117.0194    1874.2307     1103.752   -264.23616    1589.9897 0.0005105747 0.00053214382 0.0005262716 
 1382000    545.84988   -117.57116   -1440.4373   -1048.3007    2580.2371   -1061.0308 0.00051087772 0.00053376866 0.00052432699 
 1384000    500.96952   -118.83961    -2574.369   -194.38192    1894.5311    975.11133 0.00051059138 0.00053382997 0.00052445531 
 1386000    454.63055   -117.03019     144.9558    1223.1462   -298.98239   -3303.5186 0.00050947345 0.00053328925 0.00052348957 
 1388000    555.66683   -116.35493   -2198.7419   -1460.5293   -516.08851    1104.0778 0.00050878853 0.00053448437 0.00052335079 
 1390000    470.80467   -117.22183    3078.3062    604.99004   -3044.4717   -2206.8844 0.00050899458 0.0005338965 0.00052318934 
 1392000    485.97782   -118.00376    692.25844    1642.4466    145.98244   -787.68066 0.0005096507 0.00053314841 0.00052306059 
 1394000    508.82737   -118.78864    827.71366    1572.0093    1204.8825   -1119.9872 0.00050865457 0.00053206826 0.0005222467 
 1396000    476.91605   -116.77389    3097.3118    1044.4671   -1314.0138    -658.5258 0.00050783819 0.00053131069 0.00052150586 
 1398000     534.8825   -117.46229   -3367.0271    3457.5373   -1262.0991    3100.4451 0.00050906505 0.00053130087 0.00052068837 
 1400000    477.87162   -116.73355    746.63494   -1053.1507    447.01045    2693.4393 0.00050829079 0.00053043364 0.00051986266 
 1402000    542.32696   -117.96358   -3075.0517   -246.51629   -1317.0058   -3369.3143 0.00050745628 0.00052982314 0.00051917635 
 1404000      522.874   -118.00345    -746.6421    667.45261    1013.3468   -359.79393 0.0005120463 0.00052975581 0.00052080826 
 1406000    520.94024   -116.59889    2330.4906    2069.9614   -1676.7697    527.61045 0.00051516501 0.00052922565 0.00052070794 
 1408000    512.17993   -118.00541   -1176.9516    1584.0538    268.27603    213.10885 0.00051753798 0.00052848069 0.00052047262 
 1410000    535.07035   -117.34702    3024.4332    392.37515    667.46396   -1157.4593 0.00051744538 0.00052762669 0.00052114006 
 1412000    516.01998   -117.71999   -853.33835     139.9203    204.84307    773.81053 0.00051711301 0.00052750343 0.00052024442 
 1414000    462.67145   -117.95199   -639.79509   -1941.0263    170.58471   -562.16988 0.00051750465 0.00052763465 0.00051965924 
 1416000    461.76424   -117.60749    465.21179    710.63021    964.29073   -207.61117 0.00051635047 0.00052687849 0.00052017586 
 1418000     494.3791   -118.36351   -1896.6677   -637.84321    1284.7111    -2175.878 0.00051610037 0.00052771142 0.00052329328 
 1420000    473.44764   -117.49277    3713.5282   -946.25948   -2578.9165   -933.81769 0.00051568626 0.00052617499 0.0005220446 
 1422000    479.50329   -117.78608   -1714.0169    123.88251     592.2575    1166.2693 0.00051971349 0.00052527927 0.00052149802 
 1424000    471.18948   -116.89428    314.70281   -275.53184   -642.27785   -2421.4487 0.00052034338 0.00052487647 0.00052074729 
 1426000    494.71043   -118.12675   -475.20226    1312.5741     1696.069   -572.35051 0.00052098379 0.00052440835 0.00052039903 
 1428000    481.05939   -118.13634   -3713.3143    659.74515   -5201.8246    928.94455 0.00051941262 0.00052420248 0.00052041239 
 1430000    555.64681   -116.81377    546.08997   -1464.0012    76.080928    1083.2018 0.00051883182 0.00052375393 0.00051936398 
 1432000    436.85191   -117.93092   -1755.1125     801.8912   -2790.3334     512.6662 0.00051827241 0.00052355449 0.00051877501 
 1434000    541.15617   -118.29434    1575.2335   -508.45678    289.24731   -2655.6474 0.00051767403 0.00052427163 0.00051825896 
 1436000    568.92239   -117.71319    2008.0661   -304.45721   -1999.6413     1837.034 0.0005188126 0.00052450243 0.00051752602 
 1438000    468.69627   -117.71813   -694.14738   -1790.6261    -368.9141   -620.94411 0.00051797387 0.00052643432 0.00051669775 
 1440000    480.35115   -118.42384    2013.9217    1858.2111    3180.1023    1243.7444 0.00051729906 0.00052702822 0.00051929233 
 1442000    477.69605   -115.65555   -1363.9357    14.977762   -1311.0066    24.701683 0.00051658978 0.00052611586   0.00052032 
 1444000    475.83781   -117.93891    558.04158   -762.79192   -511.25198   -1671.5677 0.00051593223 0.00052578981 0.00052054426 
 1446000    516.40532   -116.88738   -1817.2338   -192.02586   -3204.4938    4659.3122 0.00051483659 0.00052524395 0.00052002333 
 1448000    503.34371   -117.91808   -1204.5719     141.9444     -2411.84   -774.09226 0.00051538197 0.00052436994 0.00051914577 
 1450000     551.2434    -117.1638    1392.0326   -1574.9979   -262.98079   -1230.5155 0.00051542005 0.0005270275 0.0005189057 
 1452000    491.15113   -117.83909   -2828.2016   -2036.0361   -511.24289   -1015.7805 0.00051469205 0.00052517926 0.00051887582 
 1454000    514.99822   -117.92871    1754.0591    725.06782   -2857.3862   -1729.1813 0.00051378085 0.00052472634 0.00052107132 
 1456000    446.40774   -118.22635   -2460.7402   -114.10509    -246.2371    1035.5662 0.00051319872  0.000524038 0.0005215945 
 1458000    533.62218   -118.17576   -1644.3151    -76.86816   -2779.1476   -570.50058 0.0005136579 0.00052476887 0.00052133897 
 1460000    496.73226   -118.19835    1029.0425    689.29327    1265.5821   -1851.0565 0.00051982077 0.00052390034 0.00052283446 
 1462000     585.1504   -117.94746   -1767.4937    548.10168    7.3775554    3545.1324 0.00052189063 0.00052324944 0.00052354959 
 1464000    485.49578   -117.16495    4066.5228    1410.8794    603.11885   -2576.0361 0.00052157334 0.00052190904 0.00052301508 
 1466000    556.52193   -117.93447   -431.66208   -989.28162    2149.5565    1947.6926 0.00052161349 0.00052132825 0.00052244615 
 1468000    448.49881   -118.19362    -386.2131    113.66549    1883.4814    873.24092 0.0005214863 0.00052068428 0.00052169156 
 1470000    455.30297   -117.97928    221.29366    1293.4846   -2028.3738    243.35839 0.00052088104 0.00052026892 0.00052091383 
 1472000    489.75837   -116.43742   -4424.9573   -698.50717    499.96376   -2127.7724 0.0005207354 0.00052045405 0.00052025216 
 1474000    451.67404   -118.18707    655.84596    1079.7809   -1817.8742   -1463.1329 0.00052231386 0.00052105805 0.00052195424 
 1476000    482.94254   -117.50507   -2893.4685     658.3776     1077.226   -168.28536 0.00052282698 0.00052000115 0.00052337063 
 1478000    487.55936   -117.46559    518.43217   -1193.1328    1314.6093    -1546.469 0.00052363491 0.0005231659 0.00052302411 
 1480000    461.22917   -117.16909    676.23697   -34.969119    192.92208     397.4059 0.00052304869 0.00052980582 0.00052256595 
 1482000    529.31376   -116.61199   -503.91171    1660.9935    -227.9021    5.7200139 0.00052373316 0.00052925266 0.00052249383 
 1484000    493.39246   -117.62638    2420.6771   -1351.3438   -2315.6939   -498.35544 0.00052462716 0.00053079147 0.00052248861 
 1486000    502.44461   -117.94625   -3060.8355    3020.1621   -606.50257    622.02892 0.00052451187 0.00053032131 0.00052317107 
 1488000    536.35888    -117.7257    1560.6035    2782.9989    568.87243    -1619.197 0.00052362812 0.00053094972 0.00052255166 
 1490000    517.76989   -118.46592   -436.39037    1494.9196    306.43444    -501.2279 0.00052445155 0.00053145574 0.00052300124 
 1492000     507.8545   -119.33277   -1604.7503    217.19762   -402.87345    1321.0702 0.00052383026 0.00053132688 0.00052349137 
 1494000    524.69005    -117.1327    3861.8829    562.93143    1791.0455   -1826.8194 0.00052603233 0.00053413486 0.00052302814 
 1496000    560.92816   -118.14785   -2745.4369   -620.99939    1253.5429   -839.68021 0.00052997877 0.00053323656 0.00052333896 
 1498000    503.07723   -117.12253    1537.4866    420.79537    2680.6845    557.02958 0.00053242979 0.00053285075 0.0005240678 
 1500000    498.41227    -118.5216   -1623.4216   -650.06285   -1241.5785   -960.02085 0.00053126823 0.00053326737 0.00052328431 
 1502000    530.06444   -116.77053   -580.72537   -94.259115    930.53805    1171.1807 0.00053164759 0.00053285779 0.00052255712 
 1504000    525.13643   -117.64927    2278.2046    -1196.695    81.583388   -732.97448 0.00053101874 0.00053351842 0.00052302611 
 1506000    486.27366   -116.93518   -1536.9551    -1739.731   -10.733537  0.097166515 0.00053048628 0.00053461916 0.00052239251 
 1508000    506.14948   -117.78318    2873.0108   -1197.1816   -1835.3772   -505.46176 0.00052972868 0.00053362755 0.00052199824 
 1510000    511.24841   -118.16804    -1319.764    1595.1627   -71.648921     1294.634 0.00052908078 0.0005332536 0.00052177115 
 1512000     582.9455   -117.43365   -820.36128   -3351.4595    959.64933    750.73777 0.00052900982 0.00053478535 0.00052213662 
 1514000    479.84544   -116.56444    10.599121   -819.82049    40.185252    -3155.504 0.00052808807 0.00053413954 0.00052152473 
 1516000    515.25947   -118.22235   -3778.3223    2383.3955    651.55325    -51.68975 0.00052762121 0.00053338863 0.00052061795 
 1518000    424.03417   -117.79629    319.09144   -1094.9055   -429.45162    -135.5994 0.00052846909 0.0005339248 0.0005198671 
 1520000    529.89733   -117.67544   -3415.6307   -793.86583   -63.895083   -1128.8519 0.00052729703 0.00053481208 0.00052433389 
 1522000    571.82204   -117.72173    816.28963     -2148.39   -4593.1997    -1914.811 0.00052622959 0.00053423102 0.00052469916 
 1524000    510.39842   -116.46169    573.99262    643.26057      3064.36   -3442.9995 0.00052658161 0.00053377048 0.00052606833 
 1526000    549.69275   -117.50991   -2214.2794    1956.7953    2775.9218   -22.757883 0.00052600718 0.00053298226 0.00052528524 
 1528000    545.49781   -117.03841    1949.0781    886.26219    211.87648   -860.60317 0.00052515182 0.00053248761 0.00052449388 
 1530000     489.4572   -118.44006   -2606.4996    -217.7917    1863.5823    573.29963 0.00052618184 0.00053219591 0.00052383776 
 1532000    505.79752   -117.17038    1725.1903   -837.93771    -45.99574     107.8447 0.00052504832 0.00053255414 0.00052414852 
 1534000    503.48783   -117.32505    457.01733      473.312   -2999.5305   -1079.7965 0.00052443211 0.00053194001 0.00052563045 
 1536000     498.7332   -116.83995     542.2867   -337.36538    1238.2801    688.10216 0.00052732956 0.0005323552 0.00052499565 
 1538000    494.72982   -115.44381    2510.2673   -1572.0509   -1316.9437    1136.3366 0.00052795262 0.00053182023 0.00052457029 
 1540000    497.23779   -117.24456   -2397.2933    1205.3152    976.56602    2291.1989 0.0005272271 0.00053128555 0.00052430333 
 1542000    507.69996    -116.8156    55.671698    988.88962    -2324.772   -588.83025 0.0005267128 0.00053074095 0.00052384263 
 1544000      544.941   -116.77073   -3257.6201   -681.71831    2634.5345   -1449.1507 0.00052624752 0.0005299961 0.00052616645 
 1546000    517.55599   -117.48594   -1757.6023    3034.9461    -259.0934   -624.05691 0.00052546767 0.00052959606 0.00052720931 
 1548000    425.29096   -118.45551   -706.88905    186.19984   -283.37138    1137.3226 0.00052675818 0.00052985784 0.00052640531 
 1550000     519.4499   -118.28085   -1004.3632    596.33382    351.13687   -735.98764 0.00052826083 0.00052913757 0.00052600308 
 1552000    527.73499   -116.31906    3283.2855    506.07768    2561.3519   -2493.9213 0.00052727773 0.00052893201 0.00052709779 
 1554000    474.42762   -117.95001   -644.69688    2261.3462    140.12319   -1353.6953 0.00052681647 0.00052886893 0.00052605449 
 1556000    492.42956   -116.96999    2183.3028     -1720.85    1627.0744   -945.96035 0.00052563376 0.00052819386 0.00052537721 
 1558000    464.21032   -116.11868    1307.4718   -700.55539   -154.02272    735.20237 0.00052612126 0.00052803895 0.00052587444 
 1560000    540.64294   -118.54359   -1432.0025      1323.36   -2198.5333    1031.1839 0.00052593702 0.00052799811 0.00052549744 
 1562000     469.0643   -118.01715    1064.5393   -639.47315    478.05253   -999.91797 0.00052530461 0.00052832165 0.00052522965 
 1564000    480.34015   -118.19547   -2330.9226    1348.6901    -813.3152   -363.61572 0.00052483005 0.00052768984 0.00052450106 
 1566000      535.113   -117.30427    1001.8258    1409.0041    523.09206    818.17118 0.00052442451 0.00052784684 0.00052370828 
 1568000    527.74906   -117.73059   -656.58605   -1211.3337    -785.4799   -2377.6377 0.00052392465 0.00052837449 0.00052432561 
 1570000    520.93091   -117.19674   -1635.2212    258.86689   -769.67136   -41.484008 0.00052403886 0.00052975505 0.00052410835 
 1572000    471.61199   -116.29565    1365.1859    1882.6336    1073.7155   -1495.9186 0.00052350018 0.00053004178 0.00052384725 
 1574000    560.67476   -118.46188   -2232.6297    651.44366    2398.9983    789.41898 0.00052457039 0.00053014435 0.00052292511 
 1576000    515.88288   -118.31651    2489.5379    835.00402   -415.78157     2209.925 0.00052463124 0.00053108757 0.00052284941 
 1578000    503.48497   -117.94764   -172.58001    761.04885    346.61697    20.632489 0.00052484603 0.00053322399 0.00052228143 
 1580000    492.16996   -117.21742   -1222.7635   -1223.1686    710.57443   -972.71104 0.00052963617 0.00053475193 0.00052252876 
 1582000    482.80558   -117.83302    2648.5319   -1789.1433    1407.0212     328.2533 0.0005326962 0.00053473834 0.00052201737 
 1584000    538.57872   -117.14487   -3497.9907     2200.412    169.44549   -844.63225 0.00053254985 0.00053501797 0.00052189334 
 1586000    476.78033   -116.38736    1818.8899   -988.28901    2042.4711   -193.03029 0.00053202556 0.00053514053 0.00052294894 
 1588000    490.80818   -118.27051     -1833.24    1458.0988     1666.567    1080.4412 0.00053125012 0.00053470347 0.00052263444 
 1590000    461.39347   -116.98401   -1415.2411   -1606.0394    58.646188   -1708.4513 0.00053410088 0.00053414826 0.00052255421 
 1592000    516.97921   -117.41877    1633.1433    1662.4063   -877.01085    871.55067 0.00053731884 0.00053573366 0.00052346531 
 1594000    529.40039   -118.47955   -2985.7011   -2166.8353    692.32308   -2072.8193 0.00053690127 0.00053599647 0.00052383064 
 1596000    529.94557   -117.56118    1451.9714   -291.88702    879.94879   -450.58333 0.00053775164 0.00053533076 0.00052351572 
 1598000    463.97034   -118.72094    -1193.683   -322.28584   -1327.8974   -667.71192 0.00053677693 0.00053475626 0.0005243203 
 1600000    528.42933   -117.26732    368.34378   -1387.9747   -2140.2029   -2370.7025 0.00053680338 0.00053429668 0.00052371904 
 1602000    574.45975   -117.61753    2142.8445    377.90717     2453.855    1350.5419 0.00053582445 0.00053362089 0.00052331627 
 1604000    465.24021   -117.44107   -2552.4809   -105.83542   -277.73849   -1092.3277 0.00053502296 0.0005328458  0.000522819 
 1606000     445.2825   -116.85775    962.72402    1977.8942   -749.68859    897.49288 0.00053496805 0.00053241225 0.00052360595 
 1608000    546.53398   -117.66665   -1522.9452   -92.048559    739.90194    270.93623 0.00053368366 0.00053166155 0.00052342991 
 1610000    502.87031   -117.50606   -1398.8933    3808.9886   -299.83247    980.61656 0.00053336837 0.00053127969 0.0005226813 
 1612000    532.00671   -117.58959   -131.77017   -254.14835    1100.1039   -4.6193503 0.00053294418 0.00053058338 0.00052221459 
 1614000    444.26002   -116.43906   -2958.9909    672.67151   -1547.8761    1370.5804 0.00053231143 0.00053011322 0.00052175019 
 1616000    527.79011   -118.14134    687.23226    2611.2574    2124.1632   -51.965436 0.0005334236 0.00052911822 0.00052157044 
 1618000    495.45265   -118.98672   -2653.4218   -2137.7114    106.20196    996.68286 0.00053715559 0.0005285482 0.00052222212 
 1620000    461.03916   -117.78022     320.8473     1698.193   -16.327474    403.75624 0.0005356365 0.00052781795 0.00052156925 
 1622000    501.94419   -117.48819    1082.6295   -678.69175     2408.941    1532.3722 0.00053487712 0.00052747193 0.00052122282 
 1624000    497.75775     -117.967   -1611.5561   -2093.3516    1128.7072    2524.8881 0.00053430521 0.00052698976 0.00052033463 
 1626000    514.92675   -117.97669    2055.7851   -1743.5331    3.2989919   -432.15965 0.00053407639 0.00052748559 0.00051952738 
 1628000    456.72529    -116.5534    223.97001   -576.05205   -167.15415   -752.66639 0.00053636295 0.00052765879 0.00051986021 
 1630000     433.5115   -115.97492    1632.2682   -277.48277    417.43429     806.3271 0.00053558711 0.00052738578 0.00052052326 
 1632000    572.81892    -117.7216    2111.5302    -771.3745    1881.3551    1273.0625 0.00053560057 0.00052746486 0.00052088209 
 1634000    479.40755    -117.7837   -2398.4921    881.45601    772.62016    -3145.937 0.0005348262 0.00052791054 0.00052035057 
 1636000     486.4581   -117.59284    1915.2098   -1399.5834   -1504.3218   -2446.7705 0.00053461774 0.00053127373 0.00052023476 
 1638000    471.62132   -117.70598   -3204.0829   -1730.9119    823.69252    -2501.907 0.00053360351 0.00053077604 0.00051988185 
 1640000    468.30359   -117.31648   -713.13925    1592.9338   -449.14926    2085.6211 0.00053242349 0.0005302537 0.00051968428 
 1642000    492.61818   -116.99095    400.34333   -438.97569   -1830.4181   -1810.6522 0.00053207418 0.00053003392 0.00052000002 
 1644000    506.31534   -118.38401   -3470.0937    2306.7233   -174.96437    584.83528 0.00053200147 0.00052934413 0.00051968273 
 1646000    524.85992   -117.81709     1817.866   -2306.5594   -564.70666    874.31254 0.00053117917 0.00053017453 0.00052001997 
 1648000    492.74154   -117.00579   -2076.5965    28.463548   -1385.7041    2595.3557 0.00053066701 0.00053103597 0.00051952996 
 1650000    498.81701   -118.65213    1286.1983    238.79479     979.6781   -867.65214 0.00052995398 0.00053032341 0.00051868117 
 1652000    511.97651   -118.54408     409.7904    946.73869    656.74018    849.79711 0.00052929975  0.000529895   0.00051809 
 1654000    509.21794   -118.41179   -1158.1367   -260.67648   -1240.0543   -1185.7176 0.00052905241 0.00052917157 0.00051762502 
 1656000    498.15027   -117.46122    2807.7083    3144.2817   -1119.1414    1127.9815 0.00052892628 0.00052888492 0.00051708939 
 1658000     532.0695    -117.6898   -2109.7054   -1257.3183    257.98402    1394.3365  0.000528188 0.00052827894 0.00051665489 
 1660000    538.82616   -117.42521    2122.1956      -164.84     1113.313   -1807.9677 0.00052856549 0.00052779114 0.00051858764 
 1662000    487.23148    -118.8513   -568.77721   -828.28401   -1535.1627   -1005.7685 0.00052920477 0.00052701344 0.00051880868 
 1664000    532.71344   -117.20649   -1302.8773    845.56702    1202.4068    1412.1953 0.00053021382 0.00052663648 0.00051791283 
 1666000     501.6924   -117.66825    351.12538   -905.07055   -1561.1343     989.2869 0.00052979951 0.00052584062 0.00051730629 
 1668000    525.85799   -117.94101   -3239.2723    585.74702    2093.5904    118.16426 0.00052913012 0.00052553026 0.00051744262 
 1670000     444.4866    -117.1052    227.30521   -3025.4961    192.26182   -17.126925 0.00052850596 0.0005245711 0.00051856962 
 1672000     475.3501     -118.457   -1088.9371   -257.18279    -864.0727   -499.61908 0.00052776335 0.00052433409 0.00051827271 
 1674000    472.46763   -117.63255    433.90282   -1049.0626    2433.7451     700.3145 0.00052736572 0.00052366077 0.00051775656 
 1676000    488.99334   -117.81664     1589.256   -2051.4557   -1829.3231     1224.606 0.00052676572 0.00052334721 0.0005180668 
 1678000    452.32252    -115.9213   -231.99104   -1501.2868   -530.46983    1647.2566 0.00052611218 0.00052320177 0.00051729912 
 1680000    507.87384   -117.29717    2282.2846    1140.7693     2101.857   -529.51846 0.00052613536 0.00052206236 0.00051669413 
 1682000    492.78023   -117.98803   -1399.2848    1518.6388   -2499.4264   -2015.1554 0.0005252129 0.00052262264 0.00051618333 
 1684000    488.81685   -117.72778    47.437834    125.58004   -1286.5474     552.2565 0.00052519856 0.0005219174 0.00051539481 
 1686000    500.77201   -117.01917   -207.63559   -1625.8444   -977.30962    362.19436 0.0005246991 0.00052139264 0.00051495489 
 1688000    448.40177   -117.43668   -1340.0802    1652.6573    708.96082    252.79798 0.00052420194 0.00052083764 0.00051437788 
 1690000    509.64605   -116.91395   -24.829666   -1403.7643    1068.4591   -94.017896 0.00052472281 0.00052137497 0.00051457073 
 1692000    582.26359   -116.78747   -1580.4878   -154.76065   -2830.3895   -2069.0171 0.00052352448 0.00052447264 0.00051485826 
 1694000    502.75067   -117.35944     1015.548    76.979061    2333.6861   -1344.7759 0.00052324432 0.0005261625 0.00051454781 
 1696000     535.0333   -117.55932   -1241.7464   -2936.9887   -800.40957    -1436.288 0.00052259567 0.00052557066 0.00051520648 
 1698000    458.24574   -117.30591    480.97917    399.99051   -105.91573    1461.6488 0.00052293106 0.00052610385 0.00051694824 
 1700000    498.87017   -117.47176    1562.7152    460.06647    817.95369    2654.9656 0.00052210865 0.00052705592 0.00052521045 
 1702000    504.39288   -117.38322   -276.15127   -2462.4857   -894.45458   -1987.1349 0.00052188323 0.00052739634 0.00052595989 
 1704000    569.64489   -116.80994    2263.2218    958.25184    455.50966   -8.2770849 0.00052196501 0.0005283827 0.00052548347 
 1706000    496.03238   -117.35631   -951.36858    1683.2901     2031.034     692.2747 0.00052145807  0.000528029 0.00052737092 
 1708000    422.37202   -116.80245    612.63174    1660.4344    1015.6404   -1174.9756 0.00052060413 0.00053015401 0.00052652784 
 1710000    505.30924   -117.87477   -1770.6594    321.15167    1211.5138    724.88682 0.00051997501 0.00053017693 0.00052655745 
 1712000    521.92281   -117.22373    -1937.251    593.67276    -2203.858    1934.6317 0.00051928637 0.00053003243 0.00052639059 
 1714000     452.6259   -116.33944    648.16826    1290.4588    2376.5214    831.53132 0.00051900113 0.00052973698 0.00052635003 
 1716000    533.02373   -117.47359   -2426.1411   -1112.6239   -266.23089   -1020.2261 0.00051844354 0.0005289917 0.00052717529 
 1718000    485.54673   -117.69317    1123.2437   -1862.1913    3309.5722    2306.9684 0.00051799715 0.00052838261 0.00052665187 
 1720000    497.82044   -118.38564    -2627.152    586.03084    1428.8444     1618.421 0.00051834295 0.00052768161 0.00052616842 
 1722000    535.04668   -117.20501    -188.6299   -2839.5602    950.39565    2354.0656 0.00051762074 0.00052741442 0.00052535804 
 1724000    492.95108   -116.91874    740.40237    13.607137    2586.5967    1644.4531 0.00051704099  0.000526902 0.0005248558 
 1726000     490.7566   -117.59844   -1967.3584     2813.846    1956.9552    1145.9296 0.00051611496 0.00052636547 0.0005239649 
 1728000    551.97239   -117.08204    2667.9856    807.26978   -62.605918   -466.70946 0.00051545358 0.00052643368 0.00052440458 
 1730000    473.90683    -118.7844   -1700.3003   -1925.0133    423.61415    1777.7702 0.00051592691 0.00052563441 0.00052412617 
 1732000    506.33682   -117.40503    900.12987   -1461.3092    713.37572   -2826.8952 0.00051606376 0.00052489973 0.00052349243 
 1734000    470.13654   -119.01421    133.15287   -1019.3309   -1159.6639   -452.63229 0.00051554416 0.00052507215 0.0005229283 
 1736000     494.2979   -118.29203   -2279.5301    1054.4765   -645.90433    -2836.994 0.00051502295 0.00052604388 0.00052241244 
 1738000    513.14553    -117.7457    1840.6179   -1926.7386    1158.6289   -1689.7473 0.00051442687 0.0005251428 0.0005218486 
 1740000    493.67542   -118.29766   -2394.4049   -730.13794    1857.9396     2547.167 0.00051478548 0.00052474302 0.00052185126 
 1742000    516.26799   -117.78028    1121.4531   -1517.8182    170.95271   -1832.5946 0.0005158674 0.00052402901 0.00052173385 
 1744000    567.43573   -118.47079   -406.27393    1010.6221   -2183.8584    321.93582 0.00051627524 0.00052371951 0.00052218628 
 1746000    526.74697   -116.85582   -2226.7908    808.91399    46.434104    -2567.447 0.00051571496 0.00052682432 0.00052114385 
 1748000    493.40391   -117.05794    1733.0647    726.02925   -1323.2894     2217.329 0.00051611968 0.00052879819 0.00052050648 
 1750000     526.7035   -117.96151   -3217.9585   -185.34755    393.61493   -1513.2577 0.00051516396 0.00052818447 0.00051958047 
 1752000     553.3471   -117.51804    1000.6089   -2789.1666    -2825.798    299.17177 0.00051569587 0.00052791699 0.00052065962 
 1754000    536.69729   -116.17805    2145.4032    3155.3768   -488.84586   0.24154785 0.00051587468 0.00052724689 0.00052048796 
 1756000    516.37896   -118.39216   -955.16041   -2133.3473   -1536.9284    2269.7712 0.00051568524 0.00052974401 0.00051978225 
 1758000    508.40261   -118.73699    3713.9666   -634.68643   -3035.8009    616.51041 0.00051520735 0.00052980987 0.00051913579 
 1760000    520.95596   -116.88005   -2419.0933    1097.2584    480.85621   -2883.4913 0.00051464928 0.00052936261 0.00051866834 
 1762000    483.87413   -116.45933    2230.6517    292.63524   -918.49116   -225.29284 0.00051431252 0.00052867233 0.00051795042 
 1764000    462.09879   -117.99729   -879.60184   -1020.4792    401.42738    1092.9738 0.00051461122 0.00052852202 0.00051747679 
 1766000    520.34191   -117.60521   -2224.6635   -1397.6605   -401.20061    639.23203 0.00051410826 0.00052777352 0.00051705127 
 1768000    464.34368   -117.84628    2934.2038   -1809.9168    518.23082    1637.7155 0.00051345678 0.00052770611 0.00051725107 
 1770000    498.75473   -116.87915    -3954.582    577.28602   -413.67506   -1794.0635 0.0005134385 0.0005277008 0.00051889069 
 1772000    591.99055   -118.16989    1349.5273   -2423.5946    -1905.191   -1979.4054 0.00051286303 0.00052750318 0.00051876147 
 1774000     550.0178   -116.95264    -2165.382    2032.5898   -1140.6184    2493.2172 0.00051471086 0.00052669396 0.00051799252 
 1776000    460.08675   -116.89263   -2944.8584    3849.1597    25.162097   -632.93663 0.00051887816 0.00052597477 0.00051812898 
 1778000    517.81505   -117.78409    1757.9902   -1190.5815    2157.5547    1073.2445 0.00051889339 0.00052530993 0.00051846835 
 1780000    499.05152   -118.26707   -3812.0141    1445.2681   -1792.4881    1271.3491 0.00051928913 0.0005267424 0.00051924197 
 1782000    521.00738   -118.58738    2684.8394    359.66115    1237.2673   -527.74212 0.00051990287 0.00052583799 0.00051864377 
 1784000    488.52584   -117.68476   -1265.8828   -162.50175   -93.452531   -593.46155 0.00052227641 0.00052534464 0.00051817636 
 1786000    476.56947   -118.97768   -737.69184    1029.6705    601.85094   -823.32309 0.00052217954 0.0005269238 0.00051741661 
 1788000    530.00574   -117.12688    2852.4935    -1913.816    1936.1605    2699.3027 0.00052181998 0.00052716839 0.00051709302 
 1790000    518.81867   -118.35137   -3165.7688    178.68902   -307.61836    -562.8271 0.00052135529 0.00052769047 0.0005165861 
 1792000    518.69854   -118.89728    2326.3013    1806.0224   -904.64751    1653.5151 0.00052078175 0.00052772721 0.00051664189 
 1794000    492.42653    -117.6329   -2321.0125   -1415.9957      2509.25    -1020.702 0.00052003908 0.00052730406 0.00051677615 
 1796000    472.20328   -117.28276   -375.17664    270.03282     2164.302    327.81319 0.00051957385 0.00052677216 0.00051760262 
 1798000    525.86585   -118.42718    1389.5698    1007.9887   -628.10014    663.19005 0.00051931311 0.00052728298 0.00051749682 
 1800000     487.2334   -118.43062   -3354.3298    626.42048   -882.47068    2568.7836 0.00051915958 0.00052630257 0.00051669749 
 1802000    507.43445   -117.77465     1762.101    1167.2148    659.95355   -597.60246 0.00051877431 0.00052496685 0.00051689545 
 1804000    518.95351   -117.27282   -2085.6001   -46.278515   -1052.6539    663.67436 0.0005182022 0.00052493007 0.00051754333 
 1806000    524.15864    -117.9409   -1781.3102   -2588.2164   -2003.2778    -1226.157 0.00051748808 0.00052439618 0.00051689875 
 1808000    510.91412   -117.85992    1285.4172    991.64864   -1260.5587    1610.1366 0.00051692395 0.00052457342 0.0005162388 
 1810000    479.14552   -117.90368   -1911.6585   -1254.9902   -970.95696   -981.54799 0.00051725024 0.00052378434 0.00051616055 
 1812000    533.92832   -118.10641    1935.2207   -602.59923    2260.2123    760.37736 0.00051735186 0.0005229198 0.00051536958 
 1814000      507.721   -117.75904   -395.80062    1538.1605    170.20949   -1136.3163 0.00051961814 0.00052269869 0.00051539624 
 1816000    458.09674   -117.26901   -367.11447   -1091.4226    195.88998    984.44026 0.00051939563 0.00052338759 0.0005150834 
 1818000    489.43482   -117.86686    691.89084   -2891.1395    225.88663    540.99639 0.00052015795 0.00052292944 0.00051483509 
 1820000    494.35346   -117.85261      -2213.4   -1158.8895    790.34355   -553.87062 0.00052081148 0.00052408591  0.000514626 
 1822000    456.09505   -116.87956     1598.201    122.75309    1508.9857    117.75157 0.0005210961 0.00052327731 0.00051399245 
 1824000    572.78875    -117.6865   -1160.4109   -52.981114    541.69197   -1323.6636 0.00052097719 0.00052305173 0.00051321456 
 1826000    442.17796   -117.98212     359.2365   -358.79127   -1293.8875    2067.0145 0.00052042753 0.00052229816 0.00051267186 
 1828000    488.96946   -116.68929   -230.27879   -1197.7781    1776.1089   -673.71423 0.00051993073 0.00052197737 0.00051506085 
 1830000    487.64114    -118.0401   -2114.5756    1352.0065   -489.97366    774.38748 0.00052022527 0.00052180317 0.00051511333 
 1832000    456.36904   -118.10042   -20.190752   -433.18137      1804.54   -682.97695 0.00052009018 0.00052138001 0.00051488004 
 1834000    491.01856   -117.43107   -2604.9941    559.71516    519.33079   -466.35426 0.00051980834 0.00052187885 0.00051592006 
 1836000     445.3084   -117.49233    779.30776    572.74913    1649.1633     1949.846 0.00052003222 0.00052213805 0.00052103789 
 1838000    545.43728    -117.8662    203.28828   -2202.7333    1046.0687   -2072.7813 0.00051915587 0.00052154801 0.00052112538 
 1840000    438.68537   -117.29216   -336.60205   -1768.1257   -370.38995   -29.649882 0.0005187008 0.00052107975 0.00052035902 
 1842000    512.75807   -118.04197    1705.8705    4276.9369    -975.3155   -969.31241 0.00051843596 0.00052215356 0.00052245733 
 1844000    537.90046   -117.97606   -2549.9144    360.12976   -2080.1235    618.83247 0.00051799502 0.00052176394 0.0005235976 
 1846000    491.20256   -118.94171    64.785818    1262.7957   -337.62197    622.81809 0.00051751594 0.00052138329 0.00052300574 
 1848000     485.9998   -118.90768   -2636.3283   -516.06956   -770.18574    731.86698 0.0005173682 0.00052098803 0.00052286563 
 1850000    545.41132    -117.9743   -267.60338    2075.7818   -86.022193    1698.6424 0.00051681559 0.00052045017 0.00052291631 
 1852000    587.33019   -117.03448    2149.6987   -3481.4659    912.20911   -1202.2685 0.00051636876 0.00052161892 0.00052197972 
 1854000    541.50025   -118.00069    -2046.764   -1672.5566    -230.5231   -220.84944 0.00051608528 0.00052140094 0.00052142279 
 1856000    482.66876   -118.44146    3332.4997    393.98408    714.73588    735.39862 0.00051619334 0.00052074625 0.00052098594 
 1858000    486.31469   -118.65207   -2720.5681   -2318.7504   -264.81087   -100.10202 0.00051526629 0.00052003227 0.00052053231 
 1860000    522.43079   -117.79927    -903.4593    703.16607    569.39012   -332.14783 0.0005147688 0.00051941221 0.00052041522 
 1862000    474.85191   -118.33157   -3.2527911   -2578.9648   -679.59897   -31.697927 0.00051416866 0.00051881075 0.00051964428 
 1864000    422.36963   -118.61796   -4073.9704    7.7806898    -152.9599     1391.354 0.00051514811 0.00051820598  0.000518999 
 1866000    537.88637   -117.85439    3996.0269     -1693.92   -1403.4595   -28.936797 0.0005145347 0.00051776366 0.00051860898 
 1868000    578.19465   -117.59831   -2505.7789    113.22053    188.57465   -1853.1453 0.00051621762 0.00051754762 0.00051815367 
 1870000     508.8979    -118.2486    686.58139   -96.923857   -1806.7063    2232.3033 0.00051581771 0.00051694322 0.00051769054 
 1872000    491.08198   -118.42743    2269.7135    666.71318    562.44525   -52.849332 0.00051633381 0.00051724143 0.00051695318 
 1874000    564.92179   -118.71429   -4403.8908    1272.0703    777.39714     438.6742 0.00051651147 0.00051670812 0.00051655377 
 1876000    489.00798   -118.28164    3796.2158   -2106.0119   -309.61656    1578.2043 0.00051589938 0.00051661214 0.00051604846 
 1878000    483.16195   -117.93862   -3360.7572    1796.4044   -965.93402   -1683.3654 0.00051531492 0.00051582716 0.00051602158 
 1880000    498.19002   -118.18139    2301.0399    2163.0051    251.17823    571.42739 0.00051739212 0.00051520671 0.00051575284 
 1882000    466.46463   -117.53582    884.50911    1243.3433   -2529.9397    750.51544 0.00051664821 0.00051477234 0.00051641695 
 1884000    520.27842    -117.7437   -4173.2693    890.27881    584.40413   -373.79838 0.00051606732 0.00051416016 0.00051603641 
 1886000    522.15937   -118.03005    3409.2718   -122.83099    1923.8877    3813.9521 0.00051565346 0.00051372325 0.00051602756 
 1888000    553.13338    -118.0821   -6009.9896    939.68453    1152.6952    2519.3543 0.00051830065 0.00051440673 0.00051597546 
 1890000     486.6546   -117.39672    1941.1327   -2169.1638    1875.4577    652.00994 0.0005205354 0.00051361684 0.00051564795 
 1892000    500.06885   -118.00703    721.67338   -1354.7575   -1134.6048    18.438031 0.00052170866 0.00051383888 0.00051550587 
 1894000    544.84105   -117.93491   -2681.4196    362.90177   -3254.6974   -2891.3064 0.00052081324 0.00051364257 0.00051510048 
 1896000    413.40053   -116.74304    6027.5012   -1560.3106    1666.2066   -5107.4937 0.00052182502 0.00051365543 0.00051442884 
 1898000    468.42098   -118.59428   -2663.9494    2331.5273   -467.37213    1587.6317 0.0005232987 0.00051359129 0.00051391036 
 1900000    505.62858   -116.14941     3044.118   -2178.0092    468.11169    1669.7202 0.00052249025 0.00051310169 0.00051541657 
 1902000    476.75504   -118.31715   -1045.5757   -1824.8564   -133.91073    520.41955 0.00052197528 0.00051270455 0.00051686382 
 1904000    451.39314   -118.00806   -2985.6851   -1075.6321   -1074.1658   -174.69382 0.00052145579 0.00051202124 0.00051674316 
 1906000    453.49578   -118.69143    1675.2467   -2092.3901     79.33357    1825.3262 0.00052085308 0.00051112845 0.00051628116 
 1908000    457.95087   -118.19986   -4305.8518    1815.4999    40.727988    1434.6749 0.00052045551 0.00051069712 0.00051627148 
 1910000    524.31945   -118.44199    2528.6725   -1773.0419   -126.98905   -389.81386 0.00052008844 0.00051009649 0.00051562074 
 1912000    493.82982    -118.3893    180.42393   -2881.6638    1899.1975    2381.7792 0.00051964544 0.00051139857 0.00051511053 
 1914000    514.18476   -118.13456   -1459.1276   -2873.9994    2406.9696   -2.5818043 0.00051977904 0.00051068547 0.00051496778 
 1916000    516.60567   -118.68356    2385.8822     434.3794   -1882.9889    748.06482 0.00051910515 0.00051030017 0.0005146269 
 1918000    509.83902   -117.45241   -4796.7545     376.8122    828.79282    573.01139 0.00052093116 0.00051115502  0.000514008 
 1920000    542.99888   -117.79019    1686.3445   -144.33572    3026.4804    103.92999 0.00051997917 0.00051070916 0.00051327988 
 1922000    505.08953   -116.83314   -870.53483    615.26205    1567.2192   -1242.8355 0.00051949151 0.00051042218 0.00051322101 
 1924000    511.69498   -117.31088    -1856.227   -1022.7293     1372.802    591.72037 0.00051886265 0.00051095353 0.00051312956 
 1926000    480.73757   -118.16632    3445.5336    1053.3717    28.550092   -1257.3813 0.00051968949 0.00051065227 0.00051185377 
 1928000    507.92559   -118.68212   -3332.3195    792.12811    912.81388   -643.77588 0.00052011253 0.00051183404 0.0005112797 
 1930000    471.15099   -117.29173    1942.1894   -827.78514    209.61535    397.52254 0.00052031205 0.00051155891 0.00051094193 
 1932000    505.20303    -115.8982   -201.94537    185.01303    1029.2528   -533.61206 0.00051987775 0.00051096754 0.00051042245 
 1934000    447.52904   -117.25325   -1607.5063    1661.4388    750.07337    1834.5674 0.00051956187 0.00051178419 0.00051091808 
 1936000    506.58542   -116.25151     2875.583    1678.5319   -2537.7892    297.33149 0.00052228152 0.00051154727 0.0005112736 
 1938000    469.18274   -117.08859   -3462.8422    2080.5916    1481.9913   -1313.9197 0.00052824948 0.00051113061 0.00051071077 
 1940000    529.56026   -115.80329    3605.4038    648.90046   -1049.1626    -277.9297 0.00052907144   0.00051085 0.00051035085 
 1942000    488.03192   -118.85136   -2644.0052   -1217.4611   -938.97383    1949.7633 0.00052857715 0.00051055294 0.00050995851 
 1944000     542.5731   -118.95236    57.452592    565.88571    1587.3787    2405.2393 0.00052814081 0.00050988511 0.00050915533 
 1946000    488.88274   -116.98417   -279.30435   -648.60953    -420.1035    1458.1373 0.00052760787 0.00050948174 0.00050859315 
 1948000    472.17766   -118.85478   -2381.6363   -837.80855   -1033.1993    459.92189 0.00052727709 0.00050903695 0.00050811275 
 1950000    485.23115   -119.05413    2552.0838    1863.7883    172.12272   -535.65175 0.00052667264 0.00050920779 0.00050891525 
 1952000    467.91474   -118.51049    -1705.434   -1054.7938   -1114.5422    1423.9816 0.00052762342 0.0005094064 0.00050944068 
 1954000    524.90812   -118.47445    2080.2885    1254.4232    1781.9083   -2608.5177 0.00052808283 0.00051011799 0.00050884187 
 1956000    503.76906   -117.62313     1160.173    2628.3951      607.021   -2662.8028 0.00052762003 0.00051115164 0.00050844794 
 1958000    513.05392   -117.63218   -1964.4819   -997.93065   -1636.4066   -1430.6891 0.00052724128 0.00051045478 0.00050879007 
 1960000    497.89885   -118.51871    955.46753    756.65935    2182.6047    605.70816 0.00052763898 0.00050965819 0.00050881024 
 1962000     490.7899   -116.80606   -3607.6701    342.50406   -2198.4715    657.61805 0.00052682914 0.00050898016 0.00050827666 
 1964000    526.56263   -118.54154      1458.86   -1253.4777   -1045.1284    590.34333 0.00052631277 0.00050863671 0.00050815612 
 1966000    512.72358   -116.68012   -1513.3646    1088.8796     621.1956    1334.3407 0.00052571953 0.00050836355 0.00050775492 
 1968000    521.81977   -117.72032   -1315.6329    882.53984     2271.096    308.80461 0.00052544976 0.00050822525 0.00050790169 
 1970000    499.93817   -118.77281    3209.3863   -2653.8997     798.0195   -1095.6097 0.0005251928 0.00050760091 0.00050747816 
 1972000    490.22368   -117.88244   -3541.4834    430.29835    1397.5968    -2917.441 0.00052471702 0.00050735505 0.0005078819 
 1974000    455.29478   -117.64249    2827.9521   -325.88481    1201.4855    1685.1026 0.00052459835 0.0005070078 0.00050753412 
 1976000    597.58403   -117.47934   -2261.6039    1064.2532   -1228.2969   -866.03592 0.00052563771 0.00050824645 0.00050699167 
 1978000    518.55554   -117.64689    417.17611   -2230.0279    2435.2768    5202.9239 0.00052615622 0.00050807241 0.00050908617 
 1980000    527.76231   -118.09098    2770.7778    2452.5139    981.42956     690.7789 0.00052601624 0.00050745981 0.00050810295 
 1982000    440.36234   -116.81672    -2339.769   -381.31603    526.26053   -1173.3989 0.00052584088 0.00050694104 0.00050781259 
 1984000    548.72971   -116.90881    4042.1967   -769.64866    621.35331   -1842.4985 0.00052584418 0.00050804512 0.00050802073 
 1986000     433.0774   -118.79447   -3772.2544     -1639.07    858.08933    591.21331 0.00052617171 0.00050796038 0.00050823709 
 1988000    490.96411   -119.18334   -2066.5106    43.154012   -766.69816   -411.01511 0.00052564513 0.00050756829 0.0005101728 
 1990000    500.06208   -117.63837   -57.982308     573.4699    2284.7458   -604.76135 0.00052530072 0.0005076731 0.0005104197 
 1992000    503.38242   -117.94889   -5076.3561   -1553.0147    410.38233   -1047.7295 0.00052516358 0.00050709597 0.0005103725 
 1994000    471.98321   -118.75919    3569.1922    831.80179    2100.2326   -637.04049 0.00052672924 0.00050681764 0.00050970435 
 1996000    496.02007   -117.25883   -2843.6575   -2162.6598    -1371.241    -2226.757 0.00052636998 0.00050637096 0.0005092295 
 1998000    511.73169   -118.63873    2202.8549    526.31426   -280.53338    786.70855 0.00052580992 0.00050692049 0.00050902759 
 2000000    534.71786   -117.75237    1591.2512    2019.9351    374.76004    1116.9859 0.00052581958 0.00050895537 0.00051027161 
 2002000    488.03812   -117.27358   -2676.9388    636.39042    1288.3965    248.33423 0.00052532167 0.00050869291 0.00051116176 
 2004000    537.14748   -117.04725    3497.4661    1932.4268    2252.5049    638.26257 0.00052475182 0.00050815246 0.0005106149 
 2006000    511.46275   -118.42718   -4304.5734   -854.08776    2185.4648   -1545.6975 0.00052463153 0.00050779222 0.00051001466 
 2008000    535.19652   -117.90411    2435.9617   -3586.0029    49.677153   -311.21619 0.00052464324 0.00050772293 0.00050968437 
 2010000    476.16018   -118.09887   -516.98434    401.32201    1852.4343    920.23268 0.0005240433 0.00050867328 0.00051013611 
 2012000     511.0114   -119.15609   -2778.6691   -1041.0281    973.42716   -5.7594965 0.00052394747 0.00050857118 0.00050949223 
 2014000    538.27002   -117.90545    3263.4399   -810.82698   -1408.7362   -223.48187 0.00052476531 0.00050806931 0.0005092769 
 2016000    487.63722   -118.35401   -4277.4731    3134.8621    1275.9637   -441.69459 0.00052511878 0.00050724962 0.00050853831 
 2018000    486.27764   -116.68687    2623.7969    638.08022    1746.7702    -2728.651 0.00052519135 0.00050679231 0.00050806974 
 2020000    554.04474   -117.92237   -1620.9118    1450.1745    1265.7675   -151.52708 0.00052476643 0.00050643245 0.0005075873 
 2022000    489.96823   -118.63688   -2333.6245    2213.1074   -21.470148    2344.8641 0.00052429794 0.00050610368 0.00050716613 
 2024000      446.134   -117.91834    3811.6868   -351.63736    649.06269    258.84615 0.00052389004 0.00050697898 0.00050668685 
 2026000    504.67485   -116.16025   -3313.6854   -263.80056    842.58098   -1847.3323 0.00052352697 0.00050865935 0.00050663078 
 2028000    473.97656   -117.68098    3764.5216    30.250186   -1766.9933     2080.484 0.00052306216 0.00050962406 0.0005061359 
 2030000    517.50357   -117.54634   -1709.5477   -1178.0254    203.88344    939.30336 0.00052454681 0.0005091456 0.00050581818 
 2032000    510.48502   -118.14983   -2284.2891   -634.97609    223.68182    298.27778 0.00052404076 0.00050923981 0.00050508351 
 2034000    450.52403    -119.3094    1908.1213    1513.3424   -871.02777   -1297.0465 0.00052393463 0.0005102145 0.00050530311 
 2036000    499.33295   -118.87136   -4837.1422     137.9281    1790.0945   -185.77254 0.00052391796 0.00050977054 0.00050467703 
 2038000    510.85095   -118.65335    3406.2313   -656.99426    -1561.477     185.3218 0.0005233511 0.00050911018 0.00050550069 
 2040000    529.34506   -117.70182   -1460.1675    1284.2252    2880.2478    1426.7051 0.00052297644 0.0005086658 0.00050508743 
 2042000    545.18757   -118.13839   -407.05116   -742.96312   -1121.2685    17.112687 0.00052232222 0.00050815911 0.00050474582 
 2044000    471.16381   -117.81285    1923.5896    1294.9059    1524.9501   -1358.0491 0.00052267263 0.00050758102 0.0005057381 
 2046000     497.9966   -118.14251   -5036.2738    126.38145   -762.39209   -1482.0803 0.00052202102 0.00050722955 0.00050541037 
 2048000    521.09528   -118.94967    2935.2682   -1909.8514    2708.7213    65.943901 0.00052190216 0.00050692653 0.00050480411 
 2050000    486.37565   -116.86897   -2315.1452     2409.719    1040.6435   -796.33681 0.00052352511 0.00050654365 0.00050504701 
 2052000    494.82282   -116.94054    318.79557   -997.55691   -1986.4319    -373.9717 0.00052462426 0.00050603405 0.00050562481 
 2054000    508.96935   -116.17843     1653.507    1598.4742    2546.0389   -1096.0101 0.00052395382 0.00050577594 0.00050550775 
 2056000    532.79815   -115.58885   -2672.7233    1227.8425    1932.7355    75.967925 0.00052397275 0.00050533492 0.00050497898 
 2058000    497.82071   -118.00828    2146.4576   -3190.8465   -614.85914   -769.62057 0.00052398005 0.00050490852 0.00050481919 
 2060000    489.63701   -118.15845   -3579.3108    426.58634    1254.2189   -876.79101 0.0005238991 0.00050438615 0.00050478835 
 2062000    506.61871   -118.13929   -344.02031    1189.4421   -2063.1194    288.99173 0.0005234546 0.00050382379 0.00050453179 
 2064000    520.94886   -117.71198   -449.99226   -1583.4711    3092.1813    758.80836 0.00052431185 0.00050359169 0.00050417637 
 2066000    465.56581   -118.09083   -2096.1191    -717.1215    4597.7817    1546.2687 0.00052418821 0.0005031276 0.00050400396 
 2068000    579.91028   -117.69974    3314.4982   -910.07058   -787.43713    538.34187 0.00052665098 0.00050288518 0.00050447219 
 2070000    571.02067   -117.81239   -2511.5959     1207.306    1853.3157    786.58965 0.00052455163 0.00050285182 0.00050401339 
 2072000    506.47139   -115.84044    3286.7403   -251.60319   -2592.9438    16.471551 0.00052469787 0.00050280141 0.00050350754 
 2074000     575.7314   -116.78222     -645.909   -1602.2487    707.15498    1462.8827 0.00052660568 0.00050335967 0.00050369066 
 2076000    501.59248    -118.7985    -1679.521   -334.33729   -2499.1102    1782.7736 0.00052883498 0.00050378092 0.00050330132 
 2078000    472.03736   -117.76486    1944.4151    1449.4086   -653.62211    1097.4844 0.00052981001 0.00050335631 0.00050297938 
 2080000    487.40212    -117.7609   -3310.0308    313.80372   -1169.5538    1956.7383 0.00052940199 0.00050321558 0.00050258383 
 2082000    481.88977    -116.3208    2519.6149    379.06377    917.52843      542.248 0.00052966658 0.00050340142 0.00050306322 
 2084000    448.96663   -117.58084   -2038.6454    2548.6279   -674.15211    883.97385 0.00052942587 0.00050311465 0.00050234578 
 2086000    529.44723   -117.66875    75.927965   -1164.7828    354.91248   -410.00627 0.00052899825 0.00050241962 0.00050178761 
 2088000    438.86752   -117.65045    1107.0839   -1689.1146   -41.557711    1659.4655 0.00052866574 0.00050166658 0.00050212774 
 2090000    512.41357   -117.78088   -4519.4342   -749.40202   -837.76954   -1334.1251 0.00052880622 0.00050128659 0.00050190465 
 2092000    478.86245   -117.38429    3390.0801   -2669.1235   -736.89861    1197.6701 0.00052825895 0.00050092052 0.00050141249 
 2094000    505.41691   -117.43191   -3220.1627   -489.26354   -1383.4945   -1984.5497 0.00052768913 0.00050023776 0.0005013793 
 2096000    463.17452   -118.29596    1413.5014    4419.6896   -1362.4082     -1784.67 0.00052720065 0.00050010753 0.00050091134 
 2098000    436.53911   -117.36308    225.34392   -691.15489   -1332.2979    257.87505 0.00052683792 0.00050021459 0.00050057068 
 2100000    493.52119    -117.7805   -2865.9672    462.57772   -539.58958   -176.05145 0.00052724083 0.00049995437 0.00050082092 
 2102000    479.83715   -117.82007    3371.4952   -415.59108   -149.12922    -679.9613 0.00052622245 0.00049929634 0.00050014586 
 2104000    459.19584   -118.67316   -3223.8462   -3167.3917   -2605.2929    1329.6723 0.00052563833 0.00049894719 0.00049986635 
 2106000     533.0817   -118.04492    1654.7802   -222.23704    -400.1279    755.69044 0.00052517101 0.00049891949 0.0004993796 
 2108000    520.33493   -116.86805    547.73445    -1995.838   -1559.0542   -783.34832 0.00052473411 0.00049822135 0.00049886747 
 2110000    476.11346   -118.12372   -2693.5921    282.18549   -1795.7361    776.18772 0.00052407594 0.00049762855 0.00049869827 
 2112000    572.57129   -117.94301    3833.5361    1685.6876   -478.46666    692.97741 0.00052378157 0.00049895786 0.00049833895 
 2114000    564.37021    -118.0404   -3968.6079   -640.99912    520.58019    570.04265 0.00052355895 0.00049880153 0.00049862698 
 2116000    468.27426   -118.60548    2486.0829    1248.2633    1096.5641   -3425.8859 0.00052288704 0.00049833288 0.0004982868 
 2118000    494.16199   -117.00141    109.38412    782.00325   -1827.4578   -1104.1214 0.00052249758 0.0004978925 0.00049778309 
 2120000    492.01966   -116.44414    -3490.569    1540.9406   -1286.5365     2015.443 0.00052173521 0.00049757472 0.00049733541 
 2122000    488.38342   -117.20071    3674.4487   -2570.6624    -1080.579   -956.91873 0.00052097413 0.0004971172 0.00049699094 
 2124000    533.48617   -116.80231   -4024.2907    1410.1421    1960.1785    1041.2491 0.00052090304 0.00049664502 0.00049662104 
 2126000    521.04144   -117.61647    1402.5865    942.93322    1500.8722    48.586123 0.00052063983 0.00049624611 0.00049714131 
 2128000    511.99148   -116.39598    4.8477807   -1267.1458    2103.5219    1787.8899 0.0005201104 0.00049607934 0.0004974278 
 2130000    503.38273   -115.98671   -2460.9756   -691.16138   -411.95304    60.634183 0.00051959536 0.00049548887 0.0004968678 
 2132000    554.30924   -117.18697    2377.9764   -1403.8801    1157.3092   -2196.6183 0.00051962221 0.00049496537 0.00049642522 
 2134000    513.68178   -117.24123   -4338.2717   -525.48384   -1278.4484    2688.5342 0.00051896015 0.00049485278 0.00049629487 
 2136000     531.6993    -118.6089    1633.5941    845.40792   -798.45589    1024.5165 0.00051982726 0.00049459524 0.00049569014 
 2138000    457.20967   -118.08832   -1741.0879    2912.1643     737.8057   -2603.7887 0.00052019704 0.00049448626 0.00049542295 
 2140000    486.40887   -116.42974   -498.42275   -41.035724     369.2276    202.71932 0.00051990164 0.00049393803 0.00049536438 
 2142000    501.09734   -116.90978    2669.5141     4644.912    1705.7597   -345.47628 0.00051946689 0.00049373269 0.00049549505 
 2144000    493.80735   -117.94377   -3230.6648   -1972.9007   -50.601697    879.71435 0.00051900761 0.00049301265 0.00049519444 
 2146000    500.33737   -117.85374    2908.2732   -2375.6571    -1818.061    342.61311 0.00051863928 0.00049301648 0.00049470928 
 2148000    517.26112   -117.10728   -1319.5145   -501.42537   -262.52916    1363.4202 0.00051811051 0.00049949774 0.0004941587 
 2150000    501.36323   -117.82611   -281.62427    990.22686    403.22064   -574.28211 0.00051910776 0.00050140597 0.00049351947 
 2152000    485.31187   -117.56222    1674.2759     121.8357    530.09678   -2628.8189 0.00051870837 0.00050109084 0.00049328361 
 2154000    489.82225   -117.77196   -3211.3898   -2482.3414    2410.5321    1275.8137 0.00051863032 0.00050096818 0.00049261981 
 2156000    516.39436   -117.04255    2567.6129    463.61157    772.05639   -173.39992 0.00051820105 0.00050074953 0.00049214253 
 2158000    488.48103   -117.86057   -3323.8584     929.4193      249.557    531.41044 0.00051771104 0.00050029305 0.00049178626 
 2160000    509.27947    -117.1845   -281.54985   -557.55892    1907.9013    -2009.941 0.00051767679 0.00050009271 0.00049152138 
 2162000    461.67724   -116.06376   -78.797197    -594.0451    63.852166   -1741.9038 0.00051824731 0.00050050218 0.00049115312 
 2164000    480.60045   -118.15845   -4293.6391    2215.2953    317.09725    2637.3095 0.00051769523 0.00050014094 0.00049072053 
 2166000    534.73069   -118.72425    2334.9682   -1726.3046   -672.55009   -1682.9251 0.00051760046 0.00050050516 0.00049054004 
 2168000    466.88302    -116.2591   -2206.4529   -1376.2475   -365.05913   -3175.1451 0.00051761473 0.00049987209 0.00049027794 
 2170000    492.61756   -117.47681    2284.0975   -2047.9785   -544.94626   -1445.5459 0.00051733292 0.00049989851 0.00048989294 
 2172000    511.24441   -117.60916    171.06425   -317.25506    -431.9801   -1406.3913 0.00051725842 0.00050044914 0.00048985503 
 2174000    497.31126   -117.63688   -1534.6751    4521.5405      785.251    3559.3058 0.00051757733 0.00050047993 0.00048998235 
 2176000    544.11429    -118.2629    2659.5433    298.41937   -127.72044    592.05063 0.00051718727 0.00050135825 0.00048983344 
 2178000    473.17688   -119.20144   -3654.0079    738.09907   -471.13257    1168.6656 0.0005169387 0.00050187324 0.00049003008 
 2180000    519.61935   -118.78753    1738.5714    1564.1049   -2040.9462   -791.37616 0.00051644994 0.00050128303 0.00048984509 
 2182000    467.48294   -117.82215   -1594.6776    1317.9534    293.80162    2.2852241 0.00051803616 0.00050072148 0.00048953065 
 2184000    529.42965   -118.13143   -1294.0368   -99.076931   -1076.4345    -1353.129 0.00051901586 0.00050072898 0.00048895717 
 2186000    470.71164   -117.42456    504.52124    356.98447   -2234.0408   -947.76581 0.00051850791 0.00050381063 0.00048920627 
 2188000    494.02959   -117.75069   -3993.3523   -490.00891    84.477293    445.59618 0.00051810323 0.00050653839 0.00048905948 
 2190000    527.20742   -117.41679    2650.9399   -2332.4418    2591.0468    4018.0114 0.00051771334 0.0005060182 0.00048921225 
 2192000    438.52318   -117.74343   -270.79703    639.27916    1755.0834   -1445.7289 0.00051752957 0.00050522735 0.00048873202 
 2194000    555.60408    -117.1023    770.29188   -661.42528    1656.9249    2300.1208 0.00051747313 0.00050539252 0.00048835784 
 2196000    472.30804   -118.20403    2637.4536     2195.565    1212.6725    699.43191 0.00051841805 0.00050593747 0.00048882951 
 2198000    493.18658   -116.49472   -2211.7631     7.762306    2636.7071    484.50296 0.00051799792 0.00050683016 0.00049187535 
 2200000    437.90215   -118.43158    2940.5849    -1004.817   -41.854023    -1576.118 0.00051952308 0.00050790361 0.00049361857 
 2202000    482.67077   -118.12019   -2750.9602    39.045126    1415.1183    3358.9938 0.00051896469 0.00050733665 0.00049357735 
 2204000    518.47919   -117.67468   -639.94698    2088.1522   -544.34302   -2058.8249 0.0005186053 0.00050783101 0.00049332396 
 2206000    451.71257   -117.51404    795.10962   -1737.1238   -639.36166   -466.25058 0.00051809399 0.00050789901 0.00049356659 
 2208000    494.92435   -116.80968   -2376.2158    2962.7061    875.70615   -1690.5624 0.00051997019 0.00050731621 0.00049371169 
 2210000    505.19936    -117.5825    2584.9747    496.46307    29.125653    889.36042 0.00051966637 0.00050694348 0.00049313299 
 2212000    481.79955   -117.48696   -3377.2583    1058.0523    57.259564    1400.4353 0.00051919434 0.00050760689 0.00049288899 
 2214000    532.43492   -117.78493    412.56618   -760.70205    -2988.682   -1734.9034 0.00051910239 0.00050719453 0.00049324786 
 2216000     495.4024   -118.05305   -1396.6545    1444.8744   -875.21525    1630.7286 0.00051974261 0.00050747366 0.00049301402 
 2218000    503.75749   -118.47888   -3163.6884   -293.91731    1319.4963    2467.2111 0.00051940602 0.00050677658 0.00049253119 
 2220000    468.13668   -117.83115    2149.8139    1535.2371   -1452.1031    2702.5431 0.00052150869 0.00050653575 0.00049236426 
 2222000    501.02892    -117.6697   -1806.6331    1861.0962   -2020.8384    2213.1663 0.00052361013 0.00050594738 0.00049215506 
 2224000    551.45044   -118.34764    2685.6757   -3189.7515    3389.7662   -3129.7146 0.00052482984 0.00050581433 0.00049180058 
 2226000    522.38009   -118.00161    596.29697   -3191.3426    1233.4597    2004.3257 0.00052482999 0.00050614556 0.00049151384 
 2228000    568.49237   -117.97638   -1012.8722    211.78321     537.1435   -1702.0364 0.00052473144 0.00050575989 0.00049120038 
 2230000    503.22661   -117.91517    1401.4581   -887.58069     820.4913     46.84778 0.00052447384 0.00050566827 0.00049054665 
 2232000    486.65922   -117.85628   -4313.2622    2933.7712   -200.21078    -11.74262 0.00052420866 0.0005056584 0.00049008693 
 2234000    504.59763   -117.91026    391.42042   -805.20157    46.822556   -124.29965 0.00052389004 0.00050537429 0.00049015776 
 2236000    495.92775   -118.43852   -3258.4596   -721.66836    376.66508    87.605631 0.00052322923 0.00050498076 0.00048982551 
 2238000      502.411   -117.68925    -844.2752    1120.6483    129.64395   -726.49447 0.00052381339 0.00050466162 0.00048997122 
 2240000    522.47621   -118.20636     559.6062   -544.40191    3053.1438    526.69524 0.00052344247 0.00050442659 0.00048957823 
 2242000    500.66265   -118.39501    -2710.319   -314.95426    1950.9357    3494.8655 0.00052278788 0.00050425819 0.00048920865 
 2244000    510.64203    -117.2702    2726.7443     2932.503    790.42217    387.23056 0.00052234619 0.00050402804 0.00049001497 
 2246000    466.71631   -117.13207   -1343.4505    -1259.976   -816.15881    2.8193568 0.00052335843 0.00050358969 0.00048961355 
 2248000    477.76597   -118.52902    369.68876   -396.90972    3182.1093    1202.2889 0.00052322378 0.0005034314 0.00048964344 
 2250000    480.22818   -117.48033    2511.2605    2648.7707    1350.5298   -2331.6303 0.00052302147 0.00050352172 0.0004909428 
 2252000    470.03926   -118.75319   -2443.0998    1095.8698    1706.2382   -1986.2898 0.00052317058 0.00050463579 0.00049098753 
 2254000    482.22096   -118.16008     2606.508   -517.28783    316.48027   -1157.2654 0.00052294896 0.00050476934 0.00049105158 
 2256000    463.25011    -117.2374   -4375.3993    243.11494    3327.8317    1493.3864 0.00052252216 0.00050421171 0.00049139735 
 2258000    512.47484   -116.54399    240.35959   -3089.0641   -1590.6486    2269.0841 0.00052193813 0.00050366399 0.00049165371 
 2260000    524.70998   -117.14605   -167.75377    976.41286     714.4351    4861.2556 0.00052181025 0.00050331075 0.00049196529 
 2262000    535.14378   -117.85695   -4648.3992   -2219.7942   -2237.6184   -1807.4053 0.00052226718 0.00050261905 0.00049152212 
 2264000    530.76572    -117.0049    4232.2318    1812.0745   -560.91452    3651.8789 0.00052195109 0.00050288123 0.00049108941 
 2266000    507.23185   -117.66072   -4874.7521   -1373.4897    331.13144   -529.97756 0.00052123661 0.00050396549 0.00049058531 
 2268000    542.42126    -116.4179     2578.686   -57.913508   -27.731373   -1419.3041 0.00052086135 0.00050497194 0.00049006927 
 2270000    524.09303   -118.62095     418.0788    2008.0573    1612.2869   -795.00689 0.00052035202 0.00050443088 0.00048978438 
 2272000    507.90203   -117.30353   -3463.1208   -167.05827    591.59614   -505.16804 0.00052053869 0.00050397976 0.00048925817 
 2274000    472.79373   -117.96551    5067.6198   -1194.3402    -257.3846   -77.909651 0.0005215023 0.00050360154 0.00048935539 
 2276000    467.49441   -117.42252   -4984.0911    -2182.233   -361.41396   -394.48521 0.00052340534 0.00050417276 0.00048943244 
 2278000    501.95039    -117.2222    2146.2299    3457.7784    893.56075   -3332.7471 0.0005227839 0.00050445192 0.0004891314 
 2280000     568.3622   -116.89975    485.29921   -1724.0109   -2053.2798     715.3892 0.00052227414 0.00050311309 0.00048861195 
 2282000     528.5467   -117.90996   -3783.1229   -653.02874    1143.4859    1378.5392 0.00052180293 0.00050320979 0.00048845512 
 2284000    464.05751   -117.01204    4370.7331   -2928.9675   -1162.2836   -2075.5405 0.00052137797 0.00050318706 0.00048797034 
 2286000    546.39054   -116.85673   -6368.1458   -702.85688   -725.71969    4912.0952 0.0005209734 0.00050279291 0.00048747872 
 2288000    469.28527    -117.8949    2773.3854    879.81906   -1224.6497    3153.4913 0.00052057138 0.0005026094 0.00048815181 
 2290000    445.62768   -117.54866   -1295.1625   -1365.9006    470.24069    33.058307 0.00052007045 0.00050230665 0.00049016843 
 2292000    544.93947   -118.44388   -2180.4133   -379.49019    384.79354   -2014.1897 0.00052070873 0.00050202607 0.00049015884 
 2294000    545.32987   -117.55084     3657.061    -2304.441   -112.36436   -2653.3766 0.00052042976 0.00050289883 0.00049010897 
 2296000    540.39863   -118.34218   -5188.6062    1198.0805    1668.8805    4107.3678 0.0005199832 0.00050228055 0.00048994624 
 2298000    521.48003   -117.12078    5476.9038    1116.7319   -757.83926     -1622.84 0.00051959627 0.00050279794 0.00048949393 
 2300000    520.36827   -116.68441   -2013.6759   -2762.2807    141.44093    556.16799 0.00051976614 0.00050259385 0.00049031747 
 2302000    499.41814   -117.77777   -787.17125    1392.2624   -475.68736    1149.4029 0.00052008866 0.00050441749 0.00049098887 
 2304000    463.41499   -117.78431    2537.1604   -2405.0935    2286.5063    1776.2846 0.00051994119 0.00050562835 0.00049105749 
 2306000    506.08259    -118.3102   -5304.1417   -350.05605    -1274.359    1449.4826 0.00051976633 0.00050557446 0.00049158874 
 2308000    468.98812   -117.80115    3188.6535    807.21235    1538.7368   -1755.6502 0.0005191248 0.00050530896 0.00049180845 
 2310000    485.99718   -116.99904   -3641.5645    224.39046    1305.5958   -52.450936 0.00051872683 0.00050568658 0.00049430936 
 2312000    485.26222   -117.09548   -1090.5104    2046.1158   -1186.8277   -727.12556 0.00051833362 0.00050606439 0.00049310787 
 2314000    486.36013    -117.0396    1877.4143    433.40795    -1841.773    268.25681 0.00051997828 0.00050573419 0.00049280385 
 2316000    458.29229   -118.01567   -3431.6501    976.82424    2247.8453   -52.821344 0.00051970987 0.00050586747 0.00049511026 
 2318000    526.36725   -118.02631    4503.1921   -990.82889     203.2414    2905.3291 0.00051951557 0.00050549467 0.00049523649 
 2320000     464.0357   -118.09728   -2364.2191   -1717.9059   -285.69172   -3327.5899 0.0005194989 0.00050551864 0.0004953883 
 2322000    467.88564   -118.28254    165.62006   -754.78511   -2164.5266   -645.76056 0.0005193419 0.00050529454 0.00049471092 
 2324000    442.40643   -117.26306    148.41206   -3142.5263    1572.1522     611.5523 0.00051931094 0.00050578829 0.00049469381 
 2326000    492.63896   -117.04001   -2298.6878    896.36694   -680.53523   -138.45004 0.00051878915 0.00050534371 0.00049417772 
 2328000    465.03811   -117.94687    2384.3869    4054.3797   -2212.2178    543.82848 0.00051813569 0.00050489742 0.00049383254 
 2330000    432.72583   -118.64279   -3751.1027    449.93172   -388.87968   -3140.5224 0.00051834776 0.00050445946 0.00049342147 
 2332000    506.89558   -118.57138    1898.8991    -1601.879   -1787.6772    2677.7333 0.00051874821 0.00050404539 0.00049492418 
 2334000    493.68442   -118.74216   -2407.3616    1775.1857    92.227993   -876.89264 0.00051795848 0.00050357665 0.00049359329 
 2336000    526.73267   -118.11145   -1768.5733   -510.45085     1190.409   -1223.4461 0.00051867528 0.00050523796 0.00049321162 
 2338000    458.81124   -117.76039     1754.398    602.95607    129.92364   -820.95205 0.00052010112 0.00050448973 0.00049306257 
 2340000    478.81893   -117.64332   -4099.5671     935.0461   -3139.6071    439.65047 0.00052027717 0.00050478224 0.00049273209 
 2342000    457.59816   -118.68445    3377.4274   -1656.8912    321.35113   -2519.8947 0.00051977571 0.00050463203 0.00049231876 
 2344000    442.56214   -117.59948   -1118.1918   -2892.5204    -3244.002    833.80035 0.00051954764 0.00050418687 0.00049293927 
 2346000    561.24973   -118.61728    1567.3027    516.69568    620.01268   -501.38006 0.00051935602 0.00050379533 0.00049235516 
 2348000    484.39582   -117.86504    2067.3626    -1750.704    248.44748    543.27857 0.00051932073 0.00050504449 0.00049242668 
 2350000    494.20039   -116.67827    -5198.119   -723.40728    3616.8513    724.43487 0.00051872619 0.00050411803 0.00049295749 
 2352000    482.54962   -118.36197    2763.5164    2203.1707   -1425.2413    361.48863 0.00051864488 0.00050388164 0.00049378833 
 2354000    487.18636   -118.01134   -4647.1865    2173.5452   -1020.4349   -184.70659 0.00051861586 0.00050404731 0.00049333245 
 2356000    471.08681   -116.91892    1052.4179    3885.2309   -51.438457   -580.84383 0.00051807374 0.00050540472 0.0004938265 
 2358000     537.9838   -116.51293     2768.374    1960.1235   -22.003108    -1679.247 0.00051789401 0.00050481077 0.00049538951 
 2360000    521.81331   -117.14957   -2945.9094    524.96271   -170.67999   -1969.9638 0.00051807978 0.00050442543 0.00049530999 
 2362000    482.05041   -118.26749    4381.0308    4070.7037    2707.9867    3069.3551 0.00051766131 0.00050415091 0.00049805673 
 2364000    470.75199   -117.04728    -5098.072   -593.53497   -542.39932    2519.0713 0.00051729531 0.00050440682 0.0004987026 
 2366000    437.72659   -116.70095    1000.1425    1012.8667   -3185.1725   -1370.1303 0.0005171765 0.00050433996 0.00049817461 
 2368000    479.52508   -115.99759    401.96566   -3867.6112   -586.05296   -1614.3859 0.00051683204 0.0005072983 0.00049783868 
 2370000    437.93956   -117.32827   -2425.4432    1117.1036   -524.60519   -1664.8048 0.00051670019 0.00050692846 0.00049733992 
 2372000    474.14868   -117.99161    4862.2471     -1648.65   -704.81244    2715.8746 0.00051774808 0.00050690015 0.00049765836 
 2374000    485.27537    -117.5894   -3523.8322   -852.60896   -1345.8935    -610.1357 0.00051690531 0.00050652877 0.00049879166 
 2376000     467.4395   -118.31025    1443.6485    1049.6748    327.28702    1292.4674 0.00051643813 0.00050612972 0.0004989091 
 2378000     482.1527   -118.10332   -1259.1506   -2189.8207    1019.4449   -1992.7151 0.00051887504 0.00050590269 0.0004984843 
 2380000    443.85232   -117.61527   -2916.4936    419.03409     513.6633    2539.0988 0.0005222909 0.0005054545 0.00049827397 
 2382000    490.57662   -117.28342    3143.6936    1017.8274   -2278.2136    1694.0197 0.00052168195 0.00050519813 0.00049763918 
 2384000    511.41936   -117.79529   -3526.4627   -638.02463   -201.31103     2431.819 0.00052156985 0.00050470616 0.00049718435 
 2386000    470.35223   -117.48322    5777.9446   -737.50299    90.342145    3775.4244 0.00052131225 0.00050457334 0.00049710206 
 2388000    431.15225   -117.57987   -80.050745   -34.650589    -10.18007     943.2498 0.00052157966 0.00050486135 0.00049843968 
 2390000    502.90153   -118.43416   -1783.6396   -145.92366    451.37905   -72.727939 0.00052209992 0.00050415451 0.00049849101 
 2392000    528.54987   -118.63668    1519.3083   -1644.6558   -1013.5687   -504.86642 0.00052168731 0.00050391639 0.00049805891 
 2394000    515.27321   -117.13319   -6950.8921    4614.4496     3117.541   -4624.4894 0.00052166495 0.00050350679 0.0004975402 
 2396000    450.92935   -117.17931    2896.8197    3236.9183    553.84987    843.19785 0.00052104666 0.00050327852 0.00049761212 
 2398000    511.51347   -117.42033   -3485.8542   -369.17764     402.7352   -454.24901 0.00052081461 0.00050418763 0.00049792098 
 2400000    462.96031   -116.90858    1095.6081   -3951.0177    615.61328    1399.8691 0.00052052485 0.00050355006 0.00049756772 
 2402000    544.80298    -118.0758    3271.4091   -810.08638    544.32264    1224.8117 0.0005202619 0.00050319506 0.00049722952 
 2404000    501.67796   -118.50691   -5370.8136    -2758.734    861.31762    1392.1594 0.00051983078 0.00050271439 0.0004969117 
 2406000    529.10911   -117.78718    4190.3404    2779.4715   -2344.7465   -2618.7159 0.00052094762 0.00050240065 0.00049727883 
 2408000    464.98361   -118.54754   -5325.7193    451.84102    1869.9518     474.5543 0.00052103118 0.00050237428 0.00049710087 
 2410000    619.58333   -118.65131    39.948043   -3768.3208    1609.2287   -843.55943 0.00052062111 0.00050189128 0.00049690071 
 2412000    520.77949   -117.88759    1564.2563    568.90394   -3753.9617    2371.4546 0.0005203325 0.00050145762 0.00049686003 
 2414000    510.55858   -118.83379   -2376.3496   -1382.9339    998.68843   -1946.9232 0.00051999773 0.00050106434 0.00049627709 
 2416000     516.8598   -118.42717     4546.764    1316.9359   -3714.8072   -2044.7412 0.00051966617 0.0005006433 0.00049579826 
 2418000    493.83885   -117.94498   -4641.9106    2036.5352    800.60912   -554.87245 0.00052145103 0.00050036354 0.00049544501 
 2420000    445.05901   -117.41965    355.70351    2038.8697   -5685.0331    2303.5364 0.00052057592 0.00050255168 0.00049539325 
 2422000    454.79324   -116.74932   -2438.7095    1307.6635    1401.9701   -3584.8239 0.00052016991 0.00050558639 0.00049560649 
 2424000    539.59651   -116.48704    -3324.258   -2141.7733    489.70597    2905.0733 0.00052021404 0.00050535216  0.000495548 
 2426000     560.0222   -117.19925    3182.7278   -361.80859   -2471.6035   -2915.5496 0.0005204204 0.00050503581 0.00049528308 
 2428000    475.26288   -118.50291   -2994.5672    2363.2818    -1072.136    -2827.127 0.00052118779 0.0005044944 0.00049504193 
 2430000     461.1453   -117.11352    4988.2888    1790.3049    -2032.468    -334.8155 0.00052393724 0.00050449753 0.00049465907 
 2432000    504.20252   -118.19257    -1822.091   -1640.5587    1932.4765    2723.6409 0.00052645692 0.00050536033 0.00049455964 
 2434000    473.97538   -119.01673   -1537.3647    2049.7946    1375.5758     764.1456 0.00052803891 0.00050515844 0.00049399223 
 2436000    538.91223   -118.66838    961.13936   -840.93742   -1608.5582    385.39035 0.00052918935 0.00050486563 0.00049391142 
 2438000    463.16526   -118.84388   -5644.3001   -1253.4207   -2911.6207   -1879.3316 0.00052961423 0.00050509717 0.00049404321 
 2440000    512.02555   -118.85672    2215.4564   -4183.6443   -401.94818    2330.1106 0.00052960577 0.00050587825 0.00049347087 
 2442000    483.68044   -119.02011   -2147.7083   -97.794567   -1088.8273    -2367.759 0.00052953903 0.00050557581 0.00049338856 
 2444000     535.1976   -117.00138    1536.6122     2.374906    952.45827     1356.307 0.00052917185 0.00050648773 0.00049312195 
 2446000    491.35513   -118.15738    2217.0344   -1675.6274    877.84136    926.96312 0.00052878754 0.00050899986 0.00049292587 
 2448000    495.42435   -117.68152   -3455.1252    1730.9011   -1587.4971   -497.50631 0.00052827145 0.00050901534 0.00049254664 
 2450000    540.76352   -117.01274    3054.7788   -452.56447   -1782.8337     53.94552 0.00052780694 0.00050852761 0.00049207012 
 2452000    499.47191   -116.86654   -4192.4489    2045.9063      889.998    3704.0719 0.00052741115 0.00050817431 0.00049154133 
 2454000    524.77275   -116.44168    1847.0529   -4592.4876   -2739.0801   -436.91518 0.00052692531 0.00050870923 0.0004915837 
 2456000    539.76799   -117.47293    2137.9186    641.81567    1843.4448   -3749.2121 0.00052660208 0.0005092549 0.00049142474 
 2458000    526.20376   -115.90943    -1156.633    1241.9945    1900.8011   -285.66581 0.00052618762 0.00050934428 0.00049111095 
 2460000    509.55483   -116.01663    4971.6547    -1101.374    2332.2933    1447.6581 0.00052900157 0.00050967001 0.00049107384 
 2462000    510.52917    -118.0761   -5026.7801   -611.22886   -1442.8201    -472.2704 0.00053318064 0.00050945381 0.00049090837 
 2464000    514.11045   -116.95405    1645.8281    2112.6991   -137.80262   -1165.0278 0.00053298279 0.00050909985 0.00049152618 
 2466000    509.43868   -116.41136   -2003.7915    651.37081    851.87492   -1181.9148 0.00053348641 0.0005087639 0.00049120757 
 2468000    496.53619   -118.32949   -3334.6579   -473.47835    430.92587   -619.62973 0.00053340801 0.00050841975 0.00049105226 
 2470000    518.54326   -118.01222    4598.0214   -2840.9621   -789.87967    170.54757 0.00053382379 0.00050790086 0.00049091793 
 2472000    455.57422   -116.93431   -3640.2932   -172.98248    1760.2611    -3341.348 0.00053367609 0.00050746487 0.00049062158 
 2474000    531.81644   -118.99776    4306.8555   -354.83562   -2215.1125   -1763.0851 0.00053296827 0.00050694999 0.00049049599 
 2476000    465.82772   -117.51018   -2251.4273    1338.6982   -1482.9657   -106.21673 0.00053260162 0.00050710938 0.00049052565 
 2478000    460.16949   -117.45084   -3013.1679     1425.508    329.30023   -4305.9336 0.00053218252 0.00050635758 0.00049087226 
 2480000    502.59572   -118.48781    1769.7563    1466.4494      -2424.9   -962.93038 0.00053182462 0.00050598509 0.00049165566 
 2482000    520.17664   -118.20931    -6055.011   -1183.2058    -477.6363   -1516.8669 0.00053131702 0.00050552454 0.00049100188 
 2484000    501.26449   -118.44457     3472.216    -1107.299    1838.9766    1554.6979 0.00053103744 0.00050607894 0.00049164861 
 2486000    565.84902   -118.27148   -1740.7766   -3059.6181    1524.8985   -353.72638 0.00053091678 0.00050539548 0.00049155754 
 2488000    485.21822   -117.75698    342.69687   -4066.4858    2496.9377   -1310.0296 0.00053050453 0.00050487586 0.00049126335 
 2490000    424.13983   -117.95502    2048.2665   -1415.4978    2329.4657   -687.61044 0.00053047358 0.00050663839 0.00049278286 
 2492000    459.65704   -117.49293   -3964.7785   -1511.1982   -383.18656   -766.61388 0.00053038209 0.00050554811 0.00049176176 
 2494000    445.74143   -117.70833    3153.2111    1740.5114    952.15454   -1419.4123 0.00053052284 0.00050587043 0.00049278635 
 2496000     466.3329    -118.8192   -4926.3976    639.14031   -501.06169   -2777.9761 0.00053090124 0.00050637342 0.00049212171 
 2498000    547.68113   -116.76723    876.95451    668.99587    -429.6225     747.7801 0.00053101125 0.00050545954 0.00049176239 
 2500000    485.75923   -117.28586    2121.8569   -861.95371   -937.49194   -2897.5655 0.00053077772 0.00050552884 0.00049160572 
 2502000    440.73315   -116.48602   -2948.3826    197.60435    801.12159    2526.9497 0.00053014968 0.00050610164 0.00049126192 
 2504000    507.93683   -118.18472    3307.7577   -1262.1374    201.14803   -75.038413 0.00053013126 0.00050589658 0.00049081403 
 2506000    585.67008   -117.33733   -4225.5367   -1093.9657   -2632.0034   -566.16983 0.00053020962 0.00050567861 0.00049053168 
 2508000    497.32286   -117.45049    532.39134    2365.2314   -2881.4626   -4066.0111 0.00052972885 0.00050526464 0.0004902652 
 2510000    462.15391   -117.05278    17.206567    1883.7215   -545.52063    1555.9843 0.00053004938 0.00050485526 0.00049007613 
 2512000    477.60399    -117.5769   -1472.5483   -307.86215    930.55626   -1791.4159 0.00053152497 0.00050531959 0.00049098557 
 2514000    538.48693   -117.87023    4553.7136   -1492.9593    434.71052    -1486.042 0.00053228387 0.00050492117 0.00049030693 
 2516000      471.775    -117.2322   -1546.6255    -2911.163    974.73405    1076.5457 0.00053190669 0.00050485997 0.00049115258 
 2518000     467.5416   -117.86494     3238.658    1443.5563     3157.811    -356.6307 0.00053156605 0.00050494185 0.00049043501 
 2520000     485.3604   -117.48527   -2637.2383   -1774.6082   -1988.7601   -1342.9371 0.00053171847 0.00050489878 0.00049120774 
 2522000    509.50517   -117.44127   -2671.0319    1812.3095    543.67005   -2871.9549 0.00053157458 0.00050500499 0.00049227268 
 2524000    502.72098   -118.16373   -470.12873    -1789.604    1315.0368    271.50472 0.00053129725 0.00050458782 0.00049200522 
 2526000    514.80947   -117.14302   -4728.5152   -246.59518   -1307.8661   -534.50919 0.00053088754 0.00050465931 0.00049163669 
 2528000    554.91986   -117.32128    3623.8008    2918.0396    1251.1841   -1504.1122 0.00053095633 0.00050482403 0.00049230918 
 2530000    471.68319   -118.38357   -708.90362   -1131.1436   -287.39027   -1642.6768 0.00053201904 0.00050465164 0.00049181031 
 2532000    475.72971   -118.80634    497.42345   -618.98527   -805.66643    677.64818 0.00053191561 0.00050459099 0.00049149998 
 2534000    513.71971   -118.31719    2627.7623    3147.4642    2974.8782    -390.2807 0.00053154982 0.00050384057 0.00049224338 
 2536000    551.40935   -118.80046   -3655.0879    -1600.766    1439.6192   -1796.5588 0.00053188736 0.0005032228 0.00049173718 
 2538000      467.688   -118.38423    2848.0223    2409.6576   -2181.2615    1519.3606 0.00053249083 0.00050304665 0.00049161187 
 2540000    460.07566   -118.47522   -3445.5471   -1143.4257    1213.8232    -479.8646 0.00053362251 0.00050262918 0.00049105716 
 2542000    516.39492   -117.67154     624.3502    4273.7494   -1712.9949   -785.62595 0.00053358617 0.00050212667 0.00049084868 
 2544000    511.12458   -117.73541     2073.062   -339.48138   -170.88805    -404.8358 0.00053352756 0.0005019436 0.00049071861 
 2546000    510.58238   -118.20404   -4115.0885   -944.43122   -380.04033    877.40877 0.00053437882 0.00050222193 0.00049043012 
 2548000    531.17085    -116.7388     3929.282    870.40944   -93.786351   -124.38623 0.00053345772 0.00050166578 0.00049014803 
 2550000    483.88054   -116.98053    -5148.711    -2979.475   -428.10517    70.341265 0.00053315352 0.00050128523 0.00049084312 
 2552000    559.95568   -117.87292   -136.04841   -1868.9207    748.35432    2463.4595 0.00053267676 0.00050088568 0.00049092229 
 2554000    517.68202   -118.47826    122.49001    1420.9726   -901.87901   -339.70958 0.00053301451 0.00050073753 0.00049061764 
 2556000    577.80558   -118.07212   -4301.1174   -1551.9647     2079.095   -1645.6271 0.00053276604 0.00050112555 0.00049065738 
 2558000      475.509   -117.35125    5541.0002   -1360.1403   -2314.3751   -1134.0446 0.00053227431 0.00050218978 0.00049042599 
 2560000    450.42337   -118.31351   -4249.6111    349.03564   -652.67745    938.31467 0.0005325288 0.00050192899 0.00049000551 
 2562000    502.79338     -117.674    3294.5428   -1425.5562    1646.0216    2892.4717 0.00053165214 0.00050140288 0.00049154569 
 2564000    515.16329    -116.3127    421.52543   -604.00255    -2547.198    2919.1657 0.00053149787 0.00050191256 0.00049165538 
 2566000    445.88842    -117.5774   -4151.1072   -1994.8564   -1570.7425   -1105.6046 0.00053331452 0.00050227255 0.00049138447 
 2568000    523.22552   -117.13969    5467.3917   -1019.2243   -713.63078   -607.06399 0.00053286094 0.00050210243 0.00049086405 
 2570000    494.18355   -119.85644    -5428.234   -30.297426   -3192.7145   -552.98082 0.00053256237 0.0005017439 0.0004904308 
 2572000    518.43527   -118.12899    3762.6379   -683.47382   -1302.7958    386.49926 0.00053199788 0.00050147535 0.00049051102 
 2574000    522.80993   -118.73733   -1119.1143    1229.2693   -855.32958     2048.347 0.00053372232 0.00050109874  0.000490086 
 2576000    461.29448   -117.73272   -2926.7382    6879.4203   -3217.5498    30.716014 0.00053604092 0.00050077503 0.00048998016 
 2578000    477.26644   -118.47457    3391.0554   -158.02456    1403.4234   -219.54112 0.00053575072 0.00050073706 0.00048961018 
 2580000    440.12258   -118.11887   -6180.9732    1244.6974    2155.1015     317.3484 0.00053527009 0.0005020875 0.00048974397 
 2582000    494.10858   -118.22711    3899.6499   -1253.2422    2497.6417   -635.86376 0.00053547287 0.00050142836 0.00049010607 
 2584000    523.08263   -117.60136   -1594.5609   -1970.2719    1427.5642    2762.8041 0.0005359139 0.00050096019 0.00048953538 
 2586000    484.04006   -116.97605   -153.03359    2041.6439   -1476.0603   -1635.0788 0.0005351848 0.00050072535 0.00048907655 
 2588000    473.46591    -117.7652    3616.2027   -298.96265   -2534.7332    2018.8834 0.00053467688 0.00050043106 0.00048927618 
 2590000    488.28166   -118.65786    -3388.704    216.61445    648.97096    -612.5288 0.00053447846 0.00050020076 0.00048906274 
 2592000    496.35315    -119.0283    2985.0905   -2612.0651   -2963.8018   -1962.2238 0.00053409946 0.00050003995 0.00048847513 
 2594000    535.00306   -117.80224   -3773.7417    78.081992   -953.09973   -2307.6838 0.00053377295 0.00050000213 0.00048830801 
 2596000    479.20662   -117.01194   -593.32535    1318.9314   -2131.0916   -958.59448 0.00053360397 0.00050019944  0.000488997 
 2598000    497.09403   -117.06632    1723.6856    1490.2919    2622.9501     2329.077 0.00053308726 0.00050083798 0.00048881138 
 2600000    518.76715   -118.82533    -3688.752    1308.3963   -1505.2693   -990.66556 0.00053302636 0.00050056222 0.00048851357 
 2602000    505.08891   -117.62327    3362.1998    1133.5999    1594.5861   -2231.4408 0.00053300246 0.00050025678 0.00048831547 
 2604000    510.55937   -117.68348   -5221.8844    445.81556    2180.1108   -4339.2632 0.00053362099 0.00049955713 0.00048868953 
 2606000    487.95293   -118.11051    1422.7201    755.51666   -333.02943    168.05975 0.00053334841 0.00049906527 0.00048851796 
 2608000     555.4317   -116.58894   -938.01232   -211.20369    1803.9277    -4022.161 0.0005329424 0.00049891636 0.00048802929 
 2610000    531.78803   -118.17598   -3098.9068   -2343.8891   -1005.2434   -1065.5052 0.00053255247 0.00049905019 0.00048777785 
 2612000    557.10291   -116.76526     5760.314   -3218.2346     1374.092   -2027.1392 0.00053279271 0.00049871324 0.00048814117 
 2614000    513.73322   -117.57385   -4964.4599   -410.24076    1311.8428   -90.074452 0.00053254208 0.00049834433 0.00048785881 
 2616000    450.57666   -117.65878    4960.3766   -510.64485    -2896.217   -626.52022 0.00053294398 0.00049787427 0.00048752156 
 2618000    471.98886   -117.56095   -2349.4496    4263.8843   -1368.9792   -116.29684 0.00053396888 0.00049799168 0.00048753186 
 2620000    508.26622   -117.86848   -2692.6842   -402.57613   -641.61365   -2208.2986 0.00053700398 0.00049733942 0.00048784787 
 2622000    521.82398   -117.41081    3735.4314    1622.0601    1291.6905   -1918.8276 0.00053641735 0.00049707816 0.00048799132 
 2624000    527.97488   -119.97957   -7312.1357     2132.814   -341.57882    267.23954 0.00053618501 0.00049699135 0.00048776177 
 2626000    462.73156   -117.75814    5368.9595    3053.3629    -1160.992   -721.40701 0.00053617931 0.00049650359 0.00048735946 
 2628000    492.47183   -117.26059   -2732.7503   -1845.4118    1773.1277   -1058.1172 0.00053582118 0.00049628184 0.00048793643 
 2630000    460.73347   -118.07351    153.82034    2864.0756    2602.2346     1918.936 0.00053558697 0.00049584338 0.0004882607 
 2632000    490.79037   -117.07237    5412.0114   -2237.4708    54.789522   -948.76593 0.0005375176 0.00049566959 0.00048773474 
 2634000    569.47918   -116.77323   -5212.2562    761.84982   -3611.3368    1324.0232 0.00053978271 0.00049736109 0.00048742654 
 2636000    516.17807   -117.29515    6614.4328    1805.8787    -1166.613   -233.93271 0.00054028499 0.0004974874 0.0004870871 
 2638000    501.05046   -117.89553        -4105    4972.4521    95.523255   -1614.6826 0.00054012472 0.00049758568 0.00048760826 
 2640000    490.68726   -118.31422    -1070.629   -1719.4462   -1646.6593   -160.66673 0.0005397277 0.00049713298 0.00048801289 
 2642000    484.17759    -118.6038    1232.4023   -243.68641   -1504.1389    1620.0158 0.00053992378 0.00049677477 0.00048789202 
 2644000    517.41526   -118.46906    -6737.662    827.32592    3624.1032   -592.45635 0.00053979013 0.00049649766 0.00048769571 
 2646000    549.07489   -117.92814    4156.8213   -313.63715   -1121.4437    2941.7538 0.00053931049 0.00049620344 0.00048750806 
 2648000    474.76185   -117.54431   -3720.4466   -1013.9386   -1194.0116    2068.5328 0.00053876711 0.0004960252 0.00048721511 
 2650000    505.25304   -118.42331    693.26359   -362.31152    1806.5382   -1917.6617 0.00053830433 0.00049577742 0.00048725647 
 2652000     459.8955   -118.10915    2147.0805    3383.0561    3183.3012    2940.2654 0.00053923595 0.0004956024 0.00048761882 
 2654000    426.42734   -118.70807   -2722.3444    -1272.362   -2195.4267   -485.95968 0.00053901459 0.00049616042 0.00048777844 
 2656000    439.15799   -117.95697    4718.5809     4693.926     660.7434   -2059.0067 0.00053869466 0.00049709864 0.00048774044 
 2658000    473.28936   -118.14691   -4289.6982    642.48922   -1260.1286    631.45472 0.00053828746 0.00049722141 0.00048860734 
 2660000    534.78114   -116.77879    2613.6189    1261.2844    597.94372   -2214.3983 0.00053791529 0.00049658788 0.00048869475 
 2662000    559.42204   -117.42191   -1925.5749   -2725.4503    2507.2399    1793.5707 0.00053768193 0.00049628433 0.00048872755 
 2664000    534.13664   -117.83469    -2446.749    752.76895    2032.4988   -964.18182 0.00053794509 0.0004959686 0.00048846713 
 2666000    449.57836   -117.93387    1798.7415   -599.00018     1926.495    1199.9512 0.00053740544 0.00049557072 0.00048809276 
 2668000    512.57593   -117.15007    -4872.194   -391.58536    2264.2999    3252.7427 0.00053776881 0.00049523341 0.00048821845 
 2670000    509.68568   -117.41676    2384.4601    1055.1761    605.33288    2528.6165 0.00053762964 0.00049515259 0.00048784235 
 2672000    472.36926   -117.70404   -2828.6622    -4851.783    2854.5469    514.64313 0.00053715299 0.00049586979 0.00048766216 
 2674000    520.78067   -118.32285    533.98246    814.12531   -4799.6367    1936.9383 0.00053667363 0.00049650841 0.00048755446 
 2676000    489.98149   -118.42131    2507.8479    1334.9518   -3573.3653     210.8781 0.00053659793 0.0004962353 0.00048795979 
 2678000    561.46325   -117.31891    -1053.966    546.76854   -717.91387   -487.94507 0.00053669623 0.00049695187 0.00048984413 
 2680000    468.37586   -117.88278    3592.4624    522.20859    762.44651   -2410.0789 0.00053637284 0.00049661235 0.00048966893 
 2682000    492.20797   -117.37704   -1466.8215   -474.60729     1437.558    1912.3358 0.00053670372 0.00049643216 0.00048994743 
 2684000    502.95838   -116.69636    1378.9678   -767.96183   -3668.5572   -3069.6282 0.00053782231 0.00049608288 0.00048962244 
 2686000    473.23702   -117.44446    59.066332    753.85072   -1377.3946   -885.29197 0.00053801334 0.00049755839 0.00048923788 
 2688000     506.3213   -117.78671   -4913.3425   -1020.8218    1545.1732    1179.0338 0.00053766193 0.0004965627 0.00049027973 
 2690000    466.99549   -117.13247    2274.0937    2726.7268    835.38838   -3348.7609  0.000537133 0.00049778955 0.00049055547 
 2692000    457.43096   -117.74662   -4726.1268    52.757552    1947.3731   -934.90793 0.00053729555 0.00049764189 0.00049029866 
 2694000    465.67617   -118.13231    2317.8766    -3182.501    1768.6382   -1596.2357 0.00053709953 0.00049722053 0.00049084504 
 2696000    463.84351   -118.96816    134.63695    216.04463    -720.0559   -682.87881 0.00053684961 0.0004978873 0.00049070191 
 2698000    496.46717   -118.00731   -2036.5514    592.20325    2326.1023    1619.9924 0.0005369353  0.000497318 0.00049058663 
 2700000    474.90568   -117.60833     4690.201    -3761.728    1330.6342    1331.8906 0.00053644329 0.00049675343 0.00049027055 
 2702000    538.22147   -116.65684   -3479.0383   -1486.9964   -181.19626   -336.75272 0.00053618207 0.00049668841 0.00048995706 
 2704000    493.33065   -116.90434    2411.1404   -1619.8048    2181.8144   -1097.2247 0.00053587783 0.00049665289 0.00049017359 
 2706000    530.12375   -117.79471   -763.94712   -1937.5673   -2016.9816    2539.8719 0.00053541034 0.00049705625 0.00049009027 
 2708000    527.60436   -117.06772   -3613.0337      3557.92   -1080.6587   -1332.3256 0.0005351194 0.0004971888 0.00048972165 
 2710000    483.71962   -118.92884    3110.8666   -2638.9374    3058.6992   -766.71644 0.00053511425 0.00049691338 0.00048932811 
 2712000    504.86145    -116.5502   -6357.5922    2767.4829    -3610.854   -1225.4122 0.00053685581 0.00049660408 0.00048906547 
 2714000    540.83456   -117.47688    1373.8145    1854.9277   -2589.9165    193.71201 0.0005368423 0.00049608841 0.00048949864 
 2716000    490.61833   -118.79145   -1158.2794     281.3418   -293.48416    451.93031 0.00053657514 0.00049589483 0.00049066529 
 2718000    493.44194   -118.32536   -3846.4638    3226.7031     439.8514    2907.4435 0.00053716039 0.00049566539 0.00049294706 
 2720000    477.82825   -116.57012    4298.9571    -852.0391   -1315.4653   -368.91819 0.00053751844 0.00049607426 0.00049211778 
 2722000    500.18203   -117.60378   -3205.2122   -1089.0867   -472.27374   -682.75275 0.00053992041 0.00049555474 0.00049156994 
 2724000    522.64287   -117.54097    2538.9742   -265.13628   -1815.5267   -2663.5171 0.00053967157 0.00049539846 0.00049129951 
 2726000    492.78945   -116.53739    2577.4936   -606.97872    987.06063    511.00169 0.00054139628 0.00049558495 0.00049084225 
 2728000     523.8353   -116.67187   -3366.6234   -1143.1457   -2155.0621   0.30336154 0.00054169889 0.00049507897 0.00049066489 
 2730000    477.30504    -116.0493    4715.1089   -648.21699    3831.1105    1145.5719 0.00054206288 0.00049473994 0.00049010406 
 2732000    490.23476   -117.92012   -4629.4173   -153.17286   -409.35584    -1695.981 0.00054542066 0.00049496746 0.00048954021 
 2734000    549.23629   -117.50072     1763.822    379.68919    4582.5695    2156.5457 0.00054456096 0.00049441836 0.00048922362 
 2736000    518.78869   -117.21593   -507.62561   -943.25419    2416.1206   -687.01812 0.00054441087 0.00049403555 0.00048865837 
 2738000    531.48641   -116.76369   -4870.1127   -82.125782    408.27208   -3359.9583 0.00054648174 0.00049356851 0.00048837172 
 2740000    546.70096   -116.44483    3129.7324    3135.0787    204.04076    1399.9345 0.00054662352 0.00049318785 0.0004883982 
 2742000    509.00904   -117.85164   -4132.6625    3122.5905   -530.22618    224.64496 0.00054634265 0.00049285851 0.00048796135 
 2744000    481.64976   -116.60596    2699.4226    714.92607   -1308.9408    -1572.176 0.00054613302 0.00049270779 0.0004872318 
 2746000    542.67059   -115.98611    1219.7124    1703.1907    112.42364   -428.41589 0.00054578111 0.00049190911 0.0004868446 
 2748000    468.76344   -118.59118   -1213.2768    -4409.382    346.62165   -551.43737 0.00054546656 0.00049199568 0.00048729885 
 2750000    551.99897   -118.33684    2564.6309   -2871.3916    522.27624   -522.76699 0.00054522004 0.00049151315  0.000488367 
 2752000    473.43752    -118.1347   -3612.3922   -1259.7698    -614.3077    811.41108 0.00054471032 0.00049111772 0.00048973324 
 2754000    495.23498   -117.82392    1511.0029    -1862.804    1219.6565    450.44281 0.00054465032 0.00049076114 0.00049018604 
 2756000    470.99299   -118.07802   -1587.3443    2624.0511    839.10681   -223.43919 0.00054482672 0.00049084884 0.00049033241 
 2758000    493.94834   -117.57751   -1687.0503    421.58531   -2920.0038   -894.48579 0.00054423024 0.00049257215 0.00049023098 
 2760000     510.7171   -117.00589    904.74639   -3259.0722   -1478.7056    1704.6215 0.00054389164 0.00049252342 0.00048978702 
 2762000    531.57559   -118.53419    -2945.886    2488.1089    1194.7568    1131.1239 0.00054392551 0.00049252173 0.00048941337 
 2764000    528.97818    -118.1702    2435.0646    1735.5736    -308.6058    1898.2247 0.00054461104 0.00049236915 0.00048958248 
 2766000    509.00211   -117.31699   -2795.3856    1620.9905    3641.5406    2416.9997 0.00054403395 0.00049242149 0.00048906286 
 2768000    476.84197   -117.82714    740.84678    3182.1841   -3864.6363    905.43742 0.00054361485 0.00049214853 0.00048902267 
 2770000    537.22619    -117.8681    817.97116    -142.8311    1769.0322    3097.3945 0.00054343068 0.00049212582 0.00048845207 
 2772000    479.08688   -117.85019   -1866.0019    1361.3689   -1302.2131    260.69336 0.00054347089 0.0004926545 0.00048798299 
 2774000    509.46471   -117.62678    2503.4089    123.68123   -534.12087   -375.47454 0.00054304761 0.00049222737 0.00048874683 
 2776000    508.27323   -117.23833   -2504.2589   -682.68743    1014.3934   -711.64344 0.0005431527 0.00049231782 0.00048840626 
 2778000     534.3161   -117.72114     1208.211   -653.27517   -2344.2975    473.62506 0.00054410792 0.00049196981 0.00048805476 
 2780000    515.86053   -117.56005   -100.62555   -1530.1011    318.06044    318.42313 0.00054366779 0.00049280931 0.00048793093 
 2782000    519.36815   -117.93542   -2711.2913   -1167.7548   -2868.4603   -694.10639 0.00054359489 0.00049209945 0.00048771005 
 2784000    478.01486   -116.46115    1836.9771     122.2413    3172.9081   -1750.2368 0.00054336262 0.00049181265 0.00048741482 
 2786000    458.28124   -118.19834   -4277.3584   -3295.5684   -3627.3319   -5164.7754 0.00054284302 0.00049155296 0.00048700673 
 2788000     479.1824   -117.74695    2485.4466    3693.8396    721.74372    1947.8341 0.00054343944 0.00049152319 0.00048696502 
 2790000    484.16762   -118.34532   -406.72717   -1595.3215    1673.3347   -2141.9877 0.00054233964 0.00049114448 0.00048697914 
 2792000    546.46128   -117.16363   -221.95189   -1392.6347    20.529329    560.95693 0.00054216931 0.00049086659 0.00048676674 
 2794000    481.97818   -117.82995    2758.5444    697.75564    5097.9605   -134.09321 0.00054198036 0.00049243277 0.00048659568 
 2796000     474.6517   -117.52139   -3409.8624     1982.495   -1407.3465    1109.1748 0.00054162514 0.00049445866 0.00048603721 
 2798000    534.93623   -117.45264    723.52416    1745.7085   -395.24337    934.59625 0.00054105625 0.00049526103 0.00048689327 
 2800000    441.64507   -117.63091   -1443.1741   -1541.9492   -3232.5517    -916.4768 0.00054083626 0.00049500716 0.00048780415 
 2802000    439.36603    -117.7659   -825.23024   -1650.5764   -1199.8621    20.037273 0.00054030037 0.00049499722 0.00048843044 
 2804000     484.1061   -118.62386    813.57518    3191.7594   -554.04059    1324.8949 0.00054014885 0.00049487546 0.00048903582 
 2806000    525.33865     -118.235   -2269.3127    1404.2595   -3190.6955   -3389.0374 0.0005400313 0.0004943675 0.00048917282 
 2808000    457.85253   -117.76393    1878.4293     885.7737    17.290216   -81.070684 0.00054027448 0.00049372052 0.0004888894 
 2810000    572.99262   -117.93854    -1376.219    528.74067    751.18375   -1150.9842 0.00054102075 0.00049337406 0.00048863899 
 2812000    502.95694   -118.59408   -743.67613   -194.10968    1447.1623    1240.5411 0.00054075839 0.00049305188 0.00048852323 
 2814000    447.68857   -119.17176   -827.41833   -2437.2535   -947.87754    2151.4988 0.00054020992 0.00049343643 0.00048819271 
 2816000    492.27924   -118.02878   -1556.1943     1751.613   -1413.0508   -953.43192 0.00053995239 0.00049325196 0.00048791881 
 2818000    483.71462   -118.06008    2264.2423    1126.5481    905.29939   -1625.7846 0.00054035764 0.00049318437 0.00048796911 
 2820000    487.50647   -118.11849   -1673.1916    2202.2459   -4218.0914   -3809.4121 0.00054182804 0.0004930583 0.00048741453 
 2822000    473.25132   -117.87109    242.23584   -1044.0053    17.962736    2212.2207 0.0005416201 0.00049270918 0.00048729789 
 2824000    488.60654   -117.16348   -191.96459   -2193.3085    2238.0751    879.49596 0.00054123003 0.00049242948 0.00048802752 
 2826000     508.4477   -118.39178   -452.48689    4323.9289   -2099.6115   -195.58087 0.00054186891 0.00049435705 0.00048946242 
 2828000    512.36646    -118.5328    481.86372    2733.8475   -1036.5051   -954.82032 0.00054356258 0.00049408667 0.00048900173 
 2830000    527.45576   -117.38212   -2938.6492    875.52262   -599.41322    240.20085 0.00054463767 0.00049376317 0.00048904237 
 2832000    454.58085   -117.99329    1543.0219    378.99657   -2868.4564    1168.2355 0.00054471037 0.00049345328 0.00048867752 
 2834000    518.34786   -116.40474   -671.78639    3560.7561   -1073.0546    1474.4568 0.00054487102  0.000493178 0.00048834079 
 2836000    533.31616    -117.0782   -303.86155    1211.3856    2007.4269    377.42016 0.00054469189 0.00049283385 0.0004879757 
 2838000    505.09064   -116.98345    1329.9384    -1887.973    432.31417   -3205.8855 0.00054441886 0.00049238956 0.0004883866 
 2840000    577.39522   -119.01561   -2958.0132   -550.42922    235.00629    -2122.538 0.0005443072  0.000492054 0.00048725814 
 2842000    468.72756   -117.60883    282.37324   -3226.2923   -4414.2159   -1065.4515 0.00054401882 0.00049174868 0.00048698787 
 2844000     509.2037   -117.17654   -2612.4528   -1751.3137   -5273.3953    1551.5575 0.00054380135 0.00049145123 0.00048699594 
 2846000    511.31374    -118.1126    219.15246    1445.1635    1085.9874    32.648806 0.00054546712 0.00049164747 0.00048749179 
 2848000     508.3496   -118.40097    952.15243   -2034.4042   -1519.1176    236.32956 0.00054626989 0.00049117489 0.00048730903 
 2850000      455.061   -118.04801   -2194.2998    1925.0001    2556.1851   -2596.5391 0.00054582057 0.00049093817 0.00048709838 
 2852000     501.1943   -116.84759    3186.0975    667.98393    2136.6226    462.24581 0.00054547105 0.00049168815 0.0004868832 
 2854000    500.36709   -118.07781   -719.25001    1496.9182    1336.2939   -1248.2437 0.00054513028 0.00049135855 0.00048659331 
 2856000    473.99266   -118.30851    -829.9195    -1548.291    806.31926    89.507038 0.00054486388 0.0004912494 0.00048653787 
 2858000     550.8851   -118.08337     412.0483    262.26007    3703.2869   -1833.4735 0.00054530561 0.00049034708 0.0004861646 
 2860000    489.26045   -116.64891    -2193.291    5370.9566    3229.4057    2811.2756 0.00054712906 0.00049002232 0.0004858251 
 2862000    493.68659   -117.18395     983.4169   -3884.1934    3859.9246   -1714.1125 0.0005464736 0.00048964077 0.00048624522 
 2864000    500.36478   -116.84072   -1880.6667   -944.34511    684.10534   -934.83726 0.00054625228 0.00048940177 0.00048596427 
 2866000    476.70021   -118.14114    170.47446    1527.7186   -2137.9053    1287.3648 0.00054593925 0.00049201601 0.00048624882 
 2868000    513.17223   -118.08936     545.5151   -1425.3291     13.64276   -1316.6483 0.00054700562 0.00049483869 0.00048902789 
 2870000    456.81737   -118.03716   -2337.7673    994.31913   -1593.1456     1228.432 0.0005491101 0.0004938549 0.00048831222 
 2872000      497.742   -117.63168    621.55565    424.86004   -1277.8577    3395.8708 0.00054887777 0.00049355141 0.00048803829 
 2874000    477.56944   -117.52344    -1050.338   -1602.3081   -357.93966   -1698.2575 0.00054857106 0.0004931132 0.00048769224 
 2876000     517.0582   -117.86186    1059.1684    1167.6114    1914.7538   -671.29585 0.00054821041 0.0004926966 0.00048737694 
 2878000    470.55673   -117.90224    185.74006    2696.4767    4378.7324    5671.2468 0.0005482952 0.00049234163 0.00048717066 
 2880000    508.72304   -118.91441    -1371.265    1431.1993    -1285.929   -507.70897 0.00054798061 0.00049281238 0.00048714065 
 2882000    545.14681   -117.57722     490.6756    1975.7536   -1357.9539   -820.07653 0.00054798851 0.00049251162 0.00048701365 
 2884000    509.67455   -117.84386   -3321.4286   -546.90782    822.75614   -1878.1295 0.00054800191 0.00049381576 0.00048688408 
 2886000    570.76738   -117.80886   -367.24548     457.0272    1788.9276   -2561.1903 0.00054762009 0.00049393522 0.00048666432 
 2888000    472.20054   -117.23882   -1896.3828   -204.99477    -569.9656   -2655.7505 0.00054723059 0.00049363904 0.00048769139 
 2890000     493.0842    -118.6239   -827.96416    -1440.477    2008.3853    2780.2564 0.00054674254 0.00049383076 0.00049016649 
 2892000    495.82956   -117.33589    1203.2678    597.38405    2091.7345   -1224.6627 0.00054637785 0.00049367912 0.0004900401 
 2894000    544.01921   -117.78476    177.36634    529.38808    876.40698   -1077.1898 0.00054645929 0.00049339405 0.00048968149 
 2896000    498.83411   -117.97599    3170.4535    2248.6841   -3563.3997   -169.89194 0.00054620867 0.00049304478 0.00049038879 
 2898000    449.80438   -117.23739   -1211.4942   -3003.6389    32.236676    2968.7366 0.00054581333 0.00049315259 0.00049001218 
 2900000    478.09441   -116.86756    878.59539    1223.9453   -1061.9359   -2956.1995 0.00054583457 0.00049280595 0.00048988531 
 2902000    485.17699    -118.1083    -299.0083    745.46817    174.53459   -591.84731 0.00054543688 0.00049338654 0.00048957481 
 2904000    539.84758   -116.97064   -2789.6712   -1025.2307    -579.6768    696.73247 0.00054522816 0.00049616722 0.00048977021 
 2906000    488.12747   -118.29055    1105.8536    1190.6392   -2698.9289   -2617.3848 0.00054484058 0.00050022306 0.00049014307 
 2908000    469.90316   -117.61136   -3095.5443     -2320.37     3361.654   -1105.2769 0.00054427452 0.00050022656 0.00048961583 
 2910000    473.37921   -116.92043    1012.2529   -606.78014    21.978922   -6485.7199 0.00054389139 0.00049993802 0.00048937645 
 2912000    439.10762   -118.14802   -1817.2687    -2800.917    262.03201    59.335217 0.00054349971 0.00049974014 0.00048960229 
 2914000     473.8125   -117.25006   -2315.5262     3427.682   -2855.0971    4632.9498 0.00054310582 0.00050016674 0.00048948259 
 2916000    489.00307   -117.40729    1655.9768   -1550.5284   -1276.9898     398.2327 0.00054279535 0.00049996339 0.00049079823 
 2918000    518.19685   -117.71152   -2012.2679    303.92613   -2845.3513    808.73843 0.00054312269 0.0004995625 0.00049023186 
 2920000    558.08701   -116.47212    3542.1317    154.03595    879.49935   -1138.1988 0.00054265329 0.00049958455 0.00048988037 
 2922000    470.90156   -119.04075    716.08708    1142.7792   -2698.7292    1373.9885 0.00054235018 0.00050080431 0.00048963052 
 2924000     412.6322    -117.0788   -227.30625   -973.76745   -759.98286   -3873.4592 0.00054223853 0.00050166596 0.00049015186 
 2926000    472.50405   -117.75977    1202.4195   -45.484251   -5047.1737    1309.6684 0.00054194356 0.00050129336 0.00048978803 
 2928000    505.81582   -117.72625   -3859.3411   -1256.0391   -754.82531   -214.74504 0.00054153845 0.00050146743 0.00049060323 
 2930000    495.77135   -117.92897   -284.27768    1247.5997   -75.661073    2366.2055 0.00054152621 0.0005022206 0.00049084225 
 2932000    478.39332   -118.50836   -1886.2684     -1551.08    1528.3691   -552.28128 0.00054149202 0.00050312915 0.0004904271 
 2934000    512.52072   -116.47426    -1183.223    -470.8549    -1489.811   -2354.0715 0.00054139483 0.00050334371 0.00049063148 
 2936000    539.92813   -118.31507    1368.6236    40.045009   -637.59824    1950.9369 0.0005418221 0.00050313111 0.00049025608 
 2938000    531.68118   -118.92754   -2724.7574    2939.3489     228.0823    630.10563 0.00054194127 0.00050277942 0.00049073744 
 2940000    520.16768   -118.26689    2301.6115   -917.63688    3260.0699    2340.2492 0.00054216228 0.00050314591 0.00049084915 
 2942000    551.97884   -117.59372   -1003.9844    12.973966   -496.93103    635.75653 0.00054227295 0.0005043041 0.00049045426 
 2944000    473.51508   -118.00861   -154.20147   -475.60246   -3109.9369    2442.9227 0.00054309034 0.00050594811 0.0004908236 
 2946000    531.95266   -116.88979    1232.0019   -1785.5577   -1108.0749    1577.5171 0.00054197389 0.00050608065 0.00049141694 
 2948000    512.40568   -117.47233   -1861.9768    753.46669   -772.21689   -1165.6305 0.00054165277 0.00050658102 0.00049112679 
 2950000    519.72536   -117.92076    1820.1962    1361.7702   -164.04975   -4248.9505 0.00054137334 0.00050629643 0.00049079116 
 2952000    489.28125   -118.99325   -3681.1746   -305.79535   -500.16766   -2214.5054 0.00054115859 0.00050596854 0.00049035592 
 2954000    482.48461   -118.23899    226.07515    2004.0605    497.82008   -770.22457 0.00054062371 0.00050579845 0.0004902513 
 2956000     506.4403   -117.36575   -1420.9548    -2170.892     1378.884   -963.25248 0.00054023472 0.00050565004 0.00049002718 
 2958000    490.00405   -117.65989    -2593.925   -1551.4679   -2405.7064   -1787.2971 0.00054071708  0.000505522 0.00048969524 
 2960000    514.28588   -118.88165    782.14407    211.20685    2540.2714   -480.27712 0.00054099273 0.00050633987 0.00048968949 
 2962000    512.53416   -118.32939   -2405.1103    2718.4716   -2078.5265     1842.273 0.00054057388 0.00050588587 0.00048936643 
 2964000    519.25132   -117.35819    2805.7204   -3177.0487    1516.3978   -751.26392 0.00054105102 0.00050559216 0.0004892328 
 2966000      524.675   -118.15583   -214.96318   -97.354467   -2469.1435    1130.1105 0.00054229384 0.00050600196 0.00048908573 
 2968000    494.95783   -118.65999   -693.20404   -1193.1306     615.9799   -2004.5428 0.0005414913 0.0005054965 0.00048885994 
 2970000    492.31264   -117.11943    2251.2445   -457.42362   -1592.6333   -61.684912 0.0005413995 0.00050509314 0.00048889506 
 2972000    512.25044   -117.91857   -3236.9189    771.88705     1519.412    1854.3506 0.00054217157 0.0005049914 0.00048898206 
 2974000    508.83093   -118.21063    1558.3946    40.210073   -3440.2712   -250.84792 0.00054194021 0.00050454675 0.0004884817 
 2976000    578.56093   -116.33212   -2168.1482    4683.9554   -2859.9909    184.23063 0.00054163032 0.00050482718 0.00048821746 
 2978000    479.64833   -118.89185   -1798.2368   -335.41596    2029.8422    147.33339 0.00054133386 0.00050431809 0.00048794118 
 2980000    474.66336   -116.84489   -904.75823   -2250.5917    1986.7304    2707.2155 0.00054107628 0.00050394655 0.00048787557 
 2982000    516.45649   -118.24642   -2460.7275   -4406.3683   -197.85959   -520.65618 0.00054055172 0.00050357925 0.00048767472 
 2984000    514.41721   -118.15862     1858.988    4993.0081     1389.746    1500.2945 0.00054080165 0.00050336892 0.00048737788 
 2986000    582.05353   -117.60747   -540.75991   -711.40351    -1088.723   -185.09816 0.00054026092 0.00050312522 0.00048736389 
 2988000     460.3169   -118.06334    2580.9574    859.52299   -477.69685    2728.4952 0.00054075985 0.00050285689 0.0004870016 
 2990000    538.95167   -117.74833    391.48238    735.22949    170.43418    2024.4567 0.00054033373 0.00050308975 0.00048668827 
 2992000    507.17324   -116.93053   -1213.1685   -357.35288   -779.67403   -2538.0758 0.00054047074 0.00050251408 0.0004864103 
 2994000     529.0791   -118.84729   -168.69437     1037.351   -1369.0316    1476.0381 0.00054014411 0.0005024111 0.00048615677 
 2996000     506.6036   -116.90693   -2514.7211   -1227.0037    921.00839   -259.87077 0.0005399959 0.0005028016 0.00048608578 
 2998000    460.19759   -118.10507    673.75535    -1747.739    968.92534    869.46786 0.00053974281 0.00050249197 0.00048592477 
 3000000     499.0305   -117.10248   -1514.4461    4123.7963   -1375.0274    311.14935 0.00053941939 0.00050269877 0.00048649549 
 3002000    566.51209   -117.12393    48.374905   -1051.1168    2954.2813     177.6211 0.00053907094 0.00050233008 0.00048617549 
 3004000    515.83737   -117.42478    -287.4523   -1688.0062   -2426.1051    847.32732 0.00053854026 0.0005021592 0.00048621936 
 3006000    519.89928    -117.1537    -1952.981    2133.5293   -195.92518   -195.88137 0.00053838135 0.00050188596 0.00048577357 
 3008000    490.14517   -119.91716    1271.1137   -1558.1223   -1219.0309    2176.2535 0.00053805432 0.00050308348 0.00048563026 
 3010000    482.01738   -117.74341   -1411.1173    625.60934     2150.316   -2641.7038 0.00053772497 0.00050225673 0.00048558185 
 3012000     428.3407   -118.06503    1430.9644   -213.18763   -1164.7204    1168.7537 0.00053805447 0.00050287565 0.00048525058 
 3014000    440.03077   -118.92966    1247.5762   -3181.6426   -4308.4121    522.39309 0.00053749191 0.00050303851 0.00048516087 
 3016000     482.1843   -117.10552   -1151.9279   -1003.0815     925.4364    722.63083 0.00053721976 0.00050266183 0.00048474368 
 3018000    520.79515   -118.49761    1126.7248    62.801015   -262.60427   -4131.2458 0.00053700978 0.00050314399 0.00048550702 
 3020000    547.52898   -118.21001   -4715.3106   -2985.7079    879.08842    525.27763 0.00053706137 0.00050329923 0.00048511383 
 3022000    457.91629   -117.34324    -243.8729    857.59869   -2795.1055    -1202.664 0.00053710919 0.00050379484 0.00048529768 
 3024000    536.14617   -117.80211    -2350.024   -2192.7608    1707.3633    2503.4688 0.00053683555 0.00050337543 0.00048624412 
 3026000    489.02604   -117.62659   -2730.8851   -1633.0422   -1973.9625   -1846.0238 0.00053680348 0.00050331248 0.00048725106 
 3028000    516.99915   -118.34111    3414.4032    428.77716    2217.7396   -3014.4869 0.00053675102 0.00050294029 0.00048867398 
 3030000    447.51912   -116.99116   -919.34675    450.05257    2022.9261    1010.8286 0.00053631541 0.00050256641 0.00048811598 
 3032000    495.16692   -118.17333    1199.9731    1091.7614   -1464.2129   -1704.3114 0.00053594955 0.00050265596 0.00048764922 
 3034000    556.40775   -117.17454   -579.37216    1843.0924    2293.6615   -1126.3583 0.00053577207 0.0005024062 0.00048736279 
 3036000    516.35552   -117.76918   -1429.5194   -1159.9707   -1106.3163    657.69175 0.00053542512 0.00050205293 0.00048715685 
 3038000    485.76677   -118.34333    351.72404   -2569.5766    600.91083   -71.170448 0.00053509222 0.00050189705 0.00048713838 
 3040000    487.57261   -117.73068   -2651.8422   -2499.1948     3282.887    1919.4565 0.00053477301 0.00050175052 0.00048711748 
 3042000    494.31617   -116.73314    1314.5324   -183.75789   -466.01775    -734.6062 0.00053431051 0.00050147264 0.00048665805 
 3044000    471.11389   -116.02013   -296.86808    741.69648   -1515.8978   -1988.1218 0.00053388513 0.00050136817 0.00048639822 
 3046000    458.60055   -116.97765    470.05535   -1061.7147     -128.934    1843.5145 0.00053404641 0.00050105441 0.00048595908 
 3048000    426.55293   -117.69437   -715.37066   -1351.6565    540.18877    4512.3877 0.00053364475 0.00050073934 0.00048602474 
 3050000    460.36846   -117.94847   -1991.8753    1871.0483   -825.63906    2972.1454 0.00053347043 0.00050050382 0.00048654555 
 3052000    493.24116   -117.24776    706.66721   -1741.4238   -1364.1795   -80.418511 0.00053323309 0.00050066584 0.00048636269 
 3054000    504.92456   -117.62895   -1678.7223   -1646.9779    669.14406    1551.4151   0.00053315 0.00050081588 0.00048625124 
 3056000    545.89344   -119.07506    1305.3848   -2439.9249   -2574.4026   -5177.5063 0.00053258187 0.00050047941 0.00048746649 
 3058000    484.55497   -117.78414   -39.356268    446.35704     254.8313   -311.25714 0.00053233405 0.00050047929 0.00048729663 
 3060000    530.46537   -117.84505    894.26787   -1390.8344   -810.41013   -3545.9647 0.00053195961 0.00050016928 0.00048746505 
 3062000    519.99593   -118.18275   -308.27493   -547.62547   -3737.2219   -1213.6192 0.00053283828 0.00050049247 0.00048711306 
 3064000    511.80563   -117.75466   -2703.6925   -4237.0627   -2379.1925   -310.02983 0.0005330607 0.00050010143 0.00048717308 
 3066000    494.95362   -116.33972    977.79791    2177.8049   -2273.8816    -656.8427 0.00053337646 0.00049987722 0.0004875258 
 3068000    502.92133   -118.34288   -2858.7659   -1805.2373    977.24164   -813.68704 0.00053358121 0.00049934686 0.00049076584 
 3070000    515.05087   -118.17661    393.55127    1728.7801   -1806.9343   -3544.9283 0.00053346897 0.00049967706 0.00049037891 
 3072000    518.27351   -117.69483   -465.24717   -924.74423    1849.7562    1601.3984 0.00053417705 0.00050001332 0.00049007886 
 3074000    517.23259   -116.85879   -1202.9571    1277.8304   -1354.0141   -4677.1346 0.00053403596 0.00050016241 0.00048960533 
 3076000    466.24598   -117.78304    1371.7386   -853.14798    2903.4868   -1479.0883 0.00053369175 0.00050040335 0.00048980725 
 3078000    509.37237   -117.76727   -212.96625   -1219.3024     963.1432   -245.15941 0.00053504717 0.00050210614 0.0004893197 
 3080000     487.6535   -117.97804     1722.454    951.19982    -1269.659     2546.631 0.0005343501 0.00050156859 0.00048903092 
 3082000    537.41168   -116.52517    1440.9887    1508.3467   -742.82955    1094.1222 0.00053404661 0.00050136151 0.00048925311 
 3084000    507.55966   -117.84901   -1061.9878    2723.8275    1964.4816   -2551.9463 0.00053344165 0.00050087891 0.0004893202 
 3086000    439.58124   -118.38747   -129.44003    -2745.262    1305.7139   -2320.3362 0.00053313457 0.00050045595 0.00048903545 
 3088000    474.02761   -117.47784   -2290.1036   -1045.3941   -601.11786   -4130.8093 0.00053306454 0.00050008136 0.0004900963 
 3090000    532.85694   -117.51471   -1417.6486   -1339.8645   -2015.5223   -2114.6719 0.00053267178 0.00049986116 0.00049153048 
 3092000    524.18394   -117.78654   -3098.9876   -1302.7644    -5392.114   -488.52448 0.00053242085 0.0004994309 0.0004915496 
 3094000    485.00403   -117.93092   -2710.1396   -600.90914    187.63907    2852.1352 0.00053324679 0.00049920864 0.00049140231 
 3096000    462.88882   -117.81302    697.40989    2541.6619   -6664.3377    857.31976 0.00053290739 0.00049883139 0.00049131298 
 3098000    510.35285   -118.34785   -16.010585   -1362.5194   -4023.7965   -903.65865 0.00053256545 0.00049864133 0.00049126103 
 3100000    548.94427   -116.97526     2687.067   -1328.6583   -1598.1158     1103.987  0.000532298 0.00049836491 0.00049109363 
 3102000    469.64374   -117.06351    1452.6354     1350.411    2688.1155   -1027.4194  0.000531819 0.00049818554 0.00049232739 
 3104000    491.05618   -116.98117    1684.8155    3736.4113    1855.8031    -4517.049 0.0005315373 0.00049765322 0.00049486328 
 3106000    519.25557   -117.95565    831.15546   -127.71117    2654.2805    5078.7926 0.00053134888 0.00049790315 0.00049499248 
 3108000    487.07699   -118.31693    -1811.552    1275.5791    3157.5672     378.2545 0.00053085237 0.00049752915 0.00049511549 
 3110000    458.70214   -118.11341   -2035.4541    667.06594   -2000.8659    312.52812 0.00053150839 0.00049717782 0.0004946354 
 3112000    480.95063   -118.23907   -3267.4531   -310.61128   -2671.9065   -2844.8602 0.00053101599 0.0004968705 0.0004947957 
 3114000    533.84298   -116.82376   -2170.6403    676.91311    -1165.707   -2990.8164 0.00053100622 0.0004965448 0.00049417083 
 3116000    546.53645   -118.56412    -991.0461   -2737.4958    914.52188    1383.0562 0.00053120912 0.00049649425 0.00049415222 
 3118000    477.21112   -117.95788    -1130.568    90.975683    523.66716    5276.0383 0.00053140804 0.00049690763 0.00049437911 
 3120000    486.42055   -118.31027    1566.4741   -920.35961     -115.593   -2098.9666 0.0005315868 0.0004966448 0.00049559316 
 3122000    503.86859   -117.92265     340.8632    212.85214   -693.32045   -3184.0646 0.00053300835 0.00049646844 0.00049552196 
 3124000    505.58469   -119.03128    743.01508    2517.0118    702.36443    605.10741 0.00053295622 0.0004963331 0.00049519257 
 3126000    509.26931   -118.65434    1252.8015   -2665.5885     256.2656   -3228.4769 0.00053264471 0.00049596174 0.00049553608 
 3128000    522.29098   -118.55438   -639.56407   -181.67552    973.45889   -1478.9196  0.000532459 0.00049665765 0.00049526205 
 3130000    473.98468   -118.30063    754.09089   -914.47666   -1780.8962    511.22753 0.00053205793 0.00049702646 0.00049502173 
 3132000    534.42194   -118.27484   -2607.1779    1843.7058   -2171.2889   -1078.4514 0.00053191255 0.00049653427 0.00049492123 
 3134000      506.061   -116.05972   -349.54817   -5285.4964     3417.811     3736.645 0.00053155202 0.00049651567 0.00049496497 
 3136000    516.69764   -117.98866   -2097.5927   -3831.8673    574.47472    3707.7851 0.00053116986 0.00049625083 0.00049512006 
 3138000    505.97967   -118.84799   -3292.6213    1745.8977    2172.2642     375.9513 0.00053140928 0.00049626497  0.000495233 
 3140000      521.177   -117.28251    1141.6482   -804.28248   -3155.5397    -2831.738 0.00053098602 0.00049593066 0.00049524514 
 3142000    473.69455   -117.78011    -2010.256    1832.6457    4282.1097    541.71626 0.00053077097 0.00049568328 0.00049782599 
 3144000    533.20025   -117.95571    746.45186   -111.64505   -2124.0806   -578.42467 0.00053064483 0.00049588025 0.00049738356 
 3146000    508.72098   -117.19243    677.31537   -1272.7948   -952.88575   -2307.9219 0.00053044023 0.00049580948 0.00049695838 
 3148000    514.35515   -118.14813     -1375.56    1132.4749   -791.51859    1859.7988 0.00053109682 0.00049547448 0.00049689873 
 3150000    548.18349   -118.67682    3211.5393   -1218.1172    2658.4908   -841.13129 0.00053128294 0.00049559672 0.0004966998 
 3152000      519.532   -118.27806   -737.68455   -1747.2283    20.796416     2352.473 0.00053099373 0.00049531748 0.00049638296 
 3154000    490.96515   -117.46236    1703.5705    1222.7819    2521.1073    55.456205 0.00053064875 0.0004950293 0.00049645566 
 3156000    482.27474   -117.74325   -1660.5854    2998.1815    -5154.814   -841.82437 0.00053027667 0.00049481187 0.00049603976 
 3158000    519.71306    -117.4377   -1506.2501   -848.18728   -988.13629   -410.17101 0.00053021375 0.00049441594 0.0004957278 
 3160000    489.40542   -118.14526   -572.93962    2921.3375   -544.29533   -330.96453 0.00053002108 0.00049440144 0.00049552241 
 3162000    493.75231   -118.12618   -4440.2577   -625.43703   -1854.7848    1685.0049 0.00052986612 0.00049394484 0.00049519581 
 3164000    538.96522   -118.34849    1074.9753    2041.6496   -2609.0455    2709.0289 0.00053010627 0.00049377415 0.00049491275 
 3166000    516.24432   -118.85272   -2028.9157   -901.05993   -2422.1112   -4688.6218 0.00052962423 0.00049355264 0.00049498734 
 3168000    514.94584   -118.15458    392.61617   -1252.2984     2448.509    733.75905 0.00052938036 0.00049323669 0.00049531985 
 3170000    501.92481   -117.51053    2546.2779   -4080.3701    3156.3154    3047.8351 0.00052884067 0.00049371946 0.00049501944 
 3172000    511.94802   -117.80889    555.42044    1966.8793    295.92687   -3042.3546 0.00052859294 0.0004944413 0.00049499851 
 3174000    437.43585   -116.74326    3882.1096    2280.3898   -188.87899    293.59386 0.00052822847 0.00049413467 0.00049468728 
 3176000    427.48057   -116.56698   -1598.4427    1019.5359    183.35802   -233.39394 0.00052814402 0.00049383721 0.00049519312 
 3178000    502.03903   -117.09136     18.67171    5206.4921    14.404067   -2701.3127 0.00052913042 0.00049363483 0.00049489855 
 3180000    464.22571     -117.751   -3324.0484   -3127.9991   -111.12546    1476.1514 0.00052874689 0.00049463649 0.00049512523 
 3182000    534.09367   -119.22512   -4552.0256    808.93742    1872.0579    2750.0364 0.00052850194 0.00049455271 0.00049564736 
 3184000    465.36858    -118.6571   -470.42406   -2824.3147   -5139.5173    1074.9942 0.00052825883 0.00049434508 0.00049488287 
 3186000    456.07648   -118.18912   -2092.3948   -46.351854   -894.02397    3615.4912 0.00052793832 0.00049410567 0.00049477655 
 3188000     459.0694    -118.2982    981.73947    2091.3384    738.59452   -1692.8681 0.0005276864 0.00049407411 0.00049502617 
 3190000    517.99182     -118.343   -484.11678    3278.7972    3316.9524   -195.41148 0.00052742532 0.00049437283 0.00049494306 
 3192000    501.30415   -118.98658     -1119.37   -1056.7861   -2219.6745     2727.413 0.00052732853 0.00049505304 0.00049544391 
 3194000    540.98659   -117.68817    2557.1287   -110.38139    -3419.896    -825.4859 0.00052724358 0.00049526916 0.00049488787 
 3196000    475.71343   -118.42802    -1126.423    -137.8012   -3114.6343   -4571.1231 0.00052696434 0.0004949866 0.00049457355 
 3198000    532.49508   -116.82374    2020.7698   -4270.9215    1975.1286    3676.9253 0.00052713361 0.00049487947 0.00049435783 
 3200000    524.51621   -117.71467   -1305.7991   -1110.7847    333.91508    2293.5707 0.00052705994 0.00049518126 0.00049414459 
 3202000    521.67038   -117.09322   -883.18232   -1087.8323    2449.7854   -1431.4309 0.00052685428 0.00049558423 0.00049421489 
 3204000    524.83528   -118.05412    153.48181    878.09684    2733.1675    461.51484 0.00052654617 0.00049560445 0.00049386787 
 3206000    435.75937   -118.44299   -4513.1187   -1145.5052    454.17892   -244.64901 0.00052613757 0.00049533973 0.00049411646 
 3208000    497.59106   -118.26043    401.04752   -438.35903   -398.39654    376.99717 0.00052665284 0.00049513148 0.00049385136 
 3210000    441.68179   -116.42637   -2647.6661    2655.1877     -1097.22     2066.227 0.00052697014 0.00049500661 0.00049359894 
 3212000    483.07413   -118.47673   -179.27665   -2328.1433    521.37553    155.56865 0.0005268233 0.00049498777 0.00049324033 
 3214000    424.84108   -116.64379    1511.5357    3811.4086   -1138.8199    1302.0327 0.00052720868 0.00049483543 0.00049335108 
 3216000     560.6092   -115.66621   -231.91567      1666.36    -69.17154   -189.40988 0.00052679739 0.00049464574 0.00049354678 
 3218000    504.04183   -118.17521    2348.1267   -2910.6915   -2050.5485     3319.631 0.00052651796 0.00049455841 0.00049322708 
 3220000     564.9666   -117.50148   -1421.0917   -2892.7786   -479.85381   -1412.3914 0.00052654102 0.00049555236 0.00049300059 
 3222000    493.40309   -117.21473    873.12441   -2628.4978    4897.8504     -1062.62 0.00052616307 0.00049639033 0.0004927028 
 3224000    442.80285   -116.12732   -157.50597   -3947.0031   -2962.3314   -5063.9538 0.00052591447 0.00049822704 0.00049234511 
 3226000     508.3141   -116.60611   -2107.1178   -1162.1358    1783.5319   -1156.3336 0.0005255694 0.00049820834 0.00049214326 
 3228000    523.50951    -116.9702    1938.3954   -105.95349   -2625.5344   -1420.2042 0.00052573834 0.00049787181 0.00049174981 
 3230000    507.84354   -118.15435   -2148.8399    1112.0804   -2351.1016   -849.31505 0.00052545581 0.00049816672 0.00049145163 
 3232000    479.56462   -117.45835    57.060413   -2734.1267     949.7496    616.64346 0.00052617746 0.00049912472 0.00049112724 
 3234000    475.09824   -117.38968   -859.76905    2036.7486    2405.7128    5417.7293  0.000527087 0.00049937825 0.00049071096 
 3236000    480.69035   -118.83173   -1479.1631   -850.73365   -2207.8238    -541.2055 0.00052874221 0.00050129565 0.00049167441 
 3238000    452.98974   -116.77859    1061.9136    1111.1337   -1180.6423    1434.6848 0.00052838384 0.00050187684 0.0004926658 
 3240000    552.09679   -117.85392   -2344.2976   -336.56804    2025.3404     2654.782 0.00052801633 0.00050190747 0.00049281464 
 3242000    466.28875    -116.7603    1620.2403    2968.6435    325.98955    1682.6683 0.00052775054 0.00050155761 0.00049271447 
 3244000    467.06682   -117.37826   -1108.5672    798.64215   -1896.9733    213.75819 0.00052779588 0.00050121017  0.000492456 
 3246000    508.94521   -117.39927    220.08992    694.69591   -2314.2759   -1214.6297 0.00052762639 0.00050076531 0.00049228007 
 3248000    534.66145   -117.11232    1729.3399   -3336.6461   -1628.7497   -26.923325 0.00052729552 0.0005005555 0.00049208321 
 3250000    473.10451   -117.34374   -2897.1514   -182.70318    1662.7635   -1959.9248 0.00052771339 0.00050023613 0.00049195299 
 3252000    492.89238   -116.80362    721.00515   -2104.6724   -402.06639    -1800.305 0.00052840132 0.00049999348 0.00049163945 
 3254000    510.33962   -117.81217   -3178.3875   -1336.7548    4393.5572     4401.077 0.00052796504 0.00050053159 0.00049129354 
 3256000    497.79305   -118.04927   -1091.2744   -2118.4593   -1525.3271    663.29025 0.00052854376 0.00050081846 0.00049103303 
 3258000    506.44298   -117.86087    938.10581    402.06411    2199.1715    1068.5865 0.00052860378 0.00050087762 0.00049068904 
 3260000    540.56928   -118.61075   -2148.9032   -2623.0846      -226.95   -1143.0523 0.00052857141 0.0005006131 0.00049059937 
 3262000    548.85773   -118.29724    2858.3234    3779.1164   -1034.4502    3204.2049 0.00052862955 0.00050063129 0.00049063016 
 3264000    531.86223   -117.86379   -1116.9975   -3322.4103   -1461.4921    879.86441 0.00052818766 0.00050021302 0.00049052008 
 3266000     455.7545   -117.62762   -484.57425    4251.9102   -294.80527    682.51798 0.00052776182 0.00049993224 0.00049019113 
 3268000    565.11954    -117.0636    1591.1541    3459.2406   -3435.4515    245.26056 0.00052859913 0.00049957856 0.0004904336 
 3270000    518.25718   -117.32242   -2307.4524   -5469.6009   -1159.9148   -1549.0092 0.00052885914 0.00049929711 0.00049320327 
 3272000    469.61263   -118.53754    3259.7174    -2291.341     39.96294   -1158.4247 0.00052908248 0.00049896812 0.00049291757 
 3274000    506.02924    -117.4223   -1741.7675   -1410.5137    948.13717    238.37073 0.00052892974 0.00049866195 0.00049251899 
 3276000    476.37866   -116.46371     671.9561    90.251656     2954.094   -2046.5488 0.0005289482 0.00049866467 0.0004928922 
 3278000    504.56476   -118.44432   -1095.5516   -1412.3082   -1079.0304   -3612.7286 0.00052870807 0.00049845292 0.00049241253 
 3280000    493.50641   -117.32901   -4154.7305   -1653.7605   -334.13454   -2164.6095 0.00052863759 0.00049828383 0.00049215029 
 3282000    476.34883   -117.75384    26.599297    -940.6223    1240.8843    489.71855 0.00052907295 0.00049834661 0.00049202492 
 3284000    522.54665    -117.1659   -3613.8595    451.34117   -1072.0088     4810.346 0.00052869492 0.00049843388 0.00049175528 
 3286000    503.12964   -118.13963    1766.0717    762.23168   -1662.1394   -1007.6418 0.00052846357 0.00049826081 0.00049212825 
 3288000    493.62792   -117.43925    1600.4561   -234.25667    1931.1878   -1468.0432 0.00052813834 0.00049782679 0.00049196881 
 3290000     474.8545   -117.80104   -81.317287   -260.55434   -1547.4133   -1008.1408 0.00052797502 0.00049769565 0.0004928296 
 3292000    511.37468   -116.96542    3313.7057    2909.6775    1862.5696    3426.0191 0.00052773833 0.00049758549 0.00049298562 
 3294000    482.45672   -117.79062   -3203.9419   -2039.8901   -3616.7039   -2877.4961 0.00052843485 0.00049737113 0.00049397413 
 3296000    447.60369   -117.88124      436.854    1304.3914    30.318508     49.89783 0.00052825312 0.0004974214 0.00049370773 
 3298000     441.7791   -116.98776   -370.55409    969.76213    1141.8999    4774.3579  0.000528019 0.00049703911 0.00049338534 
 3300000    468.64464   -117.49564   -3280.7703   -6119.8027    1738.6575    364.41799 0.00052880949 0.0004969609 0.00049302673 
 3302000    463.69903   -117.12188    3043.2276    3444.2623   -1263.1373    1310.1351 0.00052834312 0.00049685573 0.00049269759 
 3304000    511.60996   -118.47923   -4687.4081    991.17047    629.94306    3784.2945 0.00052803791 0.00049704923 0.00049272226 
 3306000    540.03285   -116.83136    1656.1045   -3143.6761    1350.4433    338.42426 0.00052842317 0.0004977509 0.00049241003 
 3308000    511.69077   -117.91686   -2316.7571    309.16709   -388.50839   -3856.9111 0.00052849125 0.00049725103 0.00049215092 
 3310000    519.56011   -117.47014   -3129.3792     -1655.18     1585.383    534.63376 0.00052822272 0.00049755852 0.0004918384 
 3312000    465.07736   -116.11349    2656.5132   -1069.9566    1840.2296   -3014.0365 0.00052847483 0.00049690256 0.00049177309 
 3314000    512.68463      -117.11   -2149.3863    1386.4584   -1913.5721    857.18043 0.00052913864  0.000496888 0.00049153096 
 3316000    482.95703   -117.25106    4073.0757   -88.629891   -264.29654   -1920.6599 0.0005287319 0.00049661225 0.00049122755 
 3318000     500.2153   -116.66083    102.56251   -3902.1488     1324.836   -1312.9988 0.00052896803 0.00049710269 0.0004909574 
 3320000    493.02603   -116.86826   -53.244421    2264.7491    -1640.104    1306.6296 0.00052865414 0.00049684855 0.00049065755 
 3322000    448.23095   -119.10215   -356.63479   -1374.3676   -1991.9152    168.24093 0.00052875214 0.00049644268 0.00049071608 
 3324000    497.88596   -118.72368   -4410.0801    1198.6441    2822.0781   -117.13436 0.00052898474 0.00049668945 0.00049055306 
 3326000    481.01049   -116.47878    1377.0385     790.4482    2969.9326   -4201.3718 0.00052975123 0.00049646427 0.00049034828 
 3328000    458.94601   -117.77508   -1895.3459    432.18477    1415.1491    -910.3834 0.00052976536 0.00049606608 0.00049048686 
 3330000    508.55493   -117.15369    1171.3578   -3140.5728     707.1171   -3134.9003 0.00052938671 0.00049584156 0.00048993596 
 3332000    486.63692   -117.40723   -415.15879    1501.9155   -709.64748    2781.9189 0.00052939805 0.0004957699 0.00048955174 
 3334000    503.07796     -116.968    -2033.098   -116.79614   -2023.1265   -3039.9492  0.000529527 0.00049594918 0.00048992089 
 3336000    473.33316   -116.56657     1312.908    2365.5366    2273.0658   -961.67295 0.00053120403 0.00049580432 0.00049060627 
 3338000    485.43742   -118.01489      -3731.5   -2203.5773   -166.06362    3005.0078 0.00053169514 0.00049576855 0.00049027386 
 3340000    539.43985    -117.7371    1623.9981   -1163.8006    3024.7651   -1449.3396 0.00053151975 0.0004965934 0.00048991472 
 3342000    562.67265   -117.75053    470.68009    1981.2415    2709.8071    1788.5926 0.00053126812 0.00049648131 0.00048969973 
 3344000    548.64919   -117.39817   -842.15376   -2077.9342   -5899.9813    1320.6867 0.00053132322 0.00049651216 0.00048954814 
 3346000    510.24542   -116.15777    2354.0294    -1602.155    1436.7225    2342.5985 0.00053105857 0.00049720263 0.00048960888 
 3348000    481.13949   -117.14176   -3677.8715   -1306.4664    2288.2331    2341.4082 0.00053094351 0.00049739687 0.00049034209 
 3350000    503.05448   -118.15029    84.570739    474.82597   -1253.2742    353.42019 0.00053096184 0.00049708663 0.00049023192 
 3352000     486.6679   -118.10659   -3081.1518   -1254.0531    1552.1375   -694.36827 0.00053084231 0.00049696802 0.00048998884 
 3354000    508.69306   -118.24733   -1924.2923   -939.66541   -1449.7419   -863.51922 0.00053070068 0.00049710705 0.00049056099 
 3356000    549.31744   -117.15894    2523.3484    2490.9638    3805.5195    2331.8565 0.00053044617 0.00049682752 0.00049052516 
 3358000    471.07127   -116.99071   -1268.0529   -1421.5608   -5562.3029   -1386.5314 0.00053024498 0.00049647265 0.00049052972 
 3360000    494.97556   -117.40198    2455.3468    1036.4573    1993.4833   -383.46173 0.00053114334 0.00049637805 0.0004905952 
 3362000    468.41509   -117.73567    -997.8578    1119.2257   -1170.3484   -1763.6469 0.00053058058 0.00049672534 0.00049012106 
 3364000    517.97243   -117.85799   -1787.4023    2642.3883    2648.9949    541.89308 0.00053026077 0.00049731237 0.00048996251 
 3366000    482.64192   -118.79977    843.19898    1026.0818    2514.0148    971.64104 0.00052989169 0.00049689523 0.00048993266 
 3368000    539.61881   -117.26004   -1940.2582   -1944.6814   -3561.9426   -1715.7616 0.00052997942 0.00049674974 0.00048968722 
 3370000    493.62136    -116.9984    1853.0047   -588.70947    970.02429    2154.1337  0.000529608 0.00049664854   0.00048965 
 3372000    499.88489    -117.8979   -1516.8087   -453.49917   -1446.3369   -2472.6753 0.00052963219 0.00049643944 0.00048997917 
 3374000    524.00154   -116.79478   -549.11174   -4379.7613     438.6597    2345.3186 0.00052940408 0.00049622349 0.00049063147 
 3376000    446.87944   -117.64925   -718.19673    2759.5645   -1717.1674    500.45831 0.00052936818 0.00049590307 0.00049053885 
 3378000    487.68073   -117.52409    -2318.834    905.18445   -1358.7599    1579.5866 0.00052921271 0.00049568715 0.00049036869 
 3380000     487.1649   -117.69505    572.08634     2538.621    4012.5626    1971.8794 0.00052902263 0.00049570194 0.00049017808 
 3382000    487.67445   -118.68237   -2375.7949    3781.2804   -1688.1665   -4534.7929 0.00052871207 0.00049583029 0.00049139603 
 3384000    528.62447   -117.83175    751.38772   -1946.4478   -957.96828    402.82477 0.0005283221 0.00049544283 0.00049081374 
 3386000    482.51839   -117.55576   -1334.2463   -5177.0536    101.49044    -1476.295 0.00052863135 0.00049495149 0.00049057269 
 3388000    438.93918    -118.3984   -762.68608   -793.15908   -500.79259    1958.4999 0.00052907777 0.00049520348 0.00049053982 
 3390000    578.56396   -116.32041    2318.6875   -1586.0544    3293.7652   -1364.0712 0.00052843063 0.00049506814 0.00049016118 
 3392000    552.69689   -117.40669    -1289.893    721.77834   -3130.2132   -614.55308 0.00052832698 0.00049516507 0.0004900817 
 3394000    500.34277   -116.69458    3091.8271    157.02211   -1790.7258   -821.57161 0.0005279059 0.00049476782 0.0004897821 
 3396000    532.60415   -116.14942    167.23427   -2465.3818    -177.1031   -2068.5307 0.00052851691 0.00049503596 0.00048945787 
 3398000    465.39132   -118.28215   -770.91901    1077.5575    666.68509     4164.883 0.00052985443 0.00049460225 0.00048930981 
 3400000    471.58722   -117.35672   -757.28236   -656.50486   -3138.7324    -523.1698 0.00052956368 0.00049480841 0.00048904236 
 3402000    545.47668   -117.66266   -4187.8414   -1070.1179    2822.8847   -639.85942 0.00053116646 0.00049474264 0.00048901748 
 3404000    474.26244   -117.46011   -513.71432    1335.8902   -2969.8039    3322.2081 0.00053155207 0.00049449049 0.00048901203 
 3406000    486.73763   -117.91937   -2408.7812    4193.2887   -599.31594   -1820.4416 0.00053114494 0.00049418254 0.00048875009 
 3408000    416.68135   -116.71613    29.645947   -2828.7315    262.08704    79.553712 0.00053090786 0.00049406197 0.00048850976 
 3410000    514.85445   -117.36409    10.145962   -2565.5084   -4258.8845   -923.15826 0.00053063004 0.00049389455 0.00048826166 
 3412000    485.18757   -116.15297    212.59719    888.29288   -2463.2787    575.42063 0.00053028446 0.00049357237 0.00048794967 
 3414000    500.87157   -117.54631    496.69518   -1729.5425   -2095.3637   -817.38582 0.00053009424 0.0004935261 0.00048805002 
 3416000    496.08488    -116.7102   -1308.2161    4564.4192   -1562.3301   -34.382766 0.00052999225 0.0004933078 0.0004895445 
 3418000    476.63773   -117.91638    641.56924   -1835.8527    1538.5103   -1213.6216 0.00052980178 0.0004943379 0.00048900153 
 3420000    499.21334   -117.01674    56.977754   -682.21321    5586.8038   -233.69555 0.0005302854 0.00049649904 0.00048878208 
 3422000    481.97101   -117.89027   -867.99573   -633.30407   -924.98697   -788.30705 0.00053066445 0.00049676507 0.00048857138 
 3424000    469.76525   -117.58103    1194.1395   -121.52797   -1098.7156    669.92969 0.00053020051 0.00049657455 0.00048845435 
 3426000    459.70721   -118.07744   -1886.4119   -581.07895    841.25178    69.308564 0.00052998162 0.00049629004 0.00048852413 
 3428000    476.92597   -116.99848   -550.97174    217.93963   -753.91565    334.76834 0.00052981221 0.00049588552 0.00048828037 
 3430000    426.13353   -117.99778   -2065.1078    2430.7815    2912.6357   -3930.9701 0.00052985092 0.00049563002 0.00048803696 
 3432000    487.36452   -117.75214   -751.37369   -61.150306   -3399.0658    1543.6202 0.00052950339 0.00049549519 0.00048805759 
 3434000      561.992   -117.70164    337.97483    4813.9089   -3461.4117     1712.014 0.00053008308 0.0004951797 0.00048764346 
 3436000    501.31739   -117.18682   -1046.0503    85.509556    4087.9589   -1026.2722 0.00052970628 0.00049515921 0.00048743309 
 3438000    480.84616   -116.83101    2917.2953    2966.8163   -995.65202   -2353.0016 0.00052956881 0.00049485276 0.00048721649 
 3440000    481.84336   -117.97835   -1654.1668   -4141.4522   -715.63769   -961.26492 0.00053013452 0.00049474075 0.00048690935 
 3442000    523.90244     -119.073    51.933561    1793.5111    371.09789   -2915.3501 0.00053023112 0.00049438375 0.00048680534 
 3444000    468.74666    -118.8983   -1358.5744    1601.9903   -2865.3946    590.15573 0.00052990567 0.00049408442 0.0004864708 
 3446000    473.56028   -117.78956   -2261.4116   -2918.8835     2657.624   -77.602351 0.00052968061 0.00049399197 0.00048611917 
 3448000    466.38139   -117.40901    24.274438    2905.9919   -2277.9635    1023.2354 0.00052958562 0.00049392999 0.00048585595 
 3450000    517.92539   -118.56462   -2754.0063    936.84029     3114.165     5431.996 0.00052938991 0.00049420466 0.0004856116 
 3452000    536.91969   -117.30855    319.39293    790.10905   -2162.4796    801.20856 0.00052908902 0.00049402292 0.00048611998 
 3454000    559.43033   -116.29781    574.86188    1103.8678   -3404.4732   -701.88229 0.00052880466 0.00049374372 0.00048630234 
 3456000    428.00157    -116.8243    325.60646    3346.5521    700.51698    2223.9424 0.00052844239 0.00049366291 0.0004860799 
 3458000    447.61669   -118.38437    1472.7334    1920.3767   -1064.3478   -1295.3387 0.00052813781 0.00049338098 0.00048586073 
 3460000    488.70721   -116.51652   -1547.2575    2576.6375    -1322.123    1911.3629 0.00052788736 0.00049312317 0.00048608436 
 3462000    508.45463   -118.21792    1351.3692    1057.9799    1454.0915    2023.4482 0.00052764446 0.0004931909 0.00048601298 
 3464000     556.8935   -117.19872   -1855.5966    75.407941   -316.21504    2085.5295 0.00052772974 0.00049293615 0.0004860071 
 3466000    476.48672   -118.69347   -1173.2223   -4341.6796    859.09947    2675.7026 0.00052747781 0.00049284042 0.00048586577 
 3468000    508.48098    -117.3839    784.92684    1947.4981    2333.1713   -2482.5121 0.00052713127 0.00049290339 0.00048644455 
 3470000     539.1068   -118.77993   -1787.1384   -710.21167    505.43484    423.03687 0.00052697498 0.00049273605 0.00048685285 
 3472000      501.978   -117.78328   -506.24919   -1241.9331   -3772.1768    4581.4539 0.00052695707 0.00049261164 0.00048656203 
 3474000    481.04093   -117.00183   -3656.5998    -2573.721   -455.24172    1939.3358 0.00052668735 0.0004924395 0.00048648153 
 3476000    464.00583   -116.72379   -84.340046   -4893.8856   -798.98043    2007.1538 0.00052641332 0.00049288164 0.00048670084 
 3478000    493.51662    -116.6372   -1413.7665     5938.314   -8.8695604   -352.43369 0.00052633235 0.00049275697 0.00048680569 
 3480000    499.77311   -118.64021    790.03886    3410.8049      4655.58    2522.0903 0.00052589335 0.00049295958 0.00048645353 
 3482000    493.35033   -117.42846    1995.9937    531.59187   -2239.5379    1076.2749 0.00052547378 0.00049263532 0.00048628735 
 3484000    530.96401   -116.99688   -457.08878    5350.5331    6479.9084    4936.8796 0.00052553872 0.00049259108 0.00048673963 
 3486000     484.3024   -117.19024    482.64078   -3917.1801    289.82015    955.01405 0.00052552208 0.00049265802 0.00048633568 
 3488000    477.04154   -116.59859   -2574.0131    1642.6354    375.24624   -3148.6804 0.00052530112 0.00049250929 0.00048612538 
 3490000    489.72915   -117.82091   -2464.5531    4245.0746    773.81661    -5054.492 0.00052504096 0.00049293608 0.00048580369 
 3492000      480.184    -116.1096    146.69819    3205.0908    4407.5128     -3204.26 0.00052530283 0.00049352715 0.00048524627 
 3494000    427.73728   -116.76639   -3001.4947    526.36963    1227.7392    805.58325 0.00052605973 0.00049605057 0.00048508552 
 3496000    513.64111   -116.98535    1354.2497   -3287.0492   -2154.9049    885.85026 0.00052635089 0.00049640597 0.00048517952 
 3498000    536.18902   -117.80682   -2263.9515   -1503.5138    1310.4185   -1554.6473 0.0005260051 0.00049605112 0.00048487896 
 3500000    475.68446   -116.95501    1336.2517   -1068.3468    3761.5372   -372.50013 0.00052576479 0.00049585544 0.00048463398 
 3502000    492.02094    -117.8716    150.86639   -3123.9325   -1851.1415   -1463.6797 0.0005261428 0.00049579829 0.0004847097 
 3504000    506.59563   -118.16857   -1344.4496    552.16436   -2769.1035   -1692.6403 0.0005260428 0.00049547651 0.00048418675 
 3506000    569.01347   -118.13401    2721.2414   -3742.3754   -787.70873    2219.9883 0.00052579188 0.00049502039 0.00048438365 
 3508000    545.95558   -117.92364   -1784.3796     3122.692    1815.1646   -633.85152 0.00052555459 0.00049557166 0.0004839579 
 3510000    474.75277   -118.14441    500.48377   -232.18748   -2176.9956   -914.67291 0.00052534497 0.0004961729 0.00048396619 
 3512000    501.35898   -118.67054   -2643.5097    1983.3293   -1147.0525   -678.87436 0.0005250049 0.00049690827 0.00048364911 
 3514000    498.97835   -118.01418   -2543.4643    677.84401    3018.2666   -2056.0132 0.00052490238 0.00049752318 0.00048353576 
 3516000    488.32294    -118.5899    157.28924   -3945.7002    1331.7124    1021.1457 0.00052444475 0.00049800132 0.00048314291 
 3518000     443.1735   -117.36417    -1887.446     3075.135   -1254.7266    1590.7894 0.00052441715 0.00049888464 0.00048295888 
 3520000    504.48195   -117.78596    3602.8222    1410.8373   -3791.9704   -2086.0597 0.00052470131 0.00049959478 0.00048364505 
 3522000    548.99859   -117.50829   -31.974868    1148.1991    2287.1177    430.42296 0.00052584103 0.00049917893 0.00048312478 
 3524000    501.11449   -117.33548    1794.1669     202.7967    309.96451     1806.253 0.00052681952 0.00049893421 0.0004833814 
 3526000    486.31259   -116.86146    387.29092     2578.438     3610.911    -2652.653 0.00052677735 0.00049850529 0.00048413988 
 3528000    508.21222   -117.02928   -3490.2617    1547.7881    -1998.123   -2808.7037 0.00052705443 0.00049817763 0.00048398003 
 3530000    480.24205   -117.90293    1054.2159   -2658.6765   -366.45594   -1330.3093 0.00052671686 0.00049806573 0.00048339503 
 3532000    492.85447    -117.3246   -3715.2769   -1954.7992    311.31482   -2141.8333 0.00052642936 0.00050084433 0.00048320681 
 3534000    572.53119   -118.66492    19.089191   -2076.1467    1991.5363    195.40241 0.00052597105 0.00050358361 0.00048324725 
 3536000    541.78066   -116.87818    865.30434   -892.56975    -2933.703    2692.0711 0.00052572509 0.00050414678 0.00048304077 
 3538000    477.63724   -117.27989   -1291.9484    474.27453   -2091.0191   -6015.9583 0.00052590343 0.00050378605 0.0004829953 
 3540000    464.76556   -117.57182    3074.1849    660.49264   -373.69804    1500.2451 0.00052763591 0.00050366344 0.0004828075 
 3542000    481.33721   -118.12586   -2664.5522    480.03756   -3368.6604   -40.727484 0.00052751329 0.00050365827 0.00048274868 
 3544000    464.65541   -117.32871    1874.1225    2905.7207   -3795.1603   -4858.2924 0.00052764996 0.00050351361 0.00048265149 
 3546000    481.01821   -117.54232   -1854.2006    3466.7927    176.70012   -3674.1866 0.00052745661 0.00050329759 0.00048232124 
 3548000    459.92459   -118.12654   -588.90631    3235.6423   -1446.9002   -2253.1366 0.00052700398 0.00050322677 0.00048202965 
 3550000    512.58368   -117.01178    918.56742    5993.9111    3367.5559    -855.1709 0.00052653628 0.00050407497 0.00048182297 
 3552000    482.55908   -118.39736    -3142.989   -76.465019   -1532.8105   -492.40055 0.00052636256 0.00050413832 0.00048148178 
 3554000    575.44295     -117.948     527.0071   -2761.7029    409.65565   -2654.6829 0.0005259717 0.00050396417 0.00048148702 
 3556000    498.94805   -117.73224   -4432.7235   -741.42893   -3156.5699   -2755.0088 0.00052579498 0.00050366382 0.00048111558 
 3558000    528.27899   -116.67171   -226.34649     5428.294    2307.7855    2181.3343 0.00052554234 0.00050340681 0.00048076569 
 3560000    531.28852   -118.25649    569.51768   -1968.5973   -583.44983   -1673.1856 0.0005257411 0.00050309533 0.00048055916 
 3562000    493.84371   -117.72225   -1581.3999    -259.9362    1659.9418   -1338.9347 0.00052576646 0.00050299379 0.00048093257 
 3564000    525.03678   -117.34665    4795.9145   -2054.8466   -4099.9418   -1199.6581 0.00052560111 0.0005027632 0.00048068774 
 3566000    559.96508   -118.99852   -3144.6135    2631.0658   -1849.1726   -1778.7134 0.00052536441 0.0005027142 0.00048053481 
 3568000    480.18356   -117.72483    1693.8471    1006.8017   -2137.2815    1812.2872 0.0005250308 0.00050265175 0.00048041682 
 3570000    435.12295   -117.11355   -887.49346   -252.89287    1517.3148    -3162.299 0.00052484735 0.0005023629 0.00048042485 
 3572000      465.743   -118.00839   -3213.2439     2150.498   -673.38504    96.421172 0.00052463812 0.00050199639 0.00048008401 
 3574000    489.10493   -118.13948    1857.5377   -2457.1853   -2245.5281    1761.4901 0.00052461531 0.00050174585 0.00047977826 
 3576000    487.07468   -117.34197   -5875.5612   -1297.2625    1917.7393   -1098.2929 0.00052511181 0.0005014978 0.00047948246 
 3578000    539.77462   -117.32165    2468.5855    3986.1343    -1989.747   -109.34961 0.0005249253 0.00050129703 0.00047939158 
 3580000    500.10154   -118.68347   -1439.4714    4127.6003   -1587.2881   -494.55716 0.00052544655 0.00050125206 0.00047955113 
 3582000    502.79022   -117.72293   -1078.8574    202.01521   -484.41265    248.66535 0.00052714984 0.00050166614 0.00047977248 
 3584000    489.11005   -117.64399    4056.8227    325.45455    -673.9188   -2210.0441 0.00052804964 0.00050157308 0.00048052273 
 3586000     516.5176   -116.57804   -2193.0782    1248.8016    2688.3688   -297.63888 0.00052769651 0.00050133704 0.00048016709 
 3588000    454.30761    -117.2389    3728.2752     -2068.57    1427.6609    -2586.953 0.00052780794 0.00050142208 0.00047985711 
 3590000    491.53822   -117.46285   -2094.7439   -3520.2441     1280.298   -1775.5316 0.00052753742 0.00050134098 0.0004808298 
 3592000    538.37068   -118.11029     -422.372     2305.785   -138.12769    210.04972 0.00052758166 0.00050230095 0.00048060735 
 3594000    449.58932   -118.33644   -346.28097    86.433318   -2029.5624    2227.9375 0.00052747937 0.00050467197 0.00048042058 
 3596000    467.33498   -117.91946   -4349.6336    -297.5458    1229.6623   -987.73313 0.00052728603 0.00050495329 0.00048033955 
 3598000    559.37359   -117.31323    1769.8323    264.87815   -3508.0108   -2749.3032 0.00052757834 0.00050467233 0.00048025633 
 3600000    492.69836   -118.14147   -4233.5691   -2117.4763   -2422.7655    3345.9096 0.00052723098 0.00050435352 0.00048339795 
 3602000    444.88433   -116.48184    2606.6035   -232.03701   -3092.9714    2566.8013 0.00052687161 0.00050416266 0.00048408687 
 3604000    506.74158   -116.78142    953.58684    3421.4714    1988.6862    562.42186 0.00052653584 0.00050400486 0.00048394451 
 3606000    492.99041   -116.83177   -320.08481   -1101.2615    76.046243   -224.83966 0.00052729159 0.00050376639 0.00048369925 
 3608000     478.9819   -117.12886     3596.064    -296.0622    502.94611    1672.5039 0.00052729978 0.00050344866 0.0004835193 
 3610000    535.18036   -117.23236   -3382.8362   -5520.0382   -1447.5359    1143.1884 0.00052694791 0.00050353021 0.00048323705 
 3612000    466.79816   -117.95695    2480.0673   -307.18756    972.45762   -1329.4316 0.00052713443 0.0005034623 0.00048312243 
 3614000    476.55051   -117.21445     -2571.82    -2204.679   -2482.3136    763.67521 0.00052696097 0.00050312804 0.00048319986 
 3616000    510.65147   -118.49261   -2025.5319       177.91    585.02792   -268.35167 0.00052709684 0.00050294302 0.0004833626 
 3618000    495.38077   -118.36944    550.53571   -1986.9579   -1201.2483   -829.36988 0.00052761293 0.00050279902 0.00048344531 
 3620000    490.53591   -116.63836   -5507.0529    857.51438    668.83578   -4925.4749 0.00052752954 0.00050243628 0.00048321882 
 3622000    505.55363   -117.13086    2799.4163   -2430.7017   -969.06796   -726.65353 0.00052725999 0.00050225045 0.00048305476 
 3624000    541.88533   -117.54872   -2744.8248   -3913.5076   -2372.0615   -964.84703 0.00052712686 0.00050198698 0.00048323157 
 3626000    499.64184   -116.72964    1038.8394    -1209.867    -1033.096   -112.41088 0.00052671407 0.00050174228 0.00048295696 
 3628000    426.26826   -118.52069    1571.5779    468.65901     4444.192    1727.0271 0.00052644247 0.00050174482 0.00048363207 
 3630000    492.80882   -117.12477   -1947.4978   -4225.5161     2658.896    328.92926 0.00052654149 0.00050149283 0.00048346923 
 3632000    430.25251   -117.09807    3552.4161    13.580128   -3532.2891   -2466.3935 0.00052637204 0.00050102694 0.00048369508 
 3634000    485.39049   -118.32168   -4263.9039    1185.8923    156.92958    2015.3161 0.00052611847 0.00050069247 0.00048333157 
 3636000     464.3508   -117.77474    426.35714   -140.38733   -2522.8012   -1199.7309 0.0005257412 0.00050076751 0.00048320709 
 3638000    483.84005   -116.48616    -1978.612   -5210.3979   -2426.8149    2356.8122 0.00052551876 0.00050043813 0.00048298436 
 3640000    517.12573    -118.4985   -3855.9961   -1864.5984    1767.4611     -2261.77 0.00052523417 0.00050023041 0.0004826787 
 3642000    537.30859   -116.64613    2684.9087    972.94133    923.12755    98.060865 0.00052493404 0.00050002206 0.00048358816 
 3644000    507.25064   -116.01614   -5935.5288    233.83831   -4465.0481    1191.7966 0.00052482227 0.00049973158 0.00048330838 
 3646000     442.6812   -117.52476    1976.9274   -867.85743   -1192.7247    1764.4969 0.0005244498 0.00049946266 0.00048301306 
 3648000    505.45128   -116.89944   -1933.3208    -589.8361    1295.4926   -2627.9865 0.00052425177 0.00049935076 0.00048261275 
 3650000    508.23727   -117.94137   -1893.2713   -2420.5645    1693.7797    2245.0723 0.00052401467 0.00049920055 0.00048236976 
 3652000    475.25884   -117.86934    2271.7554    573.70055   -1566.9416   -1445.8118 0.00052367725 0.00049907522 0.00048225461 
 3654000    506.33949   -117.58916   -3161.7768   -1981.4294   -2323.6943    3083.8032 0.00052349195 0.00049873582 0.00048208703 
 3656000    437.78613   -118.21165    4396.1274   -3044.9413   -289.63017   -529.54763 0.00052337045 0.00049889303 0.00048212399 
 3658000    520.89845   -117.15256   -1153.4511    223.41636   -39.280888    627.32271 0.00052314346 0.00049880339 0.0004817232 
 3660000    481.75273   -116.38331    1029.9643    541.97642    1820.3945    2988.1194  0.000523472 0.00049866953 0.00048133087 
 3662000    485.09939   -117.55264    638.31617   -2613.8809   -1594.9134    -365.0601 0.00052304923 0.00049861928 0.00048104782 
 3664000    496.59863   -117.57851   -5680.9056    927.96083   -2450.5013   -1731.1073 0.00052298728 0.00049837536 0.00048076357 
 3666000    464.14459   -117.19532    410.06072   -4286.3197    4370.8029    1633.5897 0.00052277579 0.00049836556 0.00048057723 
 3668000    495.62387   -117.64978   -5308.4097   -2242.9945    265.84072   -737.29798  0.000522607 0.00049823835 0.00048038687 
 3670000    492.57846   -116.90515    94.115361   -3141.7247     6357.174   -422.77595 0.00052220138  0.000497851 0.00048009524 
 3672000    531.32445   -118.48407    115.85165   -459.88887    4075.5837    3057.4981 0.00052242491  0.000497619  0.000480157 
 3674000     468.0769   -117.24263   -1945.7581    3053.4828   -1254.9088    903.06402 0.00052306717 0.00049735323 0.0004800265 
 3676000    490.60959   -118.48106    4155.0229    4102.7406    1047.8311    112.19755 0.00052265654 0.00049724729 0.00048017398 
 3678000     496.0531   -118.74008   -615.06537   -393.17679    3291.3798    -3367.276 0.00052267947   0.00049692 0.00047975677 
 3680000    506.29113   -117.13996    1848.5234   -2670.7743    525.96176    2992.4452 0.0005226373 0.00049671407 0.00047952537 
 3682000     507.5066   -117.59559   -740.85666   -2563.7514    1409.3281   -5260.3076 0.00052244853 0.00049647469 0.00047989928 
 3684000    493.57017   -116.85527   -3476.9473    4158.6624     779.8598   -1425.1176 0.0005222895 0.00049677407 0.00047949671 
 3686000    485.24434   -117.55803    618.55317   -2395.2971    3037.7287    431.53188 0.00052191622 0.00049663682 0.00048003114 
 3688000    465.97111   -116.95112   -5179.4356   -6299.4093   -1813.1619    7800.7824   0.00052152 0.00049649298 0.00047987288 
 3690000    511.86421    -117.7932   -235.66181    573.94892    4985.0495   -1048.8399 0.00052123976 0.00049643056 0.00048008449 
 3692000    472.33693   -118.37771   -2570.1456   -3439.4912   -1295.6292   -848.06221 0.00052115135 0.0004971248 0.00047976181 
 3694000    521.64138   -117.34127   -151.34634   -24.800515   -657.20483     921.0244 0.00052219023 0.00049784387 0.00047960914 
 3696000     551.9027   -116.89004      1819.95   -3287.2053   -209.05933    2234.0902 0.0005228784 0.00049744494 0.0004794042 
 3698000     539.8554   -118.66807   -936.11898   -2635.8337    4662.9454    1736.7876 0.00052287381 0.0004974302 0.00047907966 
 3700000    543.93674   -118.48746    2180.8246   -2548.4629   -2013.2617   -377.33276 0.00052274297 0.00049745008 0.00047857772 
 3702000    492.54546   -117.56227   -1355.6402    6121.6322   -1859.6729   -1806.2853 0.00052242361 0.00049736654 0.00047818261 
 3704000    437.11061   -116.94119    844.66126   -5619.9183    3741.1046   -2559.1562 0.00052238492 0.00049727257 0.00047794386 
 3706000     497.6177   -117.31646   -1523.1524   -523.82026    1389.5899     1921.381 0.00052224469 0.0004983176 0.00047784799 
 3708000     527.4042   -117.28207   -2096.1181    2702.4825    -3012.188   -2803.0721 0.00052199761 0.00049975668 0.00047886791 
 3710000    483.24393   -117.89559   -137.68777    1577.4662    5336.2792   -3125.5437 0.00052206926 0.00049940812 0.00047871824 
 3712000    513.87045   -117.39779   -4058.7731    1422.3016   -265.31327     2641.856 0.00052177981 0.0004991293 0.00047927666 
 3714000    491.52112   -117.54431   -411.11111    4062.2101    1056.8665    537.35016 0.00052142239 0.00049877529 0.00047913959 
 3716000    483.26562   -116.43553   -621.82785   -1179.8759    327.12227    26.690196 0.00052148577 0.00049861974 0.00047892323 
 3718000    526.11931   -117.06057   -1643.6439    1637.5332   -3122.9231    2252.1607 0.00052117834 0.00049871366 0.00047871819 
 3720000    429.17783   -117.10356    2357.2908    2758.8583    4336.1102   -4555.1949 0.00052087398 0.00049838604 0.00047855729 
 3722000    447.62666   -118.04942   -1492.3057    921.25841    -442.5425    2681.0973 0.00052225648 0.00049814744 0.00047836535 
 3724000    497.98263   -118.60522   -70.409911    3720.6407    3279.8821    289.14794 0.00052193984 0.00049808237 0.00047814399 
 3726000    514.44676   -117.51642   -659.23182    -552.1302   -849.23106    187.85912 0.00052183252   0.00049801 0.00047817595 
 3728000    531.38908   -118.03392   -2646.4894    1063.8216   -399.73801   -1761.1023 0.00052176173 0.00049865061 0.00047803229 
 3730000    496.45058   -117.63092    739.60381   -5630.0705    380.52088    235.19566 0.00052150639 0.00049974469 0.00047826958 
 3732000    489.71138   -116.89921   -3419.8513    109.29275   -420.44879    62.727561 0.00052171986 0.00049923017 0.00047802608 
 3734000    479.56113    -117.6898    879.05123   -1734.6756   -326.87537   -1281.2017 0.00052187532 0.00049890965 0.00047832911 
 3736000     486.6671   -117.10052   -227.75747    1850.5648   -2761.7054    1746.5046 0.00052165951 0.00049848952 0.00047839691 
 3738000    468.95138   -116.49055    680.18567    4018.7692    3707.4701   -3865.1356 0.00052170366 0.00049880815 0.00047829927 
 3740000     441.0504   -117.27576    1613.2403   -3507.9206    1740.1617   -2407.0994 0.00052190715 0.00049907105 0.00047873067 
 3742000    537.30044   -118.78177   -3524.4068   -857.87253   -1267.0596    1291.6537 0.00052206071 0.00049883005 0.00047852504 
 3744000    534.38765    -117.1028    1276.3379      351.401     4321.856    2957.5737 0.00052207312 0.00049859608 0.00047864198 
 3746000    533.24708    -117.9404   -2469.9193    907.20668    3003.1829   -2043.3054 0.00052188234 0.0004983372 0.00047842263 
 3748000     464.1145   -116.99942    1049.2481    4219.7657   -666.76719    -761.5238 0.00052191462 0.00049825661 0.00047823186 
 3750000    517.89487   -117.84608    1704.5975    1736.3374   -626.19837    -4116.864 0.00052132277 0.00049795545 0.00047819669 
 3752000    498.87677   -117.77429   -2950.2858   -1687.0785   -736.07181    89.394123 0.00052107036 0.00049771262 0.00047842079 
 3754000     490.0838   -117.64078     2388.538   -383.19283   -7180.8621   -2107.8902 0.00052098752 0.00049744302 0.00047842911 
 3756000    519.69072    -118.6242   -5304.0212   -3779.6802   -1079.7111    1205.2774 0.00052116887 0.00049717979 0.00047857525 
 3758000    481.75787   -117.44906   -773.35521   -4.9385909   -4518.7489   -1913.3223 0.0005206275 0.00049674399 0.00047839551 
 3760000    520.51421   -118.01922   -1104.7797    2789.7258   -2105.8839   -2846.6314 0.00052118627 0.00049697539 0.00047838236 
 3762000    509.37461   -116.70554   -2179.1916    1830.6813   -3089.8095   -4245.9824 0.00052069642 0.00049728365 0.00047821447 
 3764000    451.89219   -117.60639    3383.2588   -3456.7816    2166.2644    2666.1418 0.00052046479 0.00049706483 0.00047801024 
 3766000     507.2814   -117.20913   -2503.5722    6549.5261   -3368.4551    928.27687 0.00052032701 0.00049699481 0.00047795992 
 3768000    475.13817   -117.27489    3131.5839   -331.34311    2547.1688    1876.0899 0.0005201155 0.0004969697 0.00047831313 
 3770000    497.12721   -116.99661   -663.13313   -1925.4878   -427.92438   -237.23782 0.00051986513 0.00049670521 0.00047799637 
 3772000    485.61263   -117.88681   -2140.8555    3867.0896    1559.0902    1522.3466 0.00051976029 0.00049672932 0.00047779551 
 3774000    537.86235   -117.33051    1313.8844   -3262.6413    470.32897   -277.67488 0.00051958205 0.00049658243 0.00047797972 
 3776000    537.34431   -117.70858   -3990.5997    1828.2929     -2196.51   -1637.1891 0.00051958388 0.00049634382 0.00047774078 
 3778000    523.35887   -116.83697    2851.0628    2873.9427    1948.5203   -2429.3829 0.00051981173 0.00049613903 0.00047750135 
 3780000    476.08824   -116.13442   -1365.2043   -725.34143    3056.4124    2140.8741 0.00051979236 0.00049596468 0.00047723473 
 3782000    545.45333   -117.17739   -112.50961    448.93376   -910.62126    3754.2354 0.00051943958 0.00049582306 0.00047703378 
 3784000    527.69401   -117.49275   -425.92948    3053.6986    1137.7399    3143.9164 0.00051925976 0.00049561352 0.00047675066 
 3786000    500.02625   -117.84667   -4320.6348    367.29883   -299.78511    2720.6297 0.00051944223 0.00049554688 0.0004764507 
 3788000     469.9036   -118.42336    1090.1987    -1655.393   -2196.5657   -1587.7521 0.00051899414 0.00049527314 0.00047619238 
 3790000    471.02686    -118.2675   -2779.5524    1537.9435   -2192.4251   -2574.3459 0.00051871871 0.00049560473 0.00047641943 
 3792000    501.74793   -118.35384    1619.6028    673.48409   -1561.3614   -3622.6508 0.00051844296 0.0004954704 0.00047625921 
 3794000    464.72814    -116.7815    1417.4497   -5096.8997   -3514.9232   -1324.3267 0.00051820265 0.00049547837 0.00047595026 
 3796000    571.73616   -117.80774   -876.52648   -1461.8869    3630.1568    627.56292 0.00051801294 0.0004960122 0.00047628626 
 3798000    532.32286   -117.24088    1974.2751   -2766.5917   -2551.1939    347.86107 0.00051768413 0.00049570965 0.00047595951 
 3800000    508.52906   -117.64603   -4978.1644   -1834.7875   -528.44982   -587.26552 0.00051752071 0.00049546615 0.00047562116 
 3802000    488.79109   -118.43675   -503.38365   -3336.9409   -1360.1322     2381.409 0.00051721085 0.00049517113 0.00047556464 
 3804000    517.56107   -117.71725   -2918.6515   -2050.0369    2406.6562    1591.0377 0.00051688638 0.00049542229 0.0004755956 
 3806000    450.97766   -117.46641     -361.973    172.56855   -651.30766    801.96099 0.00051719982 0.00049598562 0.00047551328 
 3808000    456.59952    -118.5231    2104.7995    849.25214    2561.8839   -1986.1799 0.00051778234 0.00049629164 0.00047540966 
 3810000     443.7819   -117.03887   -1505.9507    2475.3038   -5767.4167   -1010.2716 0.00051751222 0.00049610545 0.00047520532 
 3812000    546.22252   -118.01621    3279.3936   -3451.2991   -7479.0973     2055.694 0.00051724642 0.00049591865 0.0004748755 
 3814000     467.3629   -117.14295   -3191.5523   -500.97442   -1101.7976   -421.62297 0.00051719981 0.0004955579 0.00047469807 
 3816000    551.66136    -119.2224   -1151.4897   -5418.8779   -1423.9997   -1168.2934 0.00051708153 0.00049546414 0.00047443456 
 3818000    516.98987   -117.61908   -1527.1175   -4376.8011   -4341.9747    2748.7751 0.00051673496 0.00049539062 0.00047425584 
 3820000    484.83245   -116.89684   -1987.1528   -490.35895    64.285938    2474.5173 0.00051686908 0.00049537235 0.00047404461 
 3822000    488.46139   -117.08102    3500.7812    796.77722   -1474.9204   -322.28832 0.00051655543 0.00049516777 0.0004740631 
 3824000    471.59336   -116.47584   -2061.2472   -612.01394   -3916.5787   -546.22471 0.00051638978 0.0004949377 0.00047556304 
 3826000    483.00573   -118.84705    1038.0975   -174.08551   -1968.3382   -567.72037 0.00051642238 0.00049467639 0.00047577828 
 3828000    484.01435   -117.50831   -3231.9528   -2746.3775    -580.7877    4028.3364 0.00051616824 0.00049445601 0.0004753126 
 3830000     439.2273   -117.94627    -4416.413    1451.4402    2758.5311    -463.7001 0.00051616959 0.00049444236 0.0004750568 
 3832000    533.91649   -117.60827    -810.2579   -4484.0769   -3403.5236   -4217.5567 0.00051635652 0.00049411596 0.00047478755 
 3834000    466.72428   -118.08553   -3804.9489    3013.1297   -2363.8591   -1482.2505 0.00051604714 0.00049394009 0.00047476371 
 3836000    519.36448   -117.03989    4276.4497    2287.6352     2381.641   -55.736121 0.00051571086 0.00049373941 0.00047519379 
 3838000    555.57491   -118.74634   -979.04043   -5367.8335    917.78197   -421.26201 0.00051619598 0.00049349915 0.00047494822 
 3840000    455.89375   -116.70614    2501.7384   -478.60859   -1213.4939   -3294.5612 0.00051607173 0.00049333058 0.00047475506 
 3842000    502.65635   -117.16433    2340.6327   -1216.7699   -3195.7357   -2883.0433 0.00051772157 0.00049365268 0.00047467473 
 3844000    555.42278   -117.74287    -4536.571   -2395.8382   -2453.1487   -3352.5027 0.00051721299 0.00049367501 0.00047478005 
 3846000    447.60616   -117.05523    2209.6723   -3802.6783    3303.7896   -1124.0219 0.00051692923 0.00049335168 0.00047445124 
 3848000    516.88548   -119.06966   -4915.2401   -4092.1793    2494.7193    4327.2746 0.00051701045 0.00049309185 0.00047415814 
 3850000    536.08906   -117.38093    2046.6841    41.121307   -3403.0806    234.19435 0.00051682556 0.00049290503 0.00047408203 
 3852000    540.71498   -117.58033    513.14048   -1879.4883    344.20777    2817.7825 0.00051629975 0.00049295612 0.00047399802 
 3854000    505.04021   -117.27214   -3419.4747   -3880.6396   -1681.4492    4288.5769 0.00051610907 0.00049248831 0.00047403329 
 3856000    511.48309   -117.07025    1549.3052   -4048.8203   -1124.3411    1361.3625 0.00051673674 0.0004932484 0.00047379821 
 3858000    501.31662   -118.02872   -5861.8229      1405.17   -262.85881    2693.7285 0.0005166535 0.00049397819 0.00047356686 
 3860000    496.49127    -118.0165     805.5272    595.27571    559.16947   -764.23334 0.00051637684 0.00049372138 0.00047341804 
 3862000    486.77917   -117.51064   -346.29551    2353.0126   -2482.5903   -1028.8994 0.00051687111 0.00049345307 0.00047317208 
 3864000    532.15817   -116.50559    1439.9321    3548.6761   -2181.3876   -2244.8845 0.00051722725 0.00049345314 0.0004729838 
 3866000    473.13323   -118.25592    4036.5282    2277.6011    3288.8597   -54.417641 0.00051692683 0.00049552683 0.00047275129 
 3868000     472.1403   -117.28063   -2019.2354   -2718.7451   -1095.6602   -183.08666 0.00051691907 0.00049506813 0.00047275133 
 3870000    510.68605   -118.24132    1196.2274   -342.16571   -2793.5631   -2330.1499 0.00051650409 0.00049477656 0.00047278652 
 3872000    524.26148   -116.34395   -3118.5136   -1051.0459    -2452.501   -6494.1892 0.0005161195 0.00049526032 0.00047250052 
 3874000     475.0522   -116.90878   -1146.1959    2715.1955   -3081.6361   -4304.7619 0.00051582019 0.00049547343 0.00047233362 
 3876000    608.55457   -117.36082   -1464.2655    2847.4113   -1333.2735   -1748.3786 0.00051622725 0.00049523648 0.00047218927 
 3878000    520.47666   -118.32453   -2556.0496     2899.819    1009.0013   -5048.3579 0.00051637115 0.00049551133 0.00047190185 
 3880000    531.80795   -117.78638    2554.6229    589.95997    2587.6836   -2922.5868 0.00051620137 0.00049556138 0.00047169274 
 3882000     474.0445   -118.30895   -2048.8064   -4604.3528   -33.533449    1985.7644 0.00051597198 0.00049598283 0.00047151877 
 3884000    560.91434   -118.05906    775.73833   -377.09702    1728.5363   -4428.9096 0.0005156803 0.00049606313 0.0004713125 
 3886000    507.73988    -117.0685    249.46311     -2340.25    2980.5596     4010.772 0.00051537252 0.0004957071 0.0004709791 
 3888000    458.29767    -117.9902   -3029.4768    407.74085    -1341.897   -1163.7785  0.000515373 0.00049620238 0.00047074666 
 3890000    504.54177   -117.89302     2481.291    1283.8888   -515.27661   -766.91403 0.00051524368 0.00049573301 0.00047068336 
 3892000     484.0319   -117.72068   -4039.5022   -3825.4307   -1010.8496   -1293.0662 0.00051510442 0.00049542989 0.00047045882 
 3894000    463.43833   -118.89386    1110.0685    3851.4466    -2749.257   -3099.4117 0.0005148765 0.0004952198 0.00047062051 
 3896000    462.81233   -119.25427   -989.04008    3002.5975    364.52071   -1580.7987 0.00051547798 0.00049547271 0.00047149832 
 3898000    495.18554   -118.49827   -2545.2902    1022.2301   -858.53615    415.18521 0.00051587859 0.00049549787 0.00047121091 
 3900000    463.39572   -117.83741     85.23806   -3426.5436    1504.0861    1188.9859 0.00051576965 0.00049542354 0.0004710812 
 3902000    474.71243   -117.52665   -5236.8016   -2375.2326   -3173.4744   -3019.3963 0.00051586944 0.00049578737 0.00047097536 
 3904000     510.9848   -116.24777    404.66722   -1680.4165    4124.9505   -1074.2475 0.0005162414 0.00049752289 0.00047090282 
 3906000    506.28607   -118.16733   -656.07416    69.038038   -1101.7948    1136.0724 0.00051604862 0.00049893184 0.00047059931 
 3908000     462.8615   -117.81699   -382.09541   -501.39628    12.160022    1128.1878 0.00051627137 0.00049968221 0.00047063455 
 3910000    498.78167   -117.72534    4256.8323   -1133.9256   -98.105759   -2371.5616 0.00051667381 0.00049936712 0.00047044012 
 3912000    525.71572   -118.99285   -2584.7084    1761.1623    1501.2936     2141.482 0.00051660301 0.00049919415 0.00047022357 
 3914000    534.74251   -116.99016    1154.6051    1432.8557   -2209.6956    60.886731 0.00051658323 0.00049896579 0.00047045698 
 3916000    460.59845   -118.46302   -3453.3142    1061.9278   -1283.4016    4486.4723 0.00051631176 0.00049876353 0.00047000907 
 3918000    493.71395   -118.09142   -2009.9912   -1366.9123    3195.8626   -2140.8904 0.00051628741 0.00049851676 0.00047001815 
 3920000    507.22083   -117.95239     807.4578   -401.64857    1641.0397   -1679.3469 0.00051612392 0.00049824624 0.00046970849 
 3922000    495.12494   -117.88525   -2336.7768   -1712.1914    486.98396    691.98842 0.00051637023 0.00049796409 0.00046942402 
 3924000    461.69185   -118.09382     3525.804   -2129.5699    1543.0902    -1914.702 0.00051618064 0.00049798647 0.00046953451 
 3926000    492.98052   -117.80974   -3582.1178    4829.9229   -557.45511   -669.80114 0.00051636007 0.00049770818 0.00046920482 
 3928000    477.75702   -115.93431    343.16995    1143.5681    7165.3564    5334.1681 0.00051605718 0.00049771499 0.00046898454 
 3930000    491.30389   -116.80757   -71.226361   -491.92868   -3195.1262   -2931.6189 0.00051602577 0.00049787206 0.0004691494 
 3932000    468.74345    -117.1951   -2548.5726    -3232.483    2764.4419    557.24379 0.00051576097 0.00049776726 0.00046901985 
 3934000    467.65492   -117.09958    4550.3046    579.29612    -2627.329   -996.28949 0.00051549735 0.00049786537 0.0004688111 
 3936000    485.03953   -116.22256   -2200.4055    -4333.497    -633.5045   -2847.0127 0.00051515143 0.00049890533 0.00046875653 
 3938000    496.47205   -116.61236     3181.044   -230.99162    -541.2298   -1261.9337 0.00051475578 0.00049887755 0.0004685638 
 3940000    486.93323   -116.47223   -1345.7499   -2744.9629   -1184.9196   -4272.2073 0.00051469236 0.00049883049 0.00047001197 
 3942000    501.88953   -118.60329   -5401.7248    1830.5353   -1692.7087    619.48497 0.00051484496 0.00049859759 0.0004710269 
 3944000    527.41862   -117.47561    1567.1808   -4947.7723    1514.8082   -3264.7462 0.00051476985 0.00049908945 0.00047094474 
 3946000    478.36028   -117.52969   -6913.6611     1797.881    1444.0737   -2183.8086 0.00051453347 0.00049889193 0.00047094501 
 3948000    498.05365   -116.45277     3225.663   -1501.2054    351.46879   -3167.4155 0.00051451653 0.00049879826 0.0004709042 
 3950000    494.56714   -118.06289    1568.0836   -973.76088    350.53641    709.58407 0.00051436652 0.00049855385 0.00047075373 
 3952000    565.53557   -117.31961   -2486.7971   -1568.0891    1078.5028    -6049.961 0.00051426619 0.00049818166 0.00047106702 
 3954000    505.47221   -117.91571    4292.1501    -4140.944    209.20774   -3796.3731 0.00051413725 0.00049791597 0.00047072812 
 3956000    555.61288   -117.23166   -5083.0185    1511.9165     562.8736    -340.1075 0.00051469863 0.00049819961 0.00047051678 
 3958000     552.4488   -118.08722    834.34134   -1959.6994    1299.4472   -2063.4142 0.00051573057 0.00049791898 0.00047029966 
 3960000    530.29609    -118.4993   -675.00328    2050.4437     2623.833   -3426.9142 0.0005158759 0.00049762145 0.00047030712 
 3962000    527.07491   -118.30773   -3001.8389    2198.9693    481.20031    3361.9622 0.00051598075 0.00049748607 0.00047058371 
 3964000    512.67077   -117.63544    3021.3845   -609.34143    1779.6595    3140.1452 0.00051571931 0.00049753538 0.00047074254 
 3966000    545.28234   -116.17947   -3885.9028   -994.39771    1222.5464   -4233.1029 0.00051578001 0.00049733316 0.00047103355 
 3968000    540.69699   -117.86166    1212.2764    461.23254    4081.0224   -301.13221 0.00051569999 0.00049723653 0.00047135944 
 3970000    528.87287   -117.65355    -2274.623   -1758.6267   -646.17852    4259.0734 0.00051586955 0.00049745726 0.0004712132 
 3972000    516.81231   -118.16055   -1136.0233    581.76786    503.85379    -68.45834 0.00051574749 0.00049745544 0.00047093704 
 3974000    499.58117   -118.42547    2176.8747    1383.0767   -242.12647    1727.3651 0.00051556378 0.00049782016 0.00047089411 
 3976000    472.67575   -117.58906   -2062.4629    865.92722    1350.3653   -326.72778 0.00051554287 0.00049764652 0.0004705087 
 3978000    489.57766   -119.08786    4101.7882     659.8221   -3388.2195    1888.8202 0.00051528643 0.00049747159   0.00047042 
 3980000    475.71924   -117.73639   -3420.9813   -1328.5246   -4350.7372   -1221.9681 0.00051514015 0.00049729174 0.00047079672 
 3982000    490.07784   -117.87951    840.46834   -261.57569    1716.9099    5597.5093 0.00051482153 0.00049705948 0.00047101051 
 3984000    482.78653   -117.80719   -404.88027    -323.8647    869.05338   -1224.2728 0.00051493218 0.00049683467 0.00047104195 
 3986000    527.33857   -116.98004   -4024.0391    1834.2574   -635.20338     2941.322 0.00051473284 0.00049709104 0.00047088799 
 3988000    532.54775   -117.61904    4037.2128    612.44167    1994.3379   -28.163065 0.0005145841 0.00049700739 0.00047092156 
 3990000    491.09513   -118.55377   -5469.0175    24.114178   -3818.4308   -3883.8021 0.00051432872 0.00049694751 0.00047063828 
 3992000    529.98242   -118.36159    2227.9555   -4579.7783    822.04525    -859.0166 0.00051407579 0.00049659138 0.00047043749 
 3994000     524.3412   -118.90854    399.69711   -1081.8035    809.75721    3512.1397 0.00051376308 0.00049691582 0.00047008798 
 3996000    472.81738   -117.71803    -3859.245    2623.2546    52.702698     1926.907 0.0005135521 0.00049688566 0.00046993106 
 3998000    490.82423   -117.72857    5517.0766    1620.5342   -997.69419   -684.34875 0.00051333335 0.0004967132 0.00047059469 
 4000000    520.31766   -117.26537   -4078.9577   -2009.8924    1244.8026   -4441.2217 0.00051369567 0.00049657966 0.00047224963 
 4002000    516.01235   -117.21259    3291.4753   -2112.6849   -893.18315   -5935.1503 0.00051398142 0.00049634341 0.00047386173 
 4004000    415.33078   -117.60309   -1339.8189    1182.5004    2266.9867   -96.852557 0.00051472907 0.00049621429 0.00047485644 
 4006000      516.169   -117.47099    -3221.106    3870.4512    491.75497   -25.341772 0.00051438468 0.00049635898 0.00047504497 
 4008000    508.77204   -118.49961    1557.7629   -490.53916   -292.55592   -3387.0025 0.00051414238 0.00049690877 0.00047483097 
 4010000    472.54684   -119.14957   -6305.8348   -2183.7493     381.5236    2811.9102 0.0005139144 0.00049680082 0.00047461658 
 4012000     517.7612    -117.2683    2124.4569    1656.3956   -663.76178   -1002.0825 0.00051412442 0.00049674136 0.00047449158 
 4014000    509.32341   -117.09227   -3210.2098    72.661526   -3759.4071   -1155.6207 0.00051380615 0.00049676633 0.00047424041 
 4016000    458.13985   -116.95124   -1173.1763    2345.7572   -470.17159    3831.7772 0.00051376283 0.00049708336 0.0004750627 
 4018000    479.03915   -116.25261    2302.0514    5510.4624   -1981.2955   -3728.0218  0.000514093 0.00049671358 0.00047479918 
 4020000     483.5811   -117.58463   -3721.8949   -4537.3299    18.957156   -677.31302 0.00051389524 0.00049637366 0.00047455287 
 4022000    514.59283    -117.7129     3437.814    4043.6494   -5169.5084    800.35246 0.00051380959 0.00049635382 0.0004751159 
 4024000    532.29117   -117.69766    -3053.892   -4259.2221   -949.75714    2069.7537 0.00051363237 0.00049630674 0.00047524717 
 4026000    486.43712   -117.55448    1533.1275   -1728.8776   -1392.2284    595.63303 0.00051332398 0.00049598314 0.00047504976 
 4028000    496.88921   -117.51464    877.46226    758.76305    3917.8501    2938.8189 0.0005137214 0.00049584748 0.00047498428 
 4030000     518.8838   -117.76673   -2466.3232    31.359727   -468.25101    1990.3631 0.00051351126 0.00049587155 0.00047541128 
 4032000     505.0759   -118.25959    2661.7624   -3249.4504   -1014.0383    86.272314 0.00051378697 0.00049564557 0.00047528087 
 4034000    452.39991   -117.40022   -3335.7235    478.85549    51.205619   -754.31699 0.00051350116 0.00049546584 0.00047509167 
 4036000    506.39711   -118.47644    144.60494    1249.9726   -871.47139    1698.1157 0.00051322624 0.00049578018 0.00047478919 
 4038000    467.49081   -117.45673   -2014.8844    1305.7048    1498.7762    1051.5179 0.00051293825 0.0004956311 0.0004746661 
 4040000    446.17821   -117.65304   -2027.2475   -703.00066    -584.0943   -1652.7215 0.00051272265 0.0004951788 0.00047467814 
 4042000     554.3336   -115.86404     2813.596   -2352.3552    3144.7426    781.79405 0.00051256082 0.00049523388 0.00047444743 
 4044000    448.74875   -118.44179   -3433.0177    396.71627   -633.54421     471.2226 0.00051239826 0.00049521543 0.00047420202 
 4046000    488.17658   -117.16652    2605.8692    1884.3149   -2551.6985    1463.3947 0.00051219603 0.00049534658 0.00047416931 
 4048000    529.44581   -118.02738   -1747.5138    3093.2456   -2937.5665   -1758.0306 0.00051195402 0.00049510063 0.00047412619 
 4050000    473.11209   -117.80277   -1536.9072   -1236.0366    652.35114    2504.7449 0.00051211064 0.00049496197 0.0004738715 
 4052000    493.70707   -117.54774    1405.1224    2170.9237   -3010.8211     2214.138 0.0005121953  0.000494719 0.00047359385 
 4054000    453.84141   -117.24958   -3230.9998   -3147.3943   -2235.9842     -542.485 0.00051198785 0.00049454178 0.00047346599 
 4056000    505.25969   -118.37692    3585.3138    3390.8148    707.19112    2618.7987 0.00051177518 0.00049439583 0.00047335386 
 4058000    468.75405   -117.68685   -221.75325   -266.31814   -3262.0009   -3441.3536 0.0005117379 0.00049457022 0.00047364528 
 4060000     541.4256   -117.44062   -960.55504    1571.2367    2984.9835   -2787.1765 0.00051150327 0.00049449465 0.00047341482 
 4062000    543.19221   -117.76757      1243.59    865.48385   -2328.1848    3459.1275 0.0005112127 0.00049423898 0.00047349653 
 4064000    515.33682   -117.64545   -4797.9505   -2263.6722   -965.95206   -1654.9926 0.0005109244 0.00049393778 0.00047361968 
 4066000    558.01187   -117.07966    562.69595    507.23464    1284.2542   -267.54585 0.00051072658 0.00049347603 0.00047384715 
 4068000    491.62294   -118.05204   -2998.7129   -2744.8429   -1733.1206   -995.66176 0.00051051419 0.00049334614 0.00047355785 
 4070000    525.96554   -117.27992   -754.24434   -1196.2361    184.90876   -3877.0519 0.00051029975 0.00049314814 0.00047339822 
 4072000    444.40993    -116.6982    1273.0403    -2559.461   -3286.2775    1994.3585 0.00051012065 0.0004929073 0.00047340009 
 4074000    521.40152   -117.44952   -1843.3778     -357.072   -1861.9129     2.691671 0.00050988767 0.00049265572 0.00047311037 
 4076000    482.98961   -116.84879    4072.2541    335.18404   -2146.1649   -6.2897213 0.00050975551 0.00049250142 0.00047297062 
 4078000    466.10748   -117.64721   -1306.8754   -2804.7006   -3526.9762   -1546.1091 0.00050978204 0.00049227355 0.00047290021 
 4080000    463.94118   -117.29748    795.02433   -3536.4835    1366.8387    190.48293 0.00050954536 0.00049229159 0.00047322883 
 4082000    463.16462   -116.99769     239.8068    2437.7067   -2094.2404    639.84908 0.00050924379 0.00049256757 0.00047294924 
 4084000    475.19752   -117.79777   -3701.7536    2420.5506    1296.0002   -1306.8207 0.00050906513 0.00049285502 0.00047294836 
 4086000    491.32914   -117.35079    1415.2364    2104.3677    -783.8267    1172.9469 0.00050884031 0.00049361785 0.00047301073 
 4088000    504.53669   -118.00679   -4726.3291   -1403.4748   -3598.1868   -3295.9743 0.00050867721 0.00049345314 0.00047262378 
 4090000    411.13481   -118.09335     407.4346    2692.8759    2067.6869    2006.6503 0.0005084657 0.00049333731 0.00047264776 
 4092000    516.97515   -117.08372   -589.40659   -3017.6757   -1971.7799    25.853396 0.00050840554 0.00049351117 0.00047237178 
 4094000    451.41858   -116.64509   -2580.5093   -1329.1465    1009.1918     4855.519 0.00050979262 0.00049333429 0.00047251049 
 4096000    517.31159   -118.43225    2823.5681    120.89267   -62.127658   -479.16242 0.00051056927 0.00049314038 0.00047316641 
 4098000    515.23283   -116.84489   -2993.0578    1222.5114   -3828.6072   -264.35984 0.00051036559 0.00049302818 0.00047278727 
 4100000    459.86624   -117.28816    3650.4921    3049.5597    1825.7763    2260.7074 0.0005100453 0.00049283129 0.00047251553 
 4102000    486.15682   -117.16628    218.12769    2408.8752   -3556.0342    1670.5741 0.00050988467 0.00049260837 0.00047224288 
 4104000    527.46275   -117.87389   -212.59431    837.48068    331.14748   -3295.3217 0.00050962234 0.00049299259 0.00047207858 
 4106000    504.88336   -117.71681    3664.3741    3369.8308    621.62488    1555.7633 0.00050959558 0.0004925751 0.00047194233 
 4108000    485.49915   -117.54827    -5619.349   -1739.7479    4974.7394   -1847.5654 0.00050960686 0.00049235619 0.00047178609 
 4110000    481.45288   -118.08234    1927.2558    3138.2685    -3226.423    1374.2397 0.00050929563 0.00049209944 0.00047193755 
 4112000    513.92336    -118.1603   -4623.1986     413.3115   -1889.7207    302.07773 0.00050915209  0.000492038 0.0004718927 
 4114000    547.51255   -118.60564   -2334.9398   -3338.1628   -277.20113    4525.8679 0.00050990875 0.00049253131 0.0004715655 
 4116000    524.23742   -118.20967    1770.3783   -727.89782    1274.2033    4881.5166 0.00051026726 0.00049306765 0.0004713275 
 4118000    512.92838   -115.92488   -3165.7072   -801.06915   -179.27261    1393.5005 0.0005101636 0.00049313404 0.00047115102 
 4120000     518.2237   -118.17463    4945.9341   -1451.4137   -4522.0651    587.78737 0.00051041894 0.00049315112 0.00047085496 
 4122000    539.55495    -118.1873   -1517.5441    5166.4679    1601.9584    3010.7009 0.00051016882 0.00049300128 0.00047111488 
 4124000    444.16351   -117.88486    1068.9689    4395.5944   -1728.6849    2056.4235 0.00051005887 0.00049335287 0.00047142506 
 4126000    517.56393   -118.55455   -22.958628   -1523.5432   -1391.4447   -573.54191 0.00051026912 0.00049314568 0.00047122627 
 4128000    511.77661    -117.6054   -3369.4881    57.894836   -748.97118    579.39114 0.0005104176 0.00049269931 0.00047123423 
 4130000    498.79519   -117.42865    742.23822   -447.66968    -126.0177   -977.49568 0.00050996298 0.00049266967 0.00047102067 
 4132000    466.41611   -118.42903   -3943.3489   -1393.3769   -3054.5225   -2776.5394 0.00050974822 0.00049304112 0.00047082416 
 4134000    481.70886   -116.60379    2958.0573     1770.736   -3489.0541   -1780.8165 0.00050957756 0.00049302715 0.0004706018 
 4136000    523.77972    -117.2046   -738.40722    1103.0241   -558.67694   -1043.0225 0.00050941267 0.00049280359 0.0004707096 
 4138000     505.6494   -118.22951   -972.47192     2707.335   -3089.3835    902.04257 0.00050926402 0.00049264604 0.00047057655 
 4140000    483.86638   -118.38115    2329.6062   -2143.5475    2195.8292    -1788.853 0.00050914238 0.00049235573 0.00047103474 
 4142000    494.02943   -115.62116   -4983.5371    179.02694   -2895.2621    370.60255 0.00050891679 0.00049225363 0.0004718647 
 4144000    546.85617    -118.2855    1995.0756       551.71   -2524.0704   -480.79697 0.00050866438 0.00049209073 0.00047195974 
 4146000     445.6676   -116.54025    -2463.889    2819.8903    514.29076    -3288.923 0.0005086734 0.00049193264 0.00047353234 
 4148000    516.39687    -118.2639   -924.48656    2377.6533   -664.50891    836.89068 0.00050844293 0.0004917319 0.00047398305 
 4150000    541.46349    -116.8854    3047.8526    1622.0757    -840.2681    1948.1774 0.00050824651 0.00049157521 0.00047414998 
 4152000    573.45266   -116.57363   -5441.8224    5054.7997   -1986.3162    1887.6507 0.00050805453 0.00049139464 0.00047409812 
 4154000    475.64377   -118.00947    1906.7253   -1613.5473    2542.5843    -2229.611 0.00050746431 0.00049130246 0.00047387759 
 4156000    397.63575   -118.01283   -3799.2252   -10.006845   -47.673521   -3557.4363 0.0005074976 0.00049114136 0.00047360949 
 4158000      495.907   -117.49023   -224.99849    935.87508   -3694.3987   -1891.1116  0.000507334 0.00049110644 0.00047340158 
 4160000    477.31014   -117.42807    1677.6413    2745.1408    3556.5378     1860.366 0.0005071526 0.00049110807 0.00047312698 
 4162000    499.64378   -116.56323   -1308.2039    2491.1188    1029.3819   -3345.3255 0.00050706449 0.00049092209 0.00047341004 
 4164000    492.12083   -116.55821    5736.5483   -2388.4138   -1578.4095   -1320.7187 0.00050808913 0.00049071743 0.00047362807 
 4166000    475.33586   -118.15619   -3034.9364    125.05405    2202.6035    961.58212 0.00050837464 0.00049047172 0.00047329777 
 4168000    533.62299    -117.5195    485.33934   -2962.4036   -754.66355   -1222.3194 0.00050824685 0.00049023438 0.00047306613 
 4170000    517.23066   -117.12648   -1456.3098    1895.1106   -1394.3102   -1363.9337 0.00050831539 0.00049036792 0.00047294939 
 4172000    492.10503   -118.54489   -4235.5735    1714.8212   -2627.0654    3625.5751 0.00050841053 0.00049006955 0.00047330852 
 4174000    522.78828    -117.0214    949.29239   -1914.1889    3808.1709    1709.2534 0.00050991379 0.00048974063 0.00047331263 
 4176000    575.63812   -116.99468   -3022.9554    1329.6746    4918.5107    1320.9063 0.00051075476 0.00048955309 0.00047298557 
 4178000    487.22056    -118.9215    3157.9838   -1267.4724    1777.3773   -1553.4113 0.00051242963 0.00048935003 0.00047289156 
 4180000    470.23955   -117.46999   -235.84942    94.722907    4110.8658   -16.915126 0.00051226463 0.00048931184 0.00047271222 
 4182000    505.27612   -117.53509    221.59558   -2695.1886   -891.56646   -2732.6134 0.00051235194 0.00048909323 0.00047254022 
 4184000    511.35848   -116.07349    2407.0421    3356.9736    -512.6311    -923.4339 0.0005123049 0.00048894709 0.00047267573 
 4186000    468.54408   -117.59693   -3358.5358    6215.0094    2876.6022   -651.98727 0.00051223291 0.00048891431 0.00047246919 
 4188000    523.68675   -116.50895    3141.2921    4233.0677   -5079.9324    3481.9573 0.00051187021 0.00048896577 0.00047238561 
 4190000    443.81451   -117.39239    -3414.801   -2042.2393   -1903.3304    1826.6344 0.00051216732 0.00048915408 0.00047214175 
 4192000    464.98679   -117.53794    592.11184     544.1882    1970.1114    2208.4687 0.00051205412 0.00049087832 0.00047186741 
 4194000    452.37422   -117.52967     1114.944    684.45562    1927.1404    2754.9653 0.00051191068 0.00049182633 0.00047157635 
 4196000    549.32681   -118.07265    -3108.952   -1188.6921    1969.1674    358.20335  0.000511767 0.00049236872 0.00047166249 
 4198000    500.95653    -117.7139    1862.7107   -4139.5262    1893.1711    1214.9801 0.00051207452 0.00049202107 0.00047163435 
 4200000    515.69682   -117.70165   -4704.2413    3481.4473    2452.2056   -4074.8326 0.00051191419 0.00049284211 0.00047175781 
 4202000    440.02071   -117.23107    482.12946    1458.2978    2814.0101   -2921.2042 0.00051234667 0.00049236567 0.00047177924 
 4204000    477.51086   -116.60253   -68.096803   -3004.2387    -1184.121   -234.99733 0.00051204316 0.00049218628 0.00047204302 
 4206000    472.35724   -116.66293   -2265.9006   -4987.9408    4623.7755    360.58613 0.00051192326 0.00049187057 0.00047236467 
 4208000    551.08493   -116.73347    3168.8568     885.3641   -2431.6352    2152.4653 0.00051143419 0.00049170067 0.00047217924 
 4210000    540.23722   -116.97182    -2487.276   -1862.0681    1894.8531   -965.63206 0.00051116202 0.00049149006 0.00047197825 
 4212000    501.16237   -117.33939    1555.3992    1391.5212   -298.31296    436.67792 0.00051090465 0.00049171609 0.00047190761 
 4214000    503.62661   -116.58152   -161.72968    -95.05169    1354.2486   -3879.6527 0.0005106894 0.00049129463 0.00047176159 
 4216000    511.82597   -117.48203   -2616.1592   -1111.4018    1145.7727    64.794292 0.00051081366 0.00049122277 0.00047228881 
 4218000    557.05014    -118.2323   -293.86679   -2312.9897   -7559.0999   -3073.4699 0.00051054071 0.00049114747 0.00047229009 
 4220000    544.14574   -117.36923   -2828.4082   -2161.7022   -2182.7009     2568.543 0.00051019176 0.00049099027 0.00047223858 
 4222000    477.13875   -118.53715   -430.52913    -792.5461    -744.7414   -1088.5067 0.00050991161 0.00049127269 0.00047237957 
 4224000    569.56007   -116.66366   -590.45801   -66.792007    170.87916    2171.0965 0.00050963535 0.00049114721 0.00047205877 
 4226000     474.4378   -117.73822   -346.48036   -4175.6264   -1961.2971    100.35215 0.00050960814 0.0004909431 0.00047202863 
 4228000    481.70458   -117.40678    2471.4899    3249.4223    3469.9399    1686.7721 0.00050976106 0.00049087355 0.00047185573 
 4230000    498.28429   -118.11061   -2595.3662   -2409.6762   -1746.3602   -2168.7081 0.00050933069 0.00049065658 0.0004718098 
 4232000    509.80669   -117.65399    1393.9327   -2070.9531    2500.2433   -1343.1734 0.00050917692 0.00049062547 0.00047155694 
 4234000    497.45814   -117.53299   -2648.7907    2314.2567    862.66331   -1885.5366 0.00050891285 0.00049135143 0.00047140746 
 4236000    524.37813   -117.66776    683.35994    334.64871   -398.17582    348.09029 0.00050867692 0.00049155807 0.00047121266 
 4238000    498.34689   -117.22848    2319.4385    174.81272    1866.8752   -1224.0828 0.0005083624 0.00049194153 0.00047107675 
 4240000    475.42135    -116.8206   -2483.9751   -1648.5794    1422.9989   -1906.3613 0.00050798276 0.00049227131 0.00047086413 
 4242000    491.90548   -117.37871    1995.7415   -4826.5938   -2873.7736    1473.7779 0.00050775869 0.00049248072 0.00047072585 
 4244000    445.56546   -118.25599   -4077.2545   -2439.9886   -897.70465    1019.6499 0.00050745697 0.00049242375 0.00047059126 
 4246000    522.70007   -118.43694   -1752.1585    642.38877    -1064.597    436.54327 0.00050813116 0.00049222252 0.00047064145 
 4248000    523.95492   -117.53784   -1183.5785   -3257.5623    707.79151    3242.6951 0.00050834756 0.00049203882 0.0004704062 
 4250000    500.40819   -118.72141    -3947.556   -2739.7791   -2400.6525    372.01937 0.00050845429 0.00049199564 0.00047214793 
 4252000    461.15412   -118.81751    3598.6645   -720.79769    1950.0035   -1472.5877 0.00050957512 0.00049212462 0.00047219634 
 4254000    495.27729   -117.29474   -80.202199    772.65614    1919.6542    1229.9657 0.00051064087 0.00049213217 0.00047204222 
 4256000    490.39776   -117.20982    2373.7122    301.14063   -4441.0805    1518.7805 0.0005105933 0.00049220194 0.00047182295 
 4258000    475.98451   -118.11033   -263.10017   -1120.7389     3077.416    -4808.796 0.00051113331 0.00049189266 0.00047193448 
 4260000    500.25483   -117.96993   -3420.8709   -1531.6742    4573.6174    3990.8756 0.00051122583 0.00049210846 0.00047182375 
 4262000    544.83231   -117.09382    343.36517   -1011.7167    734.97852    -62.09789 0.00051107485 0.00049187639 0.00047230076 
 4264000    469.92145    -117.1808   -4455.0374    2080.9147   -511.51878    999.61389 0.00051112093 0.00049163067 0.0004719158 
 4266000    526.40651   -117.58264     893.6299   -4439.6879   -1832.0348    1506.7131 0.00051140177 0.00049165189 0.0004719498 
 4268000    437.87115   -116.75239    1356.8655    3090.5967   -246.25968    -7246.417 0.00051154976 0.00049164633 0.00047237451 
 4270000    471.75949   -118.01804   -177.28086   -402.44343    3080.3829    4891.2087 0.00051145445 0.00049156567 0.00047243915 
 4272000    440.31805   -117.93841    2035.2348    1555.1197    126.21818    -2932.745 0.00051159201 0.00049139272 0.00047254991 
 4274000    462.97388   -117.04362   -2206.2498   -2403.9771    -2465.683     -4457.96 0.00051158706 0.00049130333 0.00047241632 
 4276000    532.58461   -118.20415    611.91705    325.34761   -5118.0181    4466.1005 0.00051158649 0.00049110472 0.00047232212 
 4278000    539.33732   -117.95458   -1231.3917    3816.3222   -5191.1304   -3509.2097 0.00051136315 0.00049086324 0.00047220016 
 4280000     530.3645   -117.33533    176.81317    835.33584   -478.75263   -745.90049 0.00051134545 0.00049105054 0.00047199881 
 4282000    502.68208   -116.25772    1972.2543   -389.13863    1316.4321   -904.28435 0.00051110872 0.00049103776 0.00047199481 
 4284000     511.4233   -116.01046   -2368.5429   -377.66121   -629.07541    774.43549 0.00051088416 0.00049081713 0.00047333251 
 4286000    513.68754   -117.18685    1168.6734   -396.03603   -3640.5957   -2151.6646 0.00051145409 0.00049104306 0.00047283884 
 4288000    498.32746    -117.9509   -2733.1807    1943.5087    2287.4941   -1183.0888 0.00051137941 0.00049091846 0.00047255307 
 4290000    476.55754    -118.0221   -2265.0317   -462.01919    958.19872    2060.5228 0.00051136856 0.00049096079 0.0004725234 
 4292000    504.86523   -118.71064   -847.81046     3759.281    366.33138   -272.31723 0.00051114559 0.00049049797 0.00047233989 
 4294000    410.11034   -117.64446   -2570.5863   -1870.5725    3666.6123    -515.3625 0.0005110872 0.00049077421 0.00047233117 
 4296000    469.96348    -117.1876    2039.7368    4615.1119    3193.6879    832.60198 0.00051106137 0.00049136259 0.00047242452 
 4298000    491.32049   -116.46257   -119.83372   -3171.3983   -3069.7672   -935.26549 0.00051092912 0.00049112629 0.00047217307 
 4300000     521.2161   -117.58208    1116.8931   -291.86637   -4162.7545    1357.4217 0.00051076727 0.00049094991 0.00047205168 
 4302000    514.41514    -118.5076    1265.4024   -4552.7913    1165.9935   -1786.9113 0.00051080209 0.00049067968 0.0004722264 
 4304000    541.26219   -117.61492   -2774.6664   -1857.5004   -1467.8627   -1753.3885 0.00051058887 0.00049087669 0.00047227651 
 4306000    508.35327   -117.92754    2041.2362   -2956.3708    1748.9666   -1583.7788 0.0005104724 0.00049082806 0.00047208368 
 4308000     494.7976   -117.89856   -2063.8862    809.92395    -3038.926    343.43407 0.00051025594 0.00049049313 0.00047267002 
 4310000    525.07136   -117.54046   -718.82475    1419.6112    3968.3881    399.62673 0.00051010961 0.00049026368 0.00047253197 
 4312000    446.68169   -117.14995     1943.927   -54.602643   -799.98646   -137.52401 0.00050987879 0.00048993261 0.00047232178 
 4314000    475.23792   -117.68174   -2164.5623    1945.2984   -2233.4013    3889.2382 0.00050978057 0.00048972654 0.00047234352 
 4316000    555.47047   -117.07496    1805.2968   -1642.5372   -1462.7637   -3866.2318 0.00050960282 0.00048980822 0.0004728018 
 4318000    490.30039    -118.3223   -3545.4599    1130.1944    -1493.966   -4629.5245 0.00050985809 0.00048995405 0.00047289642 
 4320000    456.85068   -118.01105   -428.53341    67.842711   -168.59493    72.365492 0.00050985853 0.00048976284 0.00047292695 
 4322000    461.44868   -116.31196   -582.44439   -2416.7946    782.38881   -581.10302 0.00050964833 0.00048955822 0.00047322886 
 4324000    527.29034   -117.51529   -1292.5806   -57.142841   -926.94764   -1484.8535 0.0005100054 0.00048928849 0.00047308631 
 4326000    486.98814   -116.63182    2239.1985   -3294.3877   -1977.8455   -3230.2906 0.00050987633 0.00048913013 0.00047295403 
 4328000    476.96293   -117.24635   -2298.6475   -1603.8135   -3994.1016    1656.4507 0.00050979622 0.00048896116 0.00047314312 
 4330000    482.94703   -118.24503    2250.1114    1108.9062   -164.25185    846.70316 0.0005097134 0.00048869764 0.00047295877 
 4332000    495.01176   -117.43097   -2450.6639    -3073.774   -4643.1486    -3203.703 0.0005095545 0.00048852179 0.00047266523 
 4334000    458.58087   -117.31916   -1654.3515    759.76815   -1103.8419   -85.015689 0.00050935413 0.00048834403 0.00047228715 
 4336000    452.81023   -117.63294     534.4177   -229.46515   -2861.7555    791.29051 0.00050918889 0.00048837673 0.00047237089 
 4338000    521.97819   -117.54508   -4777.1285    3125.3444   -1409.7945     6026.904 0.00050903332 0.00048819928 0.00047260214 
 4340000    493.94325   -117.58657    3873.5629   -3697.4794    2251.3563    -831.3883 0.00050878412 0.00048804068 0.00047276019 
 4342000    511.94272   -116.92223   -773.60222    5013.1802   -3702.8459    5089.1441 0.00050869366 0.00048831445 0.00047257143 
 4344000    420.51848    -117.8255   -588.86094    1269.2477    701.93764   -412.65385 0.00050863465 0.00048819955 0.00047238757 
 4346000    480.73149    -117.3767    3018.7654   -365.54882   -1769.0785    2721.3856 0.00050871468 0.00048789319 0.00047237332 
 4348000    461.45565   -117.99143   -5607.4701   -196.79128   -340.73726   -2311.9188 0.0005084469 0.00048833172 0.00047215474 
 4350000    482.75839    -118.3106    1815.7236   -3618.1575   -5347.8778   -1431.2809 0.00050834545 0.00048817038 0.00047195148 
 4352000    524.25178   -117.84958   -2813.3594   -996.38109   -554.79765   -28.848827 0.00050811434 0.0004891156 0.00047172085 
 4354000    534.67326   -117.81022   -2064.2636    3059.6959    1799.2663    746.27476 0.0005079198 0.00048910699 0.00047165452 
 4356000    532.30975   -117.44873    4286.9467   -1748.3121   -1441.1118   -439.35471 0.00050765187 0.00048892514 0.00047146647 
 4358000    473.63399   -116.38119   -4064.2701     3621.091   -2596.1593    3097.7866 0.00050869019 0.00048890224 0.00047143649 
 4360000    490.58611    -117.7181     4012.018   -2555.8158    2856.1209   -941.99844 0.00050866571 0.00048877024 0.00047111222 
 4362000    502.30771   -117.20548   -2056.0174   -2554.1389    3026.9163    -3113.212 0.00050850472 0.00048907276 0.00047094734 
 4364000    536.04851   -116.94832   -992.00204   -311.56818    772.08486    -1905.038 0.00050830324 0.00048954285 0.00047077788 
 4366000    485.46217   -118.45347    1347.7553   -2235.4241   -1832.3131    3236.5375 0.00050828675 0.00048972388 0.00047056578 
 4368000    605.11524    -117.7493   -5464.6151   -4526.7462   -14.940419   -4526.9942 0.00050834992 0.00048968792 0.00047040769 
 4370000    468.60449   -117.47508    2172.5254    2454.7471    -759.4553    1377.3741 0.00050864544 0.00049001677 0.00047080175 
 4372000    471.32291   -118.77115   -3124.3211    719.77511    285.55366   -329.84011 0.00050839911 0.0004899723 0.00047044286 
 4374000    490.10633   -116.79581    144.61623   -5419.4737    1187.9108    3770.2807 0.00050882913 0.00048988525 0.0004700752 
 4376000    523.60594   -117.37233    483.46395    2036.4364    1377.2551    1673.8478 0.00050869095 0.00048971876 0.00046979999 
 4378000    504.67256   -117.05393   -2453.6139    1903.9156    2637.8245    3492.7666 0.00050852458 0.00048952197 0.00046988242 
 4380000    509.35093   -118.55167    2043.5644    151.09786    262.76579   -1170.1348 0.00050924391 0.00048964711 0.0004695252 
 4382000    564.13394   -117.15445   -3378.7264    2.0264659   -2603.7962    3035.1754 0.00050896512 0.00048927709 0.00046930957 
 4384000    553.09931   -116.14533    3533.6615   -1180.9606    5008.8585   -628.42067 0.00050872322 0.00048910059 0.00046911116 
 4386000    492.41177   -118.26932    104.38712   -192.90776    3525.2402    1139.1216 0.00050867327 0.00048921564 0.00046883931 
 4388000    490.11715   -116.94191   -711.00904    947.43143   -41.567542   -3482.9398 0.00050844094 0.0004890069 0.00046853813 
 4390000    467.50105   -117.39333     2300.145    726.89729    1387.3251   -1437.1926 0.00050827354 0.00048923302 0.00046826777 
 4392000    480.63572   -117.35609   -5973.1773    3669.2817   -2809.3603    2312.2196 0.00050814356 0.00048903812 0.00046800713 
 4394000    495.77959   -116.65861    1012.5438   -3153.1949    6578.6269   -3585.2657 0.00050810704 0.00048881278 0.00046778307 
 4396000    483.42222   -118.26129   -4518.8558    754.47044   -935.07089    494.09646 0.00050790229 0.00048863848 0.00046763999 
 4398000    500.88349   -117.76831   -2158.2349    -979.4106   -56.583254   -3370.0744 0.00050772186 0.00048863065 0.00046735424 
 4400000    486.76754   -117.61071    2607.1218   -1470.0708    3431.1456    2091.1847 0.00050744283 0.00048908332  0.000468404 
 4402000    425.45916   -117.83662   -2673.4271    1886.1178    1086.3636   -1557.6924 0.00050720364 0.00048886869 0.00046825028 
 4404000    469.27493   -117.43627    4237.9384    1776.8195     3143.345   -1372.9331 0.00050701173 0.00048868729 0.00046816966 
 4406000    521.20863   -117.27907   -1341.5488   -501.60054    1868.8943   -1414.9663 0.00050681033 0.00048848263 0.00046807548 
 4408000    469.40466   -117.79498   -1091.0925   -2696.2677   -1905.8152    244.50555 0.0005077552 0.0004883558 0.00046821809 
 4410000    493.48071   -116.84358    676.05991    3454.6931     115.8503   -48.117963 0.00050822666 0.0004882474 0.00046795724 
 4412000    523.42835   -117.22797   -3206.3663    516.60891   -3291.9548    -4358.727 0.00050790864 0.00048822947  0.000468001 
 4414000    560.93409   -118.02303    3247.8498   -1121.8018   -1240.8144   -2572.1518 0.00050772455 0.00048800495 0.00046798112 
 4416000    525.36331   -117.79441   -3454.1798   -2017.9703   -1001.1771    239.01583 0.00050756549 0.00048775281 0.0004679694 
 4418000    479.17917   -117.92173    343.86437    2519.2892   -824.70234    2477.9344 0.00050745451 0.00048744662 0.00046767499 
 4420000      504.121   -118.27866   -2025.1063   -2745.7715    1263.5985   -276.40625 0.00050773059 0.00048714335 0.0004674251 
 4422000    505.87644   -117.08588   -3189.3163   -1280.7211   -1440.1096    640.68018 0.00050792927 0.00048695013 0.00046725079 
 4424000    532.62866   -117.89654    2214.5021    1776.9069   -753.56445   -3194.8297 0.00050773038 0.00048715925 0.0004670602 
 4426000    525.26043   -117.32869   -3072.9949   -680.26988   -474.23575   -1093.8804 0.00050753593 0.00048692241 0.00046681074 
 4428000    498.43986   -117.52478    3942.1464    290.22628   -2361.0647    923.95924 0.00050741093 0.00048662069 0.00046670639 
 4430000    502.35636   -117.92356   -798.33454   -3049.5698     4069.809    1916.3221 0.00050714063 0.00048664434 0.0004665106 
 4432000     500.9261   -117.21545   -413.90457   -1471.0099    1428.8666   -1151.8166 0.0005068651 0.00048650866 0.00046638486 
 4434000     506.4258   -118.48214    1069.5238   -878.80809   -5711.1623   -1708.3894 0.00050660865 0.00048640601 0.00046621979 
 4436000     460.9974   -117.71373   -5282.3807   -1396.7713    281.16446    530.86568 0.00050656859 0.00048643956 0.00046595207 
 4438000    506.82892   -116.67428    1457.2234   -658.91468    226.25459   -986.75487 0.00050656608 0.00048661174 0.00046580085 
 4440000    524.11565   -117.71149   -5179.2203    1633.8448   -1817.0543    3183.6141 0.00050760472 0.00048661656 0.00046568238 
 4442000    528.41001   -116.32019   -102.67801   -373.98373   -622.07263   -2948.2407 0.00050719238 0.00048777622 0.00046546859 
 4444000    482.62119   -116.60819    2413.6301   -4173.2116   -1293.9575   -809.57348 0.00050693622 0.00048701858 0.00046544825 
 4446000    513.79184   -116.87042   -1565.8365    3187.9777    676.52897    849.60542 0.00050670799 0.00048684414 0.00046553907 
 4448000    466.73162   -117.14186    4071.5684    2178.5279    3564.2528   -1833.4147 0.00050671436 0.00048652785 0.00046525122 
 4450000    566.24509   -117.26709   -1920.8559   -4121.2968   -6018.4918   -3596.4703 0.00050658393 0.00048654238 0.00046498887 
 4452000    434.03676    -117.5585    643.28384    3436.4952   -798.56642    1023.1989 0.00050736664 0.00048655093 0.00046484427 
 4454000    480.56723   -117.99268   -1196.3529    3083.2741    1796.1096    3011.8224 0.00050726018 0.00048715958 0.00046489666 
 4456000    431.11941   -115.49544   -3340.8249   -1460.1046   -1165.4404    2159.2633 0.00050687335 0.00048691051 0.00046465116 
 4458000    454.46866   -116.16558    1509.3805   -4567.7113   -1262.2084   -3540.3577 0.00050718011 0.00048682705 0.00046535383 
 4460000    490.89893   -118.14672   -3939.8762    2193.3996   -755.19974    1811.6028 0.00050706401 0.00048742897 0.00046555719 
 4462000    495.11108   -117.77001    337.19619    2017.4532    633.26086   -1343.4973 0.00050696617 0.00048730297 0.0004662362 
 4464000     470.8936   -117.81267   -576.70373    1963.9493    327.50316   -767.20906 0.00050676699 0.00048709815 0.00046682609 
 4466000    439.29357   -116.39159   -1548.8953    1141.9485   -2306.4831    364.85119 0.00050679053 0.00048707661 0.00046744578 
 4468000    573.99019   -116.31268    2153.0211    -3433.629    1240.9673    1505.5858 0.00050647444 0.00048699587 0.00046724424 
 4470000    478.10131   -117.83819    -3027.599   -5400.8658     369.3702    1658.3901 0.00050628144 0.0004867429 0.00046701399 
 4472000     452.6724   -115.70934    2442.6871   -1009.6336    2048.7854    870.52184 0.00050635137 0.00048667486 0.00046717868 
 4474000    533.90958   -117.84146   -403.61747    1069.6421    2260.6008   -1811.3205 0.00050619424 0.00048717837 0.00046713574 
 4476000    532.89423   -117.04658    -1173.698   -387.40083    -2210.096   -1937.2809 0.00050631819 0.0004869585 0.00046726348 
 4478000    493.54316   -117.20581    1294.7783   -648.91441   -2270.8667    3520.8533 0.00050621903 0.0004867863 0.00046711705 
 4480000    517.09717    -117.3894   -4948.3964     353.6729    -2741.924   -28.531598 0.00050601602 0.00048674403 0.00046692893 
 4482000    520.11357   -117.48413    821.78049    537.68629     3830.226   -3318.0676 0.00050602042 0.00048667174 0.00046662491 
 4484000    493.75703   -115.91569   -1938.5433    -2095.905    2007.4473    956.77489 0.00050587483 0.00048647617 0.00046639484 
 4486000    557.33098   -117.38886    297.96872   -887.25965    1566.5258    229.54411 0.00050554213 0.00048645009 0.00046634163 
 4488000    506.94067   -118.35849    3260.5933   -2616.1278   -1647.7269    340.66148 0.00050533425 0.00048633725 0.00046722986 
 4490000    487.01629   -117.88151   -2500.3753    324.12218   -5460.0215    3583.0399 0.00050512312 0.00048660464 0.00046698997 
 4492000    440.20913   -117.56494    3524.9477   -3241.3343   -681.10277   -4636.9639 0.00050488155 0.00048640856 0.00046697689 
 4494000    519.31749   -117.06873   -4272.6371    1389.6988    173.99805    4792.1679 0.00050474864 0.0004864219 0.00046672766 
 4496000    504.37676   -116.46398   -205.80495   -4294.9395    898.66832    4264.6244 0.00050457166 0.00048645247 0.00046657894 
 4498000    501.92244   -116.36016    120.62586   -129.83079    5650.2298   -724.47873 0.00050429569 0.00048622009 0.00046667037 
 4500000    577.12037   -117.95527   -2642.2346    2542.8491   -662.32948    1821.4645 0.00050426284 0.00048591282 0.00046672613 
 4502000    538.49554   -118.41152    3175.4534   -373.25357    1555.1406   -320.47195 0.00050411279 0.00048568434 0.00046661171 
 4504000    481.40039   -118.48968   -3977.4519    1810.6362    2050.2271   -3659.0919 0.00050445433 0.00048553727 0.00046643185 
 4506000    549.78989   -117.34848    2264.2328     801.1152    6584.5023    372.81981 0.00050513093 0.00048549497 0.00046629033 
 4508000    481.43471   -117.17398   -2088.4367   -4934.6802    3956.9708     1021.862 0.00050530342 0.0004853091 0.0004661156 
 4510000    503.66841   -117.56253   -1918.5704   -2901.6075    938.10812    1613.7685 0.00050526772 0.00048522769 0.00046620323 
 4512000    494.64767     -119.175    1418.6081    826.29337    5354.8202   -2595.5105 0.00050492221 0.00048512234 0.00046598908 
 4514000    575.16587    -117.9292   -3528.3936   -2149.7679    586.48047   -450.78654 0.00050539652 0.00048497943 0.00046577392 
 4516000    525.11488   -117.48927    4731.8507    192.47948    40.224977   -366.17826 0.0005050947 0.00048495236 0.00046584098 
 4518000    466.69883   -116.71408     -946.792   -1561.8618    4519.5641    1629.4738 0.00050496034 0.00048464086 0.00046566367 
 4520000    488.56212   -116.79648    172.18634   -3911.3298    477.05385    -39.92517 0.00050512758 0.00048440453 0.00046564233 
 4522000    441.29553   -117.31133    365.52652    3362.5048    1835.7069   -1256.3684 0.00050484923 0.00048416273 0.00046597626 
 4524000    537.23614   -118.63305   -6263.2806    295.02184    3263.5885   -640.35571 0.00050458686 0.00048397436 0.00046730077 
 4526000    467.70826   -117.20094    2468.5283   -1949.9476    343.38301   -2824.0365 0.00050608323 0.00048381367 0.00046765044 
 4528000    516.48821    -118.5188   -4689.8717   -1713.7605    217.59538    2218.7682 0.00050611812 0.00048388449  0.000467686 
 4530000    513.50039   -117.22628    133.84803   -2850.4426    6.0316387   -6294.2487 0.00050606682 0.00048401333 0.00046753738 
 4532000    493.60543   -116.56048    2252.9895    2846.8681    2555.9654   -1928.1135  0.000505834 0.00048362225 0.00046748121 
 4534000    483.63936   -117.75499   -3026.4156    349.89933   -3151.6766   -3706.7242 0.00050620049 0.00048356371 0.00046756527 
 4536000    531.19209   -118.85557    3542.6031   -127.34126   -484.42169   -388.73435 0.0005059879 0.00048345613 0.00046737291 
 4538000    489.85973   -117.32349   -4060.7238   -639.49289    48.188473   -3856.1361 0.00050586904 0.00048329688 0.00046746558 
 4540000    495.14487   -116.61585    2654.6683   -4507.7617   -678.16518    -2877.712 0.00050577128 0.00048335123 0.00046738323 
 4542000    458.63374    -117.6019   -810.61441   -4623.1566    507.03285   -389.86257 0.00050546628 0.00048374551 0.00046756384 
 4544000    460.34216   -117.37023   -3123.2517    -3064.931   -1925.7747    2020.1299 0.00050547878 0.00048365753 0.00046880529 
 4546000    506.92978    -117.3901    2869.1938    2403.1308    941.58517    3899.3309 0.00050569687 0.00048363222 0.0004681846 
 4548000     536.9662   -117.32903   -3582.9235   -147.47331   -1773.0791   -2103.5965 0.00050565159 0.00048361197 0.00046804044 
 4550000    492.48658   -119.20783     1904.676   -1656.4152   -1832.3099    1993.8318 0.00050556289 0.00048367127 0.00046830707 
 4552000     472.7711   -117.66867   -3553.0757   -1336.4406    63.125515   -562.76137 0.0005054854 0.00048402382 0.00046812086 
 4554000    504.15354   -117.99978   -908.55841    -1048.588   -3724.6688   -3090.3832 0.00050521094 0.0004838487 0.00046810773 
 4556000    489.85058   -117.40114    2081.9503   -429.72885    1378.1868   -1942.0548 0.0005051424 0.00048368852 0.00046809651 
 4558000    487.84303   -118.07252   -2905.6494    1105.1724    706.05432   -2832.6946 0.00050491389 0.00048363316 0.00046874771 
 4560000    508.07131   -117.46728    4611.5525    1209.3109   -1929.5364   -638.24671 0.00050466239 0.00048354572 0.00046848833 
 4562000    503.59583   -117.14271   -3947.8196   -24.034312   -3039.0767    725.12418 0.00050449982 0.00048340504 0.00046873774 
 4564000    530.41817   -117.84933     1137.942   -38.553701    1780.8874    -630.7208 0.00050453688 0.0004832121 0.00046909753 
 4566000    518.97722   -117.10972   -646.70326   -3375.3572   -3880.2802   -3351.1447 0.00050479613 0.00048308135 0.00046883665 
 4568000    537.94694   -119.09216   -4657.0554   -492.02371   -4044.7731    2128.4174 0.00050446266 0.00048293692 0.00046926366 
 4570000    551.80337   -117.43914    2393.8198   -4644.9816    -1065.694   -2073.6242 0.00050414177  0.000482681 0.00046951854 
 4572000     467.3698   -117.46451   -4626.8037    2423.0405    -1473.346   -1137.0252 0.00050390898 0.0004825148 0.00047004494 
 4574000    537.35761   -117.37665    3245.1679     2725.397   -2668.5233     2132.245 0.00050379764 0.00048245636 0.00047027796 
 4576000    482.34701   -117.54009    625.64117    773.67396    709.61763   -1073.0883 0.00050360385 0.00048216952  0.000470035 
 4578000    428.09198   -118.19378   -679.20806    1491.3859   -3238.5282     1927.212 0.00050344676 0.00048231099 0.00046989479 
 4580000     519.4438   -118.11291     3418.246   -2353.7109    2905.3995   -1327.4632 0.0005038663 0.0004820867 0.0004695931 
 4582000    519.50365   -116.73297   -4460.9419   -1187.0617    -573.2795   -4695.0851 0.00050507199 0.00048189425 0.00047017609 
 4584000    599.81917   -118.34108    2457.2069   -993.62121   -2044.0008   -2633.9568 0.0005049204 0.00048163715 0.00046994082 
 4586000    556.33983   -117.88721    -3928.998   -1834.7652   -3081.2412   -2119.1042 0.00050460905 0.00048151551 0.00046985128 
 4588000    474.41113   -118.17876   -929.71317    1039.9582    -1758.497    777.29762 0.00050444655 0.00048142698 0.00047008645 
 4590000    500.25493   -117.05889    1517.7372    3435.4921   -2309.2515   -3458.1417 0.00050491659 0.00048132079 0.00046993652 
 4592000    488.34457   -117.83271   -4269.9823    -888.3158     272.5016   -6392.2504 0.00050494549 0.00048126694 0.00046973749 
 4594000    576.17181   -118.14732    4732.2308   -1482.3508   -3239.2122    1805.1503 0.00050477547 0.00048108175 0.00046953936 
 4596000    467.47293   -118.01497   -3926.3822    1208.8808    3624.1107   -3726.5697 0.00050471765 0.00048081435 0.00046956791 
 4598000    559.19701     -117.997    364.38707    348.65981    1808.1028     32.84003 0.00050456902 0.00048063745 0.00046938103 
 4600000    456.82562   -116.85945    934.93156    1.4661061   -350.89121   -1034.7422 0.00050439968 0.00048057246 0.00046947998 
 4602000      497.929   -117.22437   -3923.4921    1025.8194    294.21051    3374.6504 0.00050427282 0.00048039897 0.00046936137 
 4604000    463.30314    -117.0596    3792.4103     1414.111    430.69743    -1448.439 0.00050404985 0.00048017879 0.0004698737 
 4606000    439.91024   -117.46454   -4101.4302    3923.2052    2473.0829    2247.5493 0.00050416009 0.0004799025 0.00046970211 
 4608000    478.30034    -117.9486    1450.8518    4985.3692   -805.39702   -138.26333 0.00050385189 0.00048012628 0.00046960877 
 4610000    449.01754   -117.65201   -1308.9309   -1986.2861   -3897.2495    -834.0027 0.00050362775 0.00048085376 0.00046944165 
 4612000    478.33655   -118.60964    -3575.728   -1505.3655    -3925.219    369.39482 0.00050338585 0.00048052909 0.00046922131 
 4614000    519.82031   -116.89222    3684.5858    1367.2256   -3145.7101     2641.748 0.00050309669 0.00048028015 0.00046917368 
 4616000    542.77323   -118.30863   -3888.1818   -823.96038   -741.32747   -3475.2604 0.00050283116 0.00048018912 0.0004690582 
 4618000    495.60819   -117.10526    3805.9226     348.3836   -1140.4542    3450.4273 0.00050265049 0.00047993829 0.00046912175 
 4620000    560.37695   -117.10149   -336.60621    2155.8182    2407.6187    760.32478 0.00050242325 0.00047976641 0.00047002066 
 4622000    493.52894   -117.49166   -2190.9675   -628.23353   -1372.6572     3586.952 0.00050220736 0.00047955006 0.00047047823 
 4624000    515.32315   -117.35179     2212.145     367.3476    792.04134   -696.17903 0.0005020511 0.00047940854 0.00047022966 
 4626000    453.80164   -117.44813   -4500.5761    926.33041    956.23951   -470.54774 0.0005018062 0.00047938661 0.00047019486 
 4628000    472.81172   -118.32327    1548.0982   -1570.3222    487.68021   -564.56951 0.00050168229 0.00047948444 0.00047009216 
 4630000    506.87627   -117.38312   -3436.4477   -738.15469    1539.9836    429.71975 0.00050203278 0.00048029851 0.00047014432 
 4632000    505.76882   -117.21391    67.508717   -4441.9382    1492.3543    393.69286 0.00050189668 0.00048167663 0.00047014554 
 4634000    516.71103    -117.6394    1796.1453   -4650.4099    2205.4034    1087.1112 0.00050186159 0.00048170815 0.00047061161 
 4636000    521.47367   -116.08146   -3395.3818    1737.6128   -4009.9292     309.5627 0.0005020114 0.00048144554 0.00047071125 
 4638000    489.58541   -117.49155    3419.3309   -3691.7516    1833.8752    1384.8386 0.00050204336 0.00048125176 0.00047052348 
 4640000    458.49585    -116.4781   -2130.8101    790.82689   -924.72421    623.77183 0.00050191148 0.00048121102 0.0004708856 
 4642000    491.35678   -117.41662    1370.2633    1025.1087   -1466.2906    322.20704 0.0005017638 0.00048090555 0.00047071852 
 4644000      470.757   -118.29215    487.93086   -2387.1468     322.3894    1896.9469 0.00050231135 0.0004807193 0.00047065791 
 4646000    505.84047   -117.83003    -2235.794    1261.7109    498.87741   -2330.6184 0.00050277119 0.00048071626 0.00047064731 
 4648000    416.92789   -118.00829    2198.9354   -348.14764    417.29261    2276.1187 0.00050283041 0.00048057973 0.00047056077 
 4650000    497.09712   -118.07805   -5609.3763   -2511.0718    3019.9007   -3825.8924 0.00050270864 0.0004803861 0.00047044907 
 4652000    470.09492   -117.91275    335.95786    1876.5728   -3619.4879    858.12002 0.00050248312 0.00048031243 0.00047024607 
 4654000    475.48684   -116.26785     -1784.49   -3013.5972    -1333.361    -860.6325 0.00050285142 0.00048023475 0.00047010776 
 4656000    515.99476   -116.66267   -2546.0004   -389.90252   -236.15761     1743.349  0.000502949 0.00048050789 0.00046991357 
 4658000    428.79971   -117.61355    3473.8658    442.53153   -776.85869    3715.2823 0.00050271038 0.00048111573 0.00046976751 
 4660000     485.7958   -117.90992   -4142.2151   -1899.3121    1554.3791    559.52776 0.00050245975 0.00048095671 0.00046984753 
 4662000    496.94519   -118.26181    3393.0926    5746.8962   -211.78358   -223.46911 0.00050235231 0.00048090926 0.0004696028 
 4664000    484.86549   -117.96234   -2273.8644   -3221.8641   -4773.4044    928.77505 0.00050222344 0.00048147405 0.00046929713 
 4666000    568.34693   -116.32899    548.99543    157.66203   -4933.5138   -3053.8218 0.00050210555 0.00048140716 0.00046928218 
 4668000     505.8382   -118.11538    1412.6836    3025.4304      910.285    432.83173 0.0005019612 0.00048124282 0.00046902482 
 4670000    570.60606    -118.4509   -4891.9423   -3372.6151   -458.80416   -1568.4705 0.00050216788 0.00048106706 0.00046925375 
 4672000    516.38529   -117.68498    2188.0732    4187.7204   -3926.8038     605.6416 0.0005021256 0.00048130371 0.00047084421 
 4674000    503.38557    -117.5917   -4903.2684    4348.9566    2406.1161    4366.2168 0.0005022002 0.00048092635 0.00047054553 
 4676000    487.86102   -116.81794    1163.5739    2331.3919   -5328.3954    760.92867 0.00050205637 0.00048085234 0.00047039784 
 4678000    619.32262   -116.55603    516.93817   -1498.9214    2042.2462   -2775.1796 0.00050186433 0.00048074543 0.00047109808 
 4680000    429.10159   -118.48232   -1698.2037   -2515.5791   -843.66526    1842.5442 0.00050156793 0.00048064765 0.00047088432 
 4682000    527.10687   -116.25587      3817.94    2288.5782     81.88474    1037.9197 0.00050186464 0.00048048498 0.00047065264 
 4684000    501.04329   -117.73484   -3876.7471    2217.1019    4598.2287   -1098.7141 0.00050257733 0.00048032301 0.00047027634 
 4686000    481.15468   -117.02343    2273.2663   -3378.0936   -4419.3072    1968.1001 0.0005027132 0.00048019882 0.00047010439 
 4688000    506.50166   -116.89566    -2241.625   -465.01482   -1345.9712    2415.4346 0.0005024732 0.00048003176 0.00046992897 
 4690000    539.01639   -116.23619   -1292.8641   -2746.3673   -2879.6685    2412.6126 0.00050224902 0.00047977654 0.00046979742 
 4692000    517.30111   -118.31079    1701.4305   -38.572224   -583.01114   -2647.9828 0.00050207862 0.00047956446 0.00046958433 
 4694000    487.70421   -117.71629   -3190.9967   -5061.9307    728.16299    3580.6167 0.00050177974 0.00047933537 0.00047015592 
 4696000    517.25159   -116.75252    3780.1118   -4360.2476    1275.3409    29.483234 0.00050199055 0.00047913996 0.00047070961 
 4698000    477.86903   -118.23231   -2817.0427    234.78064    1571.6337    149.05363 0.00050164495 0.00047960927 0.00047104269 
 4700000    491.55449   -117.20648    143.61649    1079.3413   -1339.9773    1882.6339 0.00050138361 0.00047963098 0.00047078327 
 4702000    451.39029   -117.57902    30.340606   -2512.7953    709.52298    5576.7735 0.00050127559 0.00047963833 0.00047061691 
 4704000    472.14908   -117.94877   -3430.9269   -1122.6133    1134.9131   -6424.1983 0.0005017675  0.000479544 0.00047047852 
 4706000    465.66473   -118.40981    2975.2159     1411.259     1950.206   -180.08156 0.00050255755 0.00048046953 0.00047040557 
 4708000    517.41517   -117.78944   -3301.5366   -639.24614    3993.1772   -1289.6842 0.00050219384 0.00048069933 0.00047047631 
 4710000    521.78863   -117.41008    3034.8932    4111.4123    2722.5918   -5332.1612 0.00050184007 0.0004813014 0.00047052255 
 4712000    506.72858   -117.55024   -100.03236     -3041.93     496.7658    3818.1451 0.00050180101 0.00048160737 0.0004710738 
 4714000    468.07181   -117.16133   -3323.7056   -510.03411    441.66349   -2389.5892 0.0005018611 0.0004813817 0.00047078749 
 4716000    452.43894   -117.40035    2177.0901    1678.9572   -2729.6167   -1066.8114 0.00050168633 0.00048120962 0.00047082122 
 4718000     491.5718   -116.69634   -5994.7188   -1263.0935   -1695.5306   -1274.7191 0.00050152867 0.00048112124 0.00047064803 
 4720000    489.62859   -116.47086    2956.4759   -21.935152    576.74053   -583.26259 0.00050193464 0.00048095753 0.00047034881 
 4722000    529.84202   -118.18102   -2637.3439    988.97086   -1125.0398   -829.68735 0.00050197745 0.00048094618 0.00047037313 
 4724000    496.22945   -118.57459   -2187.8578     -1114.35   -2430.1566    48.879138 0.00050160775 0.00048077949 0.00047012859 
 4726000    505.50966   -116.88987    4030.9877    719.47715     -1158.71   -1562.0777 0.00050143653 0.0004808482 0.00046995119 
 4728000    488.59939   -118.01998   -5413.1598    2867.1272   -226.78889    128.53916 0.00050123494 0.00048061163 0.00046990134 
 4730000     483.4289   -118.20404    5021.9244   -1748.7399    1812.0878   -4514.4509 0.00050132863 0.00048059063 0.00046975588 
 4732000    567.79982   -117.86881   -2204.6516    2043.9157    602.86914     109.4742  0.000501145 0.00048138855 0.00046950268 
 4734000    490.53891     -117.136    109.22244    4302.2878   -3827.3231   -3732.5694 0.00050106348 0.00048119142 0.00046932701 
 4736000    514.37417   -117.05949    1676.2254    360.68052    146.74731    416.47386 0.00050080794 0.00048101228 0.00046950639 
 4738000    557.31176   -117.41068   -5763.9144    426.75638    1451.4814    2634.7871 0.00050113483 0.00048114688 0.00046948268 
 4740000     560.7799    -117.4637    4138.7693   -386.86961    2034.7539     3247.821 0.00050067485 0.00048113646 0.00046942674 
 4742000    528.79262   -118.45046   -4788.8569    4313.5546    36.502065   -3406.2693 0.00050047946 0.00048087757 0.00046938577 
 4744000    483.27469   -117.56956    1811.9274    -710.5526   -586.12921    1371.2612 0.00050033179 0.00048073633 0.00046936245 
 4746000    513.91718   -118.16412     251.5985   -1079.4391     3226.345   -2295.9263 0.00050017259 0.00048067006 0.00046912436 
 4748000    532.71858   -117.07916   -2758.5365    4179.5927   -3531.6249    1556.0664 0.00050000714 0.0004804334 0.00046892757 
 4750000    438.62217   -117.85959    4099.1297   -248.04891      5.62899   -1378.7852 0.0004998572 0.00048023595 0.00046904176 
 4752000    420.20376    -118.6355    -5158.634    2163.5971   -1819.6301    628.45097 0.00049979286 0.00048008395 0.00046913184 
 4754000    498.12048   -116.55266    4020.1837    1519.0654   -3078.7728   -3551.3669 0.00049947885 0.00047984106 0.00046989401 
 4756000    517.22266   -116.73341    -2407.116    2148.8057   -7360.5637   -2834.4972 0.00049970654 0.00047966756 0.00046971496 
 4758000    462.64087   -118.13016   -1742.6517   -317.36131   -2494.4887    6020.7278 0.00049967554 0.00047945692 0.00046963602 
 4760000    482.04884   -117.48528    3539.8401   -69.769259    292.52469     128.6289 0.00049958307 0.00047936678 0.00046953061 
 4762000    494.68885   -118.01979    -7928.131   -1439.3506   -2272.8862    473.02613 0.00049948711 0.00047926788 0.00046935638 
 4764000    473.97923   -116.78293    3943.7403   -4700.5877    2892.8888     838.7429 0.00049895557 0.00047920916 0.00046910381 
 4766000    527.74212   -118.43226   -5265.0174   -1951.9723   -1615.0813    4234.6044 0.00049889303 0.00047910667 0.00046892943 
 4768000    504.29769     -117.888    -785.0621    657.62054    403.13784    -1184.209 0.00049868509 0.00047899022 0.00046881854 
 4770000    491.67739   -117.25684    3388.3191    3531.7353   -1742.2545     287.3762 0.00049852074 0.00047880255 0.00046860616 
 4772000    509.12512   -117.80059   -4958.2661    1452.0768     3633.269   -92.191575 0.00049845491 0.00047957063 0.0004686054 
 4774000    506.70056    -116.5029    6724.1198   -904.29918   -372.82847   -1429.7433 0.00049858682 0.00048000723 0.00046854556 
 4776000    545.68077   -117.74052   -4967.5463    3244.8427    1987.0712     3257.987 0.00049856792 0.00047972775 0.00046856892 
 4778000    530.61147   -117.81494   -405.63746    2455.7564    2896.7677   -1555.1319 0.00049857509 0.00047957742 0.00046841922 
 4780000    476.86002   -117.98881    219.37202    2891.4191   -154.11921   -1991.6615 0.00049896594 0.00047940022 0.00046836615 
 4782000    439.71995   -118.41651   -4679.0159   -897.56583    -2300.358    3959.7206 0.0004994655 0.00047915747 0.00046822213 
 4784000    500.95959   -116.51652     5374.891    -4843.267   -3072.4594    621.79529 0.00049941998 0.00047889139 0.00046823061 
 4786000     492.1359   -117.79113   -4324.8121    1573.7586   -2479.0992   -1480.4322 0.00049924983 0.00047902727 0.00046808935 
 4788000    467.30177   -117.62908    3526.3377   -3358.9968    795.38665   -5508.7547 0.00049944808 0.00047896407 0.0004679945 
 4790000    483.61618   -117.32772   -2741.3882   -3675.7049     2817.171    -2248.845 0.0004992681 0.00047875665 0.00046814249 
 4792000    484.41829   -117.93504   -4269.1073   -2726.4552   -2666.8202     335.1403 0.00049901184 0.00047908938 0.00046797985 
 4794000    533.56986   -117.86518    2299.7517    4233.1906   -614.95247    260.39304 0.00049879657 0.0004786291 0.00046858438 
 4796000    565.52406   -118.06795    -6082.754    298.15445    403.71155   -1231.4932 0.00049849874 0.00047838402 0.00046838777 
 4798000    574.19798   -116.76749    5713.3602    2251.5573   -175.54915   -958.63529 0.00049829337 0.00047830236 0.00046814852 
 4800000    530.06123   -116.88934   -1399.4833    3200.2902    778.16943   -1227.4136  0.000498748 0.00047813108 0.00046799453 
 4802000    472.61248   -117.19109    782.56598    563.45067     594.5393   -2934.4251 0.00049834133 0.0004779629 0.00046784863 
 4804000    531.88739   -117.89871     1929.008    1890.9494    1937.7494    989.59396 0.00049824674 0.00047777429 0.00046802877 
 4806000    479.24772   -118.35537   -7704.3079   -662.88579   -5357.3002     919.5055 0.00049813167 0.00047795977 0.00046810266 
 4808000    498.95305   -117.90521    3467.8973     801.8013   -2787.1658    7247.3864 0.00049820977 0.00047788217 0.00046786571 
 4810000    493.75026   -117.18306    -6441.067   -2176.5692    2249.9768   -481.12163 0.0004981495 0.00047764316 0.00046778764 
 4812000    488.63235   -118.12103    961.73468    821.02205    2215.3825    627.08577 0.00049802812 0.00047762202 0.00046757748 
 4814000    529.23466   -116.85868    2044.4889   -3322.6706    4554.1402   -6001.7814 0.00049791998 0.00047733708 0.00046738727 
 4816000    526.27206   -118.23416   -4872.2083   -3808.6236   -1859.6083    2156.8162 0.00049775917 0.00047752284 0.00046735079 
 4818000    473.97194   -117.31965    5498.7752    2094.5122   -384.89362   -2507.6098 0.00049782221 0.00047734228 0.00046734661 
 4820000    527.36064   -116.70682    -6415.447    1123.4896    2663.7079   -1405.3772 0.00049771231 0.00047711034 0.00046727059 
 4822000    430.75864   -117.69405    396.55944   -236.24019    2871.2239     81.79385 0.00049755436 0.00047703054  0.000467107 
 4824000    440.65733   -117.32135   -1899.5003    344.15372   -11.616004   -1750.8936 0.00049768236 0.00047690652 0.00046757971 
 4826000    474.46342   -117.80968   -3190.8092    1826.3272   -2751.6472    1106.3194 0.00049765277 0.00047700166 0.0004675119 
 4828000    487.06628   -116.23456    5940.4777   -1734.0212    2555.2145   -64.109784 0.00049763066 0.00047706135 0.00046839976 
 4830000    518.98423   -117.17174   -3523.2826    3271.2897   -558.73281    792.78849 0.00049755164 0.00047766447 0.00046913696 
 4832000    490.88831   -116.70683    4530.3098   -3980.9025   -169.52063   -1290.2268 0.00049774799 0.00047794651 0.00046936384 
 4834000    518.65543   -117.23681   -3977.9951    2400.1956    -1536.567    1800.7637 0.00049786635 0.0004777893 0.00046944185 
 4836000     458.3866   -117.81159   -3894.6934    2401.9418   -2956.0015   -2117.5694 0.00049770093 0.00047769429 0.00046933584 
 4838000    526.01753   -117.18955    1156.1799    2031.1871   -5370.4665    3019.3572 0.00049750475 0.00047771584 0.00046928376 
 4840000    468.01437    -118.3666   -6139.5608   -1909.6091   -3266.4517   -1486.5476 0.00049764908 0.0004779391 0.0004691319 
 4842000    445.59767   -117.08002    6182.5583    202.44094   -3837.4858    427.26272 0.00049785196 0.00047778524 0.00046890737 
 4844000    492.53024   -116.94796   -2241.5856    609.62743   -6673.0464    81.779004 0.00049809822 0.00047761267 0.00046869971 
 4846000    513.09159   -118.78547    1488.4833    3084.0461   -1234.7954    1811.1351 0.00049822532 0.00047766339 0.00046850906 
 4848000    504.12095   -116.92488    2111.8659   -143.78729   -1514.2776   -2301.7874 0.00049809859 0.00047777817 0.00046829183 
 4850000    493.23967   -116.66868   -6061.1101    362.88393   -1475.0911   -313.30182 0.00049791852 0.00047754043 0.00046809467 
 4852000    497.46414   -117.78388    2538.5846    1696.2041    387.86034   -2495.5514 0.00049771817 0.0004779875 0.00046792447 
 4854000    513.39724   -117.87866   -5212.2377     -3532.57   -2024.9655    1174.5267 0.00049764071 0.00047786659 0.00046776763 
 4856000    469.28108   -116.90691     4477.444    4941.3689    714.41266     -3517.81 0.00049747839 0.00047771501 0.0004676211 
 4858000    519.55557   -118.24106    1235.5879    2941.8586    1305.2253   -103.78454 0.00049772829 0.00047753472 0.00046806236 
 4860000    471.48852   -117.27299   -980.21187   -1351.0718    264.68467    90.822076 0.00049865949 0.00047734593 0.00046798069 
 4862000    463.09451   -117.42116    3014.7552    2124.9471    1438.4435   -1091.7538 0.00049846222 0.00047741048 0.00046825511 
 4864000    526.04725    -117.5213   -7533.3017    1979.6935     498.9253   -6219.9499 0.00049816883 0.00047714794 0.0004686869 
 4866000    494.09243   -117.42775     1326.294   -2089.2777   -1927.3341    1893.6312 0.00049843191 0.00047708616 0.00046860951 
 4868000    474.55955   -116.97909   -3841.6054   -249.98268   -1094.6039   -1351.6484 0.00049810375 0.0004768756 0.00046855339 
 4870000    447.68857   -117.71388   -537.15289   -1897.3271    1819.1226   -1184.2224 0.00049817367 0.00047673139 0.00046916164 
 4872000      493.017   -117.44593    4407.5763    2995.6756   -49.349546     4275.406 0.00049803964 0.00047653105 0.0004690069 
 4874000      498.801   -118.26166   -3652.2878    -1841.601   -4151.4163    2105.9957 0.00049813819 0.00047685035 0.00046909412 
 4876000    482.72217   -117.68055    5561.7934    775.92966    3060.7142     66.91728 0.00049812955 0.00047670581 0.00046879133 
 4878000    462.24241   -117.37735   -4872.7619    4961.7635   -2360.9245    1609.6276 0.00049778669 0.00047656954 0.00046865344 
 4880000    510.17665   -116.69007    641.24937    1504.6734    2296.2695   -200.64901 0.00049866506 0.00047652809 0.00046848657 
 4882000    462.81318   -117.01928    364.34348   -2838.4461    405.51161   -3120.7503 0.00049852541 0.00047655312 0.00046829332 
 4884000    508.64932   -117.27781   -5118.0339   -5127.0921    3911.9725    1132.1897 0.0004984684 0.0004767205 0.00046809675 
 4886000    518.56312   -117.04145    4625.6385    2434.7317    250.55824   -1194.7836 0.00049814532 0.00047839219 0.00046792705 
 4888000    526.35903   -117.27384   -4873.4418   -5830.6558    1314.6216   -1262.4483 0.00049812652 0.00047775563 0.00046808008 
 4890000    534.91795   -115.53051    3407.3167    449.51814    410.94644    1075.9057 0.00049793639 0.00047761399 0.00046908986 
 4892000    481.22701   -116.32157   -2389.9656   -3028.9079   -2169.8804   -981.87801 0.00049837189 0.00047827007 0.00046993597 
 4894000    460.00773   -117.05985   -3514.7566    4150.3948   -1533.7092   -1732.1696 0.00049835153 0.00047823537 0.00046974814 
 4896000    538.88021   -117.57948    3022.8609   -3305.1882   -2957.6235    2227.9507 0.00049822372 0.0004780462 0.00046958464 
 4898000    534.09676   -117.37531   -4579.9635    1785.2643    1765.0696    1585.5964 0.00049835244 0.00047777602 0.00046941301 
 4900000    478.39308   -117.22583    6387.6876    3803.3412   -93.277097     -214.701 0.00049820777 0.00047780236 0.00046923393 
 4902000    546.78324   -118.18367   -71.277899   -962.12495    630.82993    -3951.099 0.00049828928 0.00047806035 0.00046905911 
 4904000    494.52331   -118.29622   -140.20909   -1248.8834    1527.6996    1421.2999 0.00049814116 0.00047829563 0.00046899613 
 4906000    483.79199   -117.90951    783.00947    -4268.013   -38.784109    3566.7397 0.00049821348 0.00047845607 0.00046883356 
 4908000    485.90234   -116.92865   -7483.3233   -2445.0895    2551.0851    1142.4819 0.00049832079 0.00047822135 0.00046931237 
 4910000    388.27189   -116.52985    595.64402   -80.148605    294.35228    3546.8731 0.00049901993 0.00047853951 0.00046909459 
 4912000     443.9019    -117.1584   -6050.4199   -1138.4209    1488.9432    2539.1377 0.00049903426 0.00047936641 0.00046888959 
 4914000     565.6467   -115.53997    2333.4295   -1805.2025   -293.27223    227.57096 0.00049877041 0.00047987247 0.00046874708 
 4916000     527.3038   -118.07924    3563.2675    2472.8944    1751.2658    1274.2928 0.00049861212 0.00048010656 0.00046883422 
 4918000    497.41928   -116.47179   -2454.0235   -589.60985    2791.8034    2723.2326 0.00049833321 0.00047999859 0.00046880657 
 4920000    530.22437    -118.7186     5011.858    127.30598   -808.85841    1397.2183 0.00049812387 0.00048008902 0.00046847194 
 4922000    503.09079   -116.57827   -5439.9452    -2105.313   -511.54625   -2693.3861 0.00049809787 0.00047968844 0.00046833782 
 4924000    480.99123   -117.54064     179.5591   -4574.1516   -836.61048   -2734.0905 0.00049797285 0.00047972361 0.00046814318 
 4926000    505.67976    -118.0069   -1774.1149    2876.7773   -3823.8432   -3197.4256 0.00049776556 0.00047946711 0.00046787584 
 4928000    451.48734   -117.45054   -3819.4247   -2825.1111   -3985.0154    1477.7284 0.00049753798 0.00047924433 0.00046773955 
 4930000    480.75923   -115.98325    5313.4584   -629.47729   -230.36547   -2055.9373 0.00049727871 0.00047975849 0.00046788935 
 4932000    461.39497   -118.08241   -4083.4936    958.83485     983.8819    374.17279 0.00049700207 0.00048078064 0.00046774781 
 4934000    508.46499   -119.81826    1183.9305    1937.0732   -1291.2713   -597.94159 0.00049717719 0.00048131382 0.00046848363 
 4936000    516.38803   -117.61635    -4331.936    176.57369    975.55257   -824.73767 0.00049707143 0.00048117547 0.00046882916 
 4938000    500.20675   -118.08605   -2921.9373     851.7756    515.81351    5088.3806 0.00049703944 0.00048099597 0.00046858266 
 4940000    529.05264   -117.96525    2298.8512    3261.0185    302.21894   -1249.8606 0.00049725489 0.00048076154 0.00046849158 
 4942000    522.29684   -117.43843   -4023.6146    10.546075   -2387.2468    697.90924 0.00049703125 0.00048086963 0.00046831904 
 4944000    510.80445   -117.60281    8389.6266     3146.074   -429.61648   -3769.0408 0.00049693068 0.00048089094 0.00046832078 
 4946000     485.4309   -117.47003   -2563.4847   -738.25005   -4196.5507    2409.7118 0.00049696535 0.00048081169 0.0004710024 
 4948000    503.21888   -116.67426    2985.5145     1855.115   -2768.9396   -1677.0038 0.00049688314 0.00048060529 0.00047177831 
 4950000    429.91737   -118.04344   -160.32017   -1715.0003    1889.8025   -1498.3134 0.00049666525 0.00048045189 0.00047207964 
 4952000    500.20773   -116.47502   -8473.0181   -1443.6524   -3624.3427   -636.78548 0.00049669378 0.00048030881 0.00047222733 
 4954000     482.6884   -116.74391     3798.715    2149.4298   -2264.9415    1765.5809 0.00049681975 0.00048019897 0.0004720376 
 4956000     516.1995    -117.8762   -7517.0878    -4624.985   -2980.3174    2163.2962 0.00049692123 0.00047994133 0.00047238818 
 4958000    543.21487   -117.99734    2406.1073    3306.0703   -832.07636    2734.9211 0.00049683717 0.00047966468 0.00047215445 
 4960000    480.76196    -118.1269     1279.485   -1624.7313   -4078.2584   -2807.8507 0.00049681578 0.00047955797 0.00047225797 
 4962000    530.29559   -117.78626    -3743.674   -1798.0777   -14.297917    4013.7752 0.00049662431 0.00047962897 0.00047226285 
 4964000    477.67708   -117.80296    7584.7332   -1543.6292    3628.1965   -5205.5543 0.00049659444 0.00047939587 0.0004721736 
 4966000    491.99269   -117.52542   -5591.5114    578.95873   -1496.3703    1127.3953 0.00049671151 0.00047925799 0.00047199256 
 4968000    516.13991   -117.55517    4196.4334   -1996.2295    3236.5558   -3454.2065 0.00049646993 0.00047910073 0.00047209078 
 4970000    528.73006   -117.52825   -1177.9238   -55.313895    189.05525    860.75738 0.00049626894 0.00047909023 0.00047247746 
 4972000    436.22434   -117.84857   -3803.8843   -3791.5075   -1274.2695    1902.2192 0.00049620208 0.00047897719 0.00047226665 
 4974000    476.87317   -117.02692    4596.1415     21.31501    2081.9295    -1270.263 0.00049675031 0.00047886222 0.00047221197 
 4976000    504.63861    -117.2613   -7224.0326   -3577.3734   -3199.4836   -2157.1511 0.00049670529 0.00047864424 0.00047236038 
 4978000    517.55418    -116.8884    3570.8827    1809.9696   -820.97481     -853.441 0.00049648611 0.00047850907  0.000472157 
 4980000    484.83189   -118.12507   -5777.3298     3260.562    3797.7351    3234.7699 0.00049616448 0.00047850872 0.00047200893 
 4982000    478.15927   -118.24451   -2477.3657    2232.2592    1524.9946    5116.9209 0.0004959363 0.00047830295 0.00047179291 
 4984000     485.4507   -116.53783    2949.7642   -34.835531   -1469.9954   -1621.6524 0.00049587105 0.00047812895 0.00047165724 
 4986000    447.61401   -117.13827   -5141.8969    278.41862   -1791.5646    -1354.372 0.00049590316 0.00047846702 0.0004715459 
 4988000    506.96415   -117.95706    8977.8526    -2687.163   -156.64074      2906.42 0.00049595229 0.00047936032 0.00047146818 
 4990000    505.72586   -118.15275   -4407.8926    94.234761    241.54663   -1052.8584 0.00049579612 0.00048061701 0.00047138361 
 4992000    485.05583   -116.57925    2930.0719   -2777.6483   -1036.2156    905.87188  0.000495555 0.00048041104 0.00047143338 
 4994000    516.10508   -117.96251   -6.2917916   -1638.5305     89.12312   -632.73396 0.00049573795 0.00048023767 0.00047206965 
 4996000     479.0963   -116.79292   -7926.9989     51.50596    2913.1685   -3126.9385 0.00049603908 0.00048058136 0.00047188472 
 4998000    462.70829   -117.53579    4779.7085   -2084.0805   -2101.7217   -306.87201 0.00049612295 0.00048079828 0.00047198232 
 5000000    536.54089   -117.03767   -9222.8806    239.70756    1987.3775   -4614.7604 0.00049611787 0.00048075184 0.00047198283 
 5002000    498.50388   -116.17498    4550.3698   -3994.9582   -265.23995   -535.20521 0.00049585686 0.0004806491 0.00047268679 
 5004000    412.90449   -115.95308    195.83107   -1105.9365    1701.4101    5754.3998 0.00049553315 0.00048046496 0.00047269647 
 5006000    484.64974   -117.14057   -3563.1949    -2045.475    672.05737   -1538.1371 0.00049531277 0.00048038266 0.00047265816 
 5008000    460.03016   -118.21586    6327.7511   -473.57427    932.00912    1724.1832 0.00049513656 0.00048087236 0.00047258295 
 5010000    460.75868    -117.8108   -6084.7563    1248.7975   -143.30231    1929.6004 0.00049486504 0.00048166912 0.00047238241 
 5012000    468.80835   -117.81408    6017.9743    157.59745    2962.6029    1979.7251 0.00049462836 0.00048154823 0.00047219109 
 5014000    455.49809   -116.97157   -3028.3237    61.664019   -2367.6627   -43.914054 0.00049479804 0.00048149452 0.00047192201 
 5016000    488.39104   -118.02477   -485.80595   -854.10232    1135.5102   -1005.4188 0.00049460057 0.00048177087 0.00047185922 
 5018000    486.29621   -117.41333    902.28369   -269.79008    1132.0463   -69.388541 0.00049430119 0.0004815488 0.00047184068 
 5020000    520.91106   -115.41347   -7763.5587   -3922.9868   -773.84462   -2186.8205 0.00049423152 0.00048142353 0.00047174524 
 5022000    440.83308   -117.83983    3926.8506   -823.77579     -738.447    476.50309 0.00049494936 0.00048144543 0.00047261144 
 5024000    516.92106   -116.42018   -8262.1703    1410.1555   -1240.1188     1341.557 0.00049586387 0.00048104877 0.00047227966 
 5026000    451.48252   -117.96229    2214.1286   -1203.9855    2487.2065   -2067.4028 0.00049632462 0.00048091274 0.00047194793 
 5028000    506.85596   -117.45786    1531.6817   -70.121386   -933.13252   -873.81347 0.00049639601 0.00048085559 0.0004717856 
 5030000    458.71455   -117.19397   -3478.5699    -1085.881   -116.69252   -735.80794 0.00049666006 0.00048076867 0.00047202581 
 5032000    484.14263   -118.25679    7904.0599    1440.7464   -1330.5348    2586.4495 0.00049720105 0.00048062438 0.00047211198 
 5034000    510.53107   -117.57641   -7707.8617    1049.0675   -758.77544    878.75748 0.00049708309 0.00048026435 0.0004719297 
 5036000     409.0918    -117.7851    3734.6681   -292.41073    562.95005   -3504.3944 0.00049687211 0.00048025246 0.00047174951 
 5038000    426.44081   -117.50934   -3559.9957   -375.01493   -1253.2132   -1909.6147 0.00049740375 0.0004802278 0.00047158144 
 5040000    560.26932   -117.70464   -5205.9786   -2468.3117   -2486.2577     3265.299 0.00049914513 0.00048001661 0.00047149394 
 5042000    524.35823   -118.08611    5482.2559   -2656.8523   -1907.7009    1350.0948 0.00049948292 0.00047982408 0.0004711219 
 5044000    496.43192   -117.64591   -7856.9543     1361.316   -3507.7693   -135.24443 0.00049925132 0.00047980991 0.0004711052 
 5046000    462.52275   -117.23146    7855.6628    3302.9328  -0.60773806    4717.0478 0.00049919471 0.00047997512 0.00047102298 
 5048000    508.23578   -116.94279   -2698.2118    506.57816   -851.27276    2053.7064 0.00049887713 0.00047999555 0.00047108605 
 5050000    505.84904   -116.67423    624.05036   -190.22229   -2192.5137    2479.8271 0.00049875485 0.00047987524 0.00047105818 
 5052000    588.29926   -116.66543     4301.437    1043.9354    4965.2173   -4054.3544 0.00049849785 0.0004803164 0.00047099848 
 5054000    519.38835   -116.21559   -7825.5674   -3143.1579    5354.4561    847.28998 0.00049871045 0.00048040629 0.0004709033 
 5056000    514.73177   -117.72333    5436.8154    505.75742   -1899.4278   -1434.3593  0.000499092 0.00048019354 0.00047101264 
 5058000    496.39767   -118.47634   -6241.5247    1150.6773   -1507.1424   -1224.5587 0.00049885735 0.00048107811 0.00047137479 
 5060000    489.52587   -117.83501    1519.9034   -3022.5268    922.27355   -3114.4019 0.00049864951 0.00048117329 0.00047125717 
 5062000    513.28698   -116.84731    -134.4056   -1573.7981    838.07642    2085.6236 0.00049843622 0.00048113151 0.00047140434 
 5064000     448.4005   -117.66363   -7163.5101   -1046.5965    1173.7948   -2834.2319 0.00049839492 0.00048095851 0.00047120568 
 5066000    509.53312   -117.62025    5236.5111   -2121.9659   -1800.3584    4080.3541 0.00049822646 0.00048082737 0.00047095886 
 5068000    477.86007   -117.51526   -6221.8032    271.34404     4450.656    92.356589 0.0004983515 0.00048115031 0.00047067501 
 5070000    480.59989   -117.23254    5567.1178    3444.6337   -1625.0074    -1049.851 0.00049880314 0.00048127698 0.00047045908 
 5072000    524.97093   -118.59848    1006.1889    2829.3037    281.47358    15.910154 0.00049989595 0.00048104499 0.00047021168 
 5074000    434.31346   -117.74149   -1706.2515    -5773.624    713.24157   -691.76055 0.0004994666 0.0004809714 0.00047019469 
 5076000    468.47761   -118.80321    3562.1658    708.91339   -163.86529    873.12402 0.00049928364 0.0004808295 0.00046995395 
 5078000    472.38393   -118.13946   -8804.7102    1777.5753    2934.8518   -2621.2889 0.00049915705 0.00048068782 0.00046974054 
 5080000    457.67034   -118.65155    3859.4326   -2046.3819     7296.135   -857.71353 0.00049898159 0.00048041012 0.00046959093 
 5082000    486.20734   -117.01927   -3039.7332    3690.7837    1372.7105    1020.8617 0.00049896809 0.00048034267 0.00046951931 
 5084000    516.99232   -117.39268    65.718741   -1156.2209     2205.443    2577.9062 0.00049889207 0.00048171103 0.00046965042 
 5086000    454.90372   -118.47017     3528.399    406.22946   -777.56433    384.58427 0.00049884086 0.00048230067 0.0004694848 
 5088000    516.08137   -117.45706   -4968.0689    1493.6077     2856.074    363.14278 0.00049868205 0.00048242576 0.00046961117 
 5090000     441.0921    -118.6138    4030.6172   -3308.3102    2545.5886    665.42736 0.00049851933 0.00048216801 0.00046942304 
 5092000    456.67522   -117.69828     -4653.82   -3229.5937    2340.0567   -2833.9113 0.00049824173 0.00048202648 0.00046960483 
 5094000    540.74373   -117.50243   -614.12562   -2988.8932    1649.7448      174.504 0.00049798446 0.00048201544 0.0004696757 
 5096000    509.53528   -117.91309    2664.9172   -2516.0797   -7142.2855   -1141.9676 0.00049809501 0.00048210076 0.00047002839 
 5098000    506.68555   -116.55988   -4732.1319     5591.874   -1402.0331    1681.6533 0.00049778129 0.00048189062 0.00046992683 
 5100000    490.86628   -115.90544    6854.3374    144.56069    -2623.229    134.28581 0.00049787235 0.00048171442 0.00047040624 
 5102000    529.88668   -117.00554   -6172.5252    3441.3337     3384.522   -1403.5839 0.00049780219 0.00048159438 0.00047046015 
 5104000    543.48605   -117.58983    1138.3835    3198.1404   -493.99754    386.39681 0.00049765877 0.00048141823 0.00047103769 
 5106000    519.97648    -116.9364   -1968.8059    1705.7825   -2007.8397   -1077.1221 0.00049776961 0.00048142644 0.00047067815 
 5108000    492.73936    -118.1897   -4394.8549    2322.2933    1254.1369   -232.91931 0.00049758921 0.00048136076 0.00047056702 
 5110000     480.9852   -116.91992    6970.0429   -1287.9211   -1570.1004   -2619.9029 0.00049744736 0.00048113892 0.00047099006 
 5112000    466.55625   -117.30268   -4648.6368   -643.18075    -3646.735    572.37301 0.00049726182 0.00048096756 0.00047076027 
 5114000    497.16887   -117.28592     6281.976    3771.1412   -995.65644   -545.48898 0.00049701113 0.00048072075 0.00047072102 
 5116000    512.79319   -116.88482   -2561.2535   -2782.9297   -582.01354   -1351.8385 0.00049671333 0.00048050607 0.00047072602 
 5118000    514.92953   -118.73837   -3011.8797    5927.9906    2044.4616    586.79803 0.00049659991 0.00048027498 0.00047057259 
 5120000    500.13008   -118.42969    1324.0923    1865.8327   -266.29769   -1562.4732 0.00049649699 0.00048008261 0.00047062811 
 5122000    469.27054    -117.7709   -6982.3505    1341.7676   -2519.8839    1381.6346 0.00049625188 0.00047987665 0.00047072631 
 5124000    539.40266   -117.00573    5555.3846   -159.88158    3035.2994   -1693.5342 0.00049618598 0.00047997208 0.00047050369 
 5126000    516.25098   -117.42686   -3536.3619    -1869.457   -1478.0347   -1616.7838 0.00049608285 0.00047973274 0.00047089143 
 5128000    495.85364   -117.04213    1817.5738   -1891.0494    1085.7334    3566.5871 0.00049595544 0.00048101525 0.00047113144 
 5130000    489.82765   -117.26573    2533.1658   -2563.7763    -2838.586    1046.9653 0.00049614839 0.00048095244 0.00047103508 
 5132000     494.1783   -116.48348   -5175.5938   -3065.3143   -2278.7235    950.87106 0.00049587289 0.00048106133 0.00047092965 
 5134000    456.85345   -117.47661    4199.0314   -98.188705   -2459.6112   -3721.4185 0.00049560971 0.00048167749 0.0004717161 
 5136000    451.74749    -118.2941   -4576.4504    633.87375    1521.2677    836.87929 0.00049544693 0.00048139603 0.00047162627 
 5138000    520.43754   -117.58375    2780.6631   -1858.8831   -1317.4063   -278.66321 0.00049534955 0.00048126068 0.00047153809 
 5140000    514.46591   -118.23314     1050.629   -1808.6573   -8.3807125    4514.1703 0.00049528793 0.00048116981 0.00047158693 
 5142000    522.53202   -117.68643   -2972.2079   -3207.0891   -834.37762   -847.69199 0.00049508427 0.00048086264 0.00047142011 
 5144000    488.30329    -117.8947    2491.4099   -847.99239    538.06558    325.28574 0.00049513292 0.00048074058 0.00047112515 
 5146000    501.48055   -116.24231    -6779.095   -3715.8166    4501.3395   -6093.8273 0.00049487072 0.00048081516 0.00047093257 
 5148000    534.50114   -117.33646    1645.0007     4813.406   -59.616077   -446.08931 0.00049459478 0.00048082067 0.00047124237 
 5150000    484.46734   -117.15327    -673.8004    1407.5996    -2179.341   -1296.8556 0.00049492074 0.00048057358 0.00047103519 
 5152000    466.79559   -117.88229   -2026.6636    679.56366    668.66323    2037.0549 0.00049494725 0.0004803384 0.00047098608 
 5154000    552.84868   -117.92084    5653.7252    1706.3726    837.07935   -1686.0251 0.00049484527 0.00048055719 0.00047068516 
 5156000    493.16133   -118.61421   -5959.7994    182.76514   -3230.9821   -722.44905 0.00049465559 0.00048060811 0.0004710087 
 5158000    468.75789   -118.05435    4501.5405    853.18826   -1526.0809   -4032.5462 0.00049491175 0.00048034946 0.00047090889 
 5160000    522.84598   -117.51102   -3291.5484    1868.5066   -1402.9707   -2721.3971 0.00049485861 0.00048032426 0.00047096823 
 5162000    521.48139   -116.69201   -2057.5223   -834.52689    1360.4753    2504.4019 0.00049470832 0.00048032107 0.0004708041 
 5164000    455.45094    -117.1503    3143.8394    3382.2644    1319.6354    2959.0356 0.00049529054 0.00048127006 0.00047061133 
 5166000    496.61585    -117.8271   -6536.8078   -243.23491    478.97096    1839.4439 0.00049515812 0.00048095557 0.00047069844 
 5168000    541.50039   -117.83374    6604.8914   -3052.3537   -5481.2394   -1700.9911 0.00049485529 0.00048115834 0.00047061847 
 5170000    543.65952    -116.5046   -4730.7244   -1766.2962   -333.77969   -295.29899 0.00049460671 0.00048103729 0.00047144455 
 5172000    524.99859   -118.29487    1943.8331   -282.04895   -2074.9502    670.24186   0.00049446 0.00048094771 0.00047125253 
 5174000    478.25766   -117.69524     405.6808    2481.2232    4485.5115   -221.98627 0.00049460555 0.0004811061 0.00047113821 
 5176000    511.84096    -116.6876   -4589.1785    1028.5382   -4526.9037    292.75594 0.00049486482 0.00048080808 0.00047121561 
 5178000    528.66708   -116.82196    4839.4467   -964.40062    1783.0264    1697.7267 0.00049465766 0.00048061543 0.00047207617 
 5180000    448.64553    -118.1548   -5764.4245   -153.09807    2882.5491   -3758.3989 0.0004952444 0.00048042598 0.00047199869 
 5182000    489.49871   -117.19066     2528.053   -503.14688   -878.01513    3600.9624 0.00049520812 0.00048016221 0.00047212171 
 5184000    486.74498   -117.66548   -978.21225    3864.3038   -3632.5938    918.46145 0.00049504908 0.00048005896 0.00047239737 
 5186000    501.46176   -118.39251   -3844.1882    -2789.088   -142.75027   -1002.0215 0.00049489738 0.00047993119 0.00047218229 
 5188000    509.68578   -117.34078    4571.0266    1049.9763    5273.3619    2636.9593 0.0004946557 0.00047977061 0.00047215088 
 5190000    487.52923   -116.57985   -6165.1298   -23.674565   -5508.2996    325.12381 0.00049447977 0.00047968889 0.00047216196 
 5192000    466.67707   -117.51673    3197.3146    -3590.444     173.1143    738.91376 0.00049428032 0.00047974986 0.00047198642 
 5194000    495.28556   -117.93848   -2612.7338    1609.6814    1923.1232   -1498.8154 0.00049406723 0.00047951228 0.00047202749 
 5196000    523.13503   -118.18411   -372.00687   -3545.3327   -967.69384   -1955.1643 0.00049390734 0.00047943033 0.00047268905 
 5198000    442.66439   -117.28316    3993.8433     51.34725   -27.899051   -2274.9497 0.00049384026 0.00047924768 0.00047221742 
 5200000    477.07968   -117.42206    -5004.984     49.22269    861.49137   -221.10492 0.00049364032 0.00047923119 0.00047212444 
 5202000    484.20556   -117.77927    4708.1406    2139.2065    3737.1312    2055.2364 0.00049348874 0.00047907663 0.00047194755 
 5204000    526.72981   -117.61864    -4525.613    2601.8327      2065.03    529.57309 0.00049332436 0.00047931448 0.00047172382 
 5206000    450.63396   -118.27862   -1310.6147   -6999.6841   -2775.8478   -3995.0359 0.00049361402 0.00047909864 0.00047163328 
 5208000    463.88583   -117.31344    641.09256   -1111.0887    1434.3836    929.83049 0.00049404748 0.00047891173 0.00047151526 
 5210000    468.64425   -118.22654   -7491.8532   -437.62334   -3477.5629   -628.27719 0.00049455171 0.00047889597 0.00047150874 
 5212000     524.2591   -118.25786    3988.0673    3345.2059   -415.69221    3245.0124 0.00049525705 0.00047910765 0.0004715873 
 5214000    421.34876   -118.82015   -3220.2575   -1239.6914    444.59489   -47.586594 0.00049514619 0.0004788051  0.000471432 
 5216000    459.52714   -117.79021    1794.8856    2686.1333   -2861.8488   -883.52429 0.00049515758 0.00047943797 0.00047146919 
 5218000    507.68353   -118.61519    1908.6533    388.39383    1888.9214     1050.724 0.00049517436 0.00048002393 0.00047129104 
 5220000    479.44645    -117.4729   -2625.0496     1061.089    2570.9405   -721.66839 0.00049498008 0.0004798898 0.00047118792 
 5222000    539.11679   -117.21017    4369.4763    2004.2732    1985.3265   -33.343693 0.00049471026 0.00047969977 0.00047095256 
 5224000    514.00713   -118.51361   -6315.2693   -2229.6134    -1631.322    182.94446 0.00049491545 0.00047952823 0.00047073578 
 5226000    546.19138   -118.48477    1521.7872    128.95831    3343.4456     4343.221 0.00049480882 0.00047929291 0.00047054338 
 5228000    425.45578     -118.391   -2126.1085    1321.9236   -3367.7315   -2233.6441 0.00049454526 0.00047917559 0.00047081874 
 5230000     480.7903   -118.27126   -2442.4524   -1586.2316    2599.9777    1443.6229 0.00049513973 0.00047894814 0.00047119343 
 5232000    480.99765   -117.16594    4469.7253    243.61035   -1600.8614   -1106.4379 0.0004947517 0.00047869936 0.00047093217 
 5234000    527.57358   -117.60929   -4610.0325   -648.75055   -287.11863   -444.45985 0.00049439725 0.00047860321 0.00047071851 
 5236000    531.24355   -116.54037    5928.5783    1158.7586    256.48209   -66.010229 0.00049435831 0.00047867984 0.00047047694 
 5238000    475.97536   -116.90985   -2711.4359   -1725.9078    2607.9028    97.444989 0.00049411556 0.00047852754 0.00047030054 
 5240000    489.95722   -116.81874   -810.61802   -982.67883   -794.81849    237.02071 0.00049438235 0.00047840265 0.00047022522 
 5242000    485.61907    -116.8962    1516.1691    -493.5088    -2060.337   -2695.9376 0.00049471776 0.00047829218 0.00047013389 
 5244000    480.09543   -117.66123   -5225.5373   -3500.2673   -190.17677    1070.0589 0.00049458659 0.00047825295 0.00047004271 
 5246000    527.02945   -116.47422    4899.8272   -3585.9953     5252.487   -2925.0226 0.00049440584 0.00047801323 0.00046997079 
 5248000    475.67821   -117.52584   -5194.0025    3989.1845    963.13377   -2292.2259 0.00049422519 0.00047789147 0.00046982139 
 5250000    498.10719   -117.80773    627.82598   -2063.9179  -0.59121507   -2416.9982 0.00049438138 0.00047769261 0.00046982374 
 5252000    480.26482   -118.24805    -8.549367    3289.3099    3001.9263   -3014.7919 0.00049413637 0.00047772602 0.00046995122 
 5254000    532.91908   -116.93255   -4801.4135   -1066.7011    433.63929    1147.5263 0.00049398559 0.0004775974 0.00046988442 
 5256000    523.08656   -117.72925    4400.8593    526.71391   -1915.1703   -350.71329 0.00049425473 0.00047745997 0.00046989716 
 5258000    477.85235   -117.36075   -5111.1952   -2186.0966   -888.99733    4407.4026 0.00049394332 0.00047756355 0.00046997278 
 5260000    540.82469   -118.03784     3895.697    176.09514    1582.9799    3609.6793 0.00049404862 0.0004778905 0.00047019112 
 5262000    511.88516   -118.11123   -365.70729    4131.3743    2960.7377   -133.97268 0.00049398325 0.00047766705 0.00046988517 
 5264000    537.84658    -116.6613   -1414.0251    -1187.279   -4887.9118   -842.80836 0.00049382824 0.00047743788 0.0004698225 
 5266000       488.25   -118.18111    3219.3438    2038.5738    344.08493   -407.61154 0.00049375919 0.00047723325 0.00046965907 
 5268000    483.76618   -117.35305   -6511.8636    6008.9132   -483.21218   -1142.5554 0.00049371933 0.00047708556 0.00046962736 
 5270000    523.32813   -116.56811    3027.6408   -1372.1068    301.46359   -695.35618 0.00049371496 0.00047701996 0.00046999032 
 5272000    479.53844   -117.04658   -4915.4636    1414.0326    1294.1679   -1961.3015 0.00049376058 0.00047702858 0.00046997765 
 5274000     475.1897    -116.8889   -289.15664    1461.8092   -1810.5523   -286.42606 0.00049347593 0.00047812196 0.00046983337 
 5276000    525.98081   -118.44555    3101.3227   -2274.8773   -1336.4946    1787.3517 0.00049334088 0.00047803531 0.00046960065 
 5278000    494.98094   -117.20129   -4621.5125   -88.888718    110.69895    418.58548 0.0004931945 0.00047782137 0.00046945615 
 5280000    539.68351   -117.54373    5482.9866   -890.26984    4903.2465    3689.8211 0.00049307668 0.00047767703 0.00046928461 
 5282000    475.95714   -117.41062   -4294.2551   -158.76203   -1525.3813   -1392.9745 0.00049332514 0.00047748481 0.00046940715 
 5284000    475.66234   -118.38731    1645.0749   -576.99463    926.88523    -2366.991 0.00049309501 0.00047758585 0.00046945748 
 5286000    505.30122   -116.88268   -65.860032    19.432761    911.45591   -998.41938 0.00049292487 0.00047748047 0.00046923577 
 5288000    496.76263   -118.03302   -5189.3793    3280.0419    1126.1778    -2969.136 0.00049273222 0.00047736833 0.00046912461 
 5290000    488.61139   -117.34511    4363.5607    857.24916    -865.4228   -820.80786 0.00049259892 0.0004776916 0.00046900207 
 5292000    467.92287   -118.27657   -6410.5983    2648.3492   -5216.0509    1915.2094 0.00049260444 0.0004774994 0.00046881547 
 5294000    531.93031    -117.9685    2786.1786    3356.5114   -1731.4406    293.43393 0.00049243946 0.00047733833 0.00046864302 
 5296000    478.63026     -116.921   -2461.1719    2361.2772   -4122.5968    1848.6964 0.00049246935 0.00047711765 0.0004686153 
 5298000    509.38167   -117.09476   -2742.3953   -1457.0563    5619.3959    2703.9188 0.00049240674 0.00047709331 0.00046847142 
 5300000    438.56892   -116.83947     3833.172   -1848.1317   -1566.7559    398.31802 0.00049227372 0.00047698812 0.00046847318 
 5302000     531.9685   -117.38751   -5117.2202   -1301.6736    1035.0221   -1329.2734 0.00049189941 0.00047691501 0.00046848349 
 5304000    519.79244    -117.4659     5892.147   -2360.8997   -2110.3454   -1085.0713 0.00049159328 0.00047698486 0.00046889979 
 5306000    441.72435   -117.51472   -2294.7951   -2311.2953    734.22573    1321.4407 0.00049142684 0.00047672827 0.00046852911 
 5308000    551.70263   -116.23103    189.66561    3618.5613    369.57928    608.23581 0.00049125237 0.0004765809 0.0004683655 
 5310000    429.41548   -117.02273    1963.2282   -1877.7327    1603.0188    -3296.054 0.00049150288 0.00047661504 0.00046827376 
 5312000    502.70353   -117.46699   -7117.0259    1382.2635    535.46697    130.53904 0.00049127563 0.0004764187 0.00046817517 
 5314000    512.34769   -116.99404    4329.4797   -6942.9993    2348.2352   -1177.0784 0.00049129877 0.00047627321 0.00046795896 
 5316000    600.51408   -117.33843   -5619.0012    3743.3551    2434.6333    1611.2385 0.00049167601 0.0004762182 0.00046777561 
 5318000    501.73031   -118.33457    760.31248    -102.0524   -3545.3323   -25.208947 0.00049199404 0.00047610651 0.00046762447 
 5320000    549.64982   -115.93204    144.42513    1784.9234   -4287.1687    3049.1677 0.00049184434 0.00047594056 0.00046753408 
 5322000    441.02051   -117.45624   -2047.0211    2066.0858   -856.38891   -2510.2394 0.00049168578 0.00047573517 0.0004681825 
 5324000      463.766   -118.41897    5610.6834    1226.1981   -2958.7912   -2297.2559 0.0004915104 0.00047563644 0.00046829621 
 5326000    504.96765   -116.13014   -3270.0587    2601.3902   -1731.9391    1383.3951 0.0004914313 0.00047547037 0.00046814377 
 5328000    489.77989    -117.9994    4101.2232   -165.14511   -2402.8106    -2208.774 0.00049133882 0.00047521302 0.00046804268 
 5330000    480.36881   -118.07671   -1834.2291   -2734.1338   -369.30704   -344.86448 0.00049108578 0.00047525312 0.00046799175 
 5332000     543.0552   -117.34187   -3496.7447   -179.75632   -268.07264   -1058.3629 0.00049110481 0.00047562911 0.00046810648 
 5334000    528.61738   -117.19215    3160.4314   -2138.3454    456.27747    782.97307 0.00049118306 0.00047559955 0.00046820956 
 5336000    492.42806   -117.99657    -5757.471   -158.75389   -1131.4263   -730.27486 0.00049095831 0.00047544361 0.00046799589 
 5338000     485.6533   -117.46115    2992.0611    68.039227    2494.4069    313.90199 0.00049105362 0.00047564608 0.00046783717 
 5340000     506.9513   -118.02406   -1167.1306    979.99395   -2656.2789   -2820.9479 0.00049107319 0.0004753441 0.00046769141 
 5342000    444.33701   -117.80704   -768.41175     297.4224     1258.312   -2371.9429 0.00049088875 0.0004752158 0.00046751491 
 5344000    522.34758   -117.96263    3415.6039    1211.9757   -2049.0469   -4931.5621 0.00049072179 0.00047558339 0.00046740306 
 5346000    520.23647   -117.19465   -4768.9525   -532.26637   -2212.3691   -266.21223 0.0004908389 0.00047562574 0.00046707854 
 5348000    516.73532   -116.75351    3151.9045    1640.2113    212.10275    907.98229 0.00049050105 0.00047589609 0.00046759417 
 5350000    497.70236   -117.16458   -3425.1118    2512.5004   -388.60033   -1865.1973 0.00049092067 0.00047702854 0.00046779634 
 5352000    514.56444   -117.47668    127.83516   -1246.7516   -267.37751    1791.7121 0.00049271846 0.00047681795 0.00046755056 
 5354000    467.24603   -117.48188    1736.7035    2390.0071    1716.0702   -574.47842 0.00049293682 0.00047702468 0.00046760683 
 5356000    441.07096   -117.33619   -4516.9281    1551.8652   -1224.7308    1697.0161 0.00049269577 0.00047735134 0.00046787984 
 5358000    547.62507   -117.83523    2869.7832   -1331.4669    866.17537    3223.8766 0.00049260761 0.00047716627 0.00046758613 
 5360000    579.98231   -116.56943   -5287.3692    -780.9941    2191.4142    1620.8753 0.00049258824 0.00047699369 0.00046737439 
 5362000    494.81126   -117.28823    572.15755     -5264.98    2876.2304   -6986.1221   0.00049282 0.00047695887 0.00046800241 
 5364000    521.42999   -117.14238    1094.1311    -2180.112    127.11777    -3289.217 0.00049261852 0.00047688969 0.00046792142 
 5366000    551.97477   -117.79974   -2569.8331    2617.6623    47.277035    1226.3156 0.00049247987 0.00047681994 0.00046779872 
 5368000    451.91287   -118.07324    5361.5468    3305.3838    590.98563   -2561.9221 0.0004924363 0.00047662496 0.00046765201 
 5370000    454.44698   -118.42055   -4673.8432   -1382.1141    752.09768   -1552.9487 0.00049228022 0.00047662497 0.00046746606 
 5372000    510.62019   -118.82577   -256.26837   -748.83064   -2823.5076   -275.65913 0.0004921361 0.00047629192 0.00046735499 
 5374000    545.72175   -118.82237   -3017.8979    2318.1114    -6788.704    1408.5318 0.00049201425 0.00047605656 0.00046705399 
 5376000    459.88864   -117.71076   -4718.4515    -758.5737    1153.4852   -1385.7801 0.00049188183 0.00047595733 0.00046704645 
 5378000    521.06768   -117.46321    3504.3034   -203.18019    2.0602779    6197.7939 0.00049174056 0.0004761533 0.00046736176 
 5380000     471.5107   -115.95966   -4194.0057   -3733.0077   -175.68232    754.72771 0.00049157781 0.00047638412 0.00046712939 
 5382000    475.08002   -116.46974     3971.578   -1279.2315    1732.6935   -837.63972 0.00049137314 0.00047635272 0.00046708622 
 5384000    495.97468   -116.28545   -807.22318   -236.50053   -3025.2259   -2523.3841 0.00049130585 0.00047617713 0.0004670156 
 5386000    505.87887   -117.01315   -1647.4218   -3485.0632    3916.2883   -1412.7262 0.0004911498 0.00047612433 0.0004670346 
 5388000    463.07853   -116.84124     1268.318     1441.755   -2264.5194    976.27868 0.00049090268 0.00047620275 0.00046685983 
 5390000    591.58425    -117.0248   -4245.3945    3363.9846   -2061.3802   -1016.5313 0.00049075794 0.00047609961 0.00046671431 
 5392000    541.38538   -116.64098    4669.5442   -3063.6939   -613.50227    2654.3926 0.00049077961 0.00047606029 0.00046656582 
 5394000    509.96265   -117.69059   -1833.3822    2726.6148   -1020.5329   -984.09548 0.00049064639 0.00047589931 0.00046652413 
 5396000    493.07964   -116.96419    680.75838    186.81108     6827.327   -4161.0509 0.00049077573 0.0004759066 0.00046637238 
 5398000    470.22725   -117.33482    851.25694   -1334.4999   -397.07964   -2298.4912 0.00049089062 0.00047585616 0.00046625812 
 5400000    500.61695   -117.97752   -4953.5749    4347.5172    2790.8125    -3150.121 0.00049134476 0.00047565298 0.00046619446 
 5402000     462.5695   -116.66719    2624.3691   -3519.8578    3184.5408   -5645.6225 0.00049130206 0.00047588769 0.00046617949 
 5404000    535.75465   -117.88199   -4883.1502    1390.6752    5254.0576   -1622.5185 0.00049115631 0.00047603745 0.0004661595 
 5406000    491.56013   -117.73163    434.76867    1364.6528   -1097.2031   -665.76108 0.00049108787 0.00047580096 0.0004658824 
 5408000    523.40718   -116.00388    1796.9159    2435.9067   -531.12654   -1007.4078 0.00049094079 0.00047563306 0.00046570453 
 5410000    477.31745   -118.04744   -3373.9257    883.78788    1168.2951   -1330.0449 0.0004908757 0.00047539741 0.00046553826 
 5412000    507.98542   -117.41644    5372.8037    1066.6652   -1134.6747   -3590.9637 0.0004907389 0.00047537763 0.00046536271 
 5414000    463.99231   -116.48715    -3780.717    5218.5945   -1609.4572    883.13922 0.00049111234 0.00047509204 0.00046524331 
 5416000    521.32466   -116.49879    822.21938   -4258.5217   -4402.9176   -4003.0797 0.00049094262 0.00047489801 0.00046500931 
 5418000    490.80847   -118.09416   -2078.7257   -972.01421    1912.8137    1709.4277 0.00049078372 0.00047484637 0.00046481627 
 5420000    503.79392   -116.05346   -4102.9674    348.19809   -3442.0774    208.31943 0.0004906421 0.00047488585 0.00046504178 
 5422000    495.60503   -117.68528    3396.5606    145.26948    397.39928    191.33552 0.00049090382 0.00047490314 0.00046487957 
 5424000    524.82888   -118.55269   -2637.6638   -4932.0742    2589.0398    2645.9523 0.00049070141 0.00047479902 0.00046475007 
 5426000    511.88215   -117.07611    4826.4227    1703.6044    1045.5467    1973.9874 0.00049048407 0.00047530278 0.00046481392 
 5428000    504.09629   -117.68521   -1721.5398     3293.605   -1129.9343   -6209.3403 0.00049030657 0.00047500418 0.00046459145 
 5430000    525.15159   -117.13849   -1660.8132    3470.2204   -1515.6805   -462.89148 0.00049012555 0.0004763883 0.00046455895 
 5432000    546.73282   -117.53143    2531.1648    2764.4603    2129.6858   -2479.4577 0.00048993922 0.00047713659 0.00046433838 
 5434000    477.48464   -117.57251   -4903.4826   -391.08821    370.71867   -5133.7813 0.00048977217 0.00047700734 0.00046413431 
 5436000    475.00354   -116.86415    4345.7563    4729.1938     3544.912    5191.1367 0.00048976069 0.00047683104 0.00046426999 
 5438000      511.601   -116.37745   -2545.8552   -3319.6827   -1409.2389   -348.46106 0.00048989411 0.0004767688 0.00046430678 
 5440000    509.17522   -117.64175    1337.1766   -1569.3528     369.3449   -485.20164 0.00048991838 0.00047687847 0.00046419882 
 5442000     535.6243   -115.89686    1831.6619   -1022.8437    1489.0588    -1741.936 0.00048968668 0.00047676265 0.00046408693 
 5444000    501.45942   -118.16984   -5829.7966   -428.51677    1775.6022   -44.032945 0.00048959308 0.00047668981 0.00046407373 
 5446000    510.94054   -117.98661    2485.0305     4297.975    1123.4476    315.50986 0.00048933418 0.00047673559 0.00046412772 
 5448000     574.1327   -117.75519   -6528.7228   -411.98213    2643.1948    873.00467 0.00048926574 0.00047655854 0.00046406858 
 5450000    482.24644   -117.62726    907.07825    1008.2245    2086.1094   -747.37098 0.00048910249 0.00047705168 0.0004638592 
 5452000    520.03693   -117.20939    2708.7864   -1329.6042   -401.88878   -4554.3683 0.00048903501 0.00047716976 0.00046368944 
 5454000     496.1102   -117.44017    -1960.429    1051.0119    1050.2681     950.6544 0.00048875777 0.00047812565 0.00046357626 
 5456000    471.77174   -116.90905    5586.9789    1580.0306   -1310.0481   -3162.1784 0.00048865774 0.00047860238 0.00046354871 
 5458000    449.73041   -117.92539   -5094.0326    244.59165   -1527.9816    1227.4955 0.00048846408 0.00047915448 0.00046339757 
 5460000    487.50682   -116.12381    303.24491   -67.102263   -1424.7855   -2026.2822 0.00048827749 0.00047901471 0.00046333842 
 5462000    499.10952   -118.04397   -3559.7951   -850.59114   -1702.1234   -2371.0713 0.00048832038 0.00047877113 0.00046320097 
 5464000    513.08689   -117.00251   -2591.4152    2800.5294   -3473.5675   -2752.1611 0.00048824685   0.00047862 0.0004630314 
 5466000    519.75625   -117.96814     3771.274    330.81914   -1959.1451   -1381.2796 0.00048899061 0.00047955378 0.00046323569 
 5468000    566.65029   -116.77499   -1716.6947   -499.26367   -2246.3955    1686.1529 0.00048885749 0.00047974192 0.00046348203 
 5470000    497.53041   -117.23017    2848.4065   -301.11319    1763.7898   -747.38952 0.00048882429 0.0004795494 0.00046328497 
 5472000    566.02398   -117.43733    -2543.309   -2293.2856   -1426.7252   -2621.8414 0.00048895094 0.00047938317 0.00046332634 
 5474000    480.41113   -117.71986   -2144.5085   -2257.8416    1820.8807    546.95845 0.00048882638 0.00047919908 0.00046320123 
 5476000    496.33296   -117.36077    1382.8592   -6747.4654   -2014.0774   -836.95071 0.00048884874 0.00047905234 0.00046337445 
 5478000    491.17378   -116.92201   -2752.3238    2696.1577   -1235.1175   -1914.2031 0.00048995181 0.00047887468 0.00046317409 
 5480000    513.22322   -118.12078    3943.4034   -2957.7173   -1626.8152    3965.2703 0.00049108038 0.00047876496 0.00046304607 
 5482000    522.28215   -116.59458   -2293.4389   -2487.7662    3329.9092     -1092.13 0.00049087511 0.00047853957 0.00046295228 
 5484000    539.75169     -115.858    1136.6345     710.1691    997.71387    547.62148 0.00049072991 0.00047831877 0.00046338166 
 5486000    469.09925   -117.33706    528.84371    2080.0307    1083.0648    -981.3148 0.00049055857 0.00047828093 0.00046436874 
 5488000    491.25633   -117.86651   -5533.8345   -377.91055    2525.5911    1502.2341 0.00049039479 0.00047813888 0.00046394873 
 5490000    517.47185   -116.38869    3961.9003    1463.0918    146.99571    750.15575 0.00049027934 0.00047812278 0.0004642339 
 5492000    446.82416   -117.39452   -3943.0036    436.62092    61.230602   -2419.0748 0.00049015583 0.00047794716 0.00046479232 
 5494000    481.27191   -117.80018    1838.9208    693.00775    782.32355   -1571.4856 0.00048989832 0.0004777892 0.00046465756 
 5496000    524.34253   -117.30669    1535.8276    2034.7272   -435.12264   -4072.0341 0.00048979892 0.00047760936 0.00046464303 
 5498000    486.82632   -117.02191   -2937.0978   -676.26059    97.575747    655.19585 0.0004900412 0.00047754259 0.00046447652 
 5500000    513.89837   -118.07415    2524.0259    3204.0216   -749.73554     3903.252 0.0004900923 0.00047748944 0.00046430513 
 5502000     516.3911   -118.49504   -5061.9944    1661.5143   -2908.2159   -346.22391 0.00049013515 0.00047745531 0.00046432934 
 5504000    512.47558   -117.95963    1096.0773    793.83582   -1425.1267    2286.7255 0.00049059358 0.00047742778 0.00046408381 
 5506000    541.41098   -118.44578    86.602605   -4009.4743   -1090.9425   -2809.1549 0.00049080531 0.00047753048 0.00046398075 
 5508000    500.45267   -117.73545   -1956.2884   -2724.1584   -2935.1426    961.69779 0.00049076668 0.00047738058 0.00046377227 
 5510000    542.10698   -119.04103    1829.0737   -3195.8249   -269.88188    1922.6271 0.00049074355 0.00047724988 0.00046365537 
 5512000    544.80754   -115.83154   -3615.2715   -1552.1197   -2754.0209    1108.5489 0.0004906197 0.00047706413 0.00046355427 
 5514000    484.65494   -117.91392    988.74324    470.43726    1464.4665    -3182.547 0.00049054056 0.00047703722 0.00046353142 
 5516000    462.15143   -116.12472   -1844.1397    1087.3785   -2765.3589    -1215.655 0.00049047721 0.00047704753 0.00046361499 
 5518000    523.07482   -116.27619   -692.02834   -3213.9313    457.84145    1104.2867 0.00049028702 0.00047701791 0.00046353383 
 5520000    507.43244   -117.85111    1718.7305   -1226.0515   -2150.2258    2150.5038 0.00049011518 0.00047702389 0.00046344214 
 5522000    415.62648   -117.63868   -3712.5147    1968.2709    2638.1162   -4372.9986 0.00048993075 0.00047667947 0.00046355777 
 5524000    537.65142   -117.49364    2444.4611   -570.29618   -72.163893    1751.3411 0.00048977047 0.00047656902 0.00046338273 
 5526000    538.77729   -117.46642   -1403.0383    1846.1558   -3902.5204   -2595.2939 0.00048963022 0.00047673593 0.0004632549 
 5528000    475.10774   -117.81515   -1382.7152    263.97876    1603.3173    491.16056  0.000489806 0.00047690131 0.0004630979 
 5530000    514.79628   -116.82612    2505.1181   -2442.9027    1090.9571    772.25913 0.00049032161 0.00047655867 0.00046297177 
 5532000    534.83238   -117.34593   -4071.9998    1741.3936   -3677.0817     1148.072 0.00049049457 0.00047631109 0.00046286533 
 5534000    497.42609   -117.00553    2963.7122     1094.669   -3348.8387    1892.9193 0.00049046229 0.00047616311 0.00046320914 
 5536000    499.39325   -118.51681   -3838.7199    2958.3346   -575.54249    63.965056 0.00049022404 0.00047601452 0.00046309534 
 5538000    514.16199   -117.11596    -508.5678    1352.5569     400.8586    4805.0595 0.00049002414 0.0004759793 0.00046332966 
 5540000    522.90379   -117.76338    1211.4414    1777.4416   -2664.1035    2080.3433 0.00049079907 0.00047645322 0.00046319917 
 5542000    464.83468   -118.11794   -4424.3512   -3229.9991    1234.6471   -1229.9327 0.00049096379 0.00047618683 0.00046298195 
 5544000    442.06562   -117.86662    2777.8828    709.79916    -323.4775    1876.6049 0.00049080573 0.00047598857 0.00046278662 
 5546000    452.08923   -117.75897   -3043.5497   -194.82596   -2932.2875    2372.7739 0.00049080162 0.0004757201 0.00046263474 
 5548000    459.78872   -118.62494    909.11216   -3021.9428   -2722.0051   -3171.6643 0.00049050851 0.00047585127 0.00046253312 
 5550000    545.61849   -116.72504    240.95405    2906.8383    1224.0181    2629.9176 0.00049101263 0.00047607393 0.00046253218 
 5552000    460.18502   -118.26481   -3373.7894    -257.4589    2178.6987   -94.082824 0.0004907202 0.00047639493 0.00046276816 
 5554000    512.02268   -117.12882    2921.7767    -1687.113    1777.9407    681.78628 0.00049061463 0.00047614154 0.00046271212 
 5556000    484.37512   -117.04203   -4029.4222    107.95499    2409.3961    1017.3479 0.00049039796 0.00047653992 0.00046249022 
 5558000     459.0315   -118.35771    1144.6162    973.57229    3083.8442   -3546.7844 0.00049034503 0.00047688358 0.00046236033 
 5560000    538.37736    -117.5719   -1188.4985    1622.2559    1868.8007   -2282.0901 0.0004907556 0.00047670262 0.00046220559 
 5562000    538.33465   -117.15703   -834.38588   -4288.6764    2624.7379    2576.9353 0.0004907794 0.00047653849 0.00046260824 
 5564000    471.42361   -117.28726    1936.1944   -473.95511    2700.2052    689.11191 0.00049066765 0.00047658404 0.00046239469 
 5566000    504.40919   -118.49849   -3773.1919    424.57125    4197.0727   -74.592686 0.00049100393 0.00047640882 0.00046221247 
 5568000    533.89754   -117.12576    3700.4129   -3636.0701   -2432.0792   -2192.3302 0.00049076833 0.0004763197 0.00046195983 
 5570000    525.50146   -118.04651   -2644.7269    1171.4616    6007.4532    1511.6996 0.00049054854 0.00047635181 0.00046191994 
 5572000    447.42813   -118.71754   -854.18277   -754.23453   -254.90978    1573.7086 0.00049041369 0.00047619831 0.00046188007 
 5574000    516.01685   -117.87607    1552.7753   -3673.6392   -1309.4687    3974.8033 0.00049038971 0.00047610429 0.00046202884 
 5576000    524.99599   -117.01725   -2946.7513     648.6871   -736.73182    829.04456 0.00049029645 0.00047614499 0.00046181635 
 5578000    475.35452   -117.11989    4216.6749   -1984.8621   -3216.7652    1739.4526 0.00049012582 0.00047637017 0.00046197492 
 5580000    473.71875   -118.30071   -5003.6184    1797.5184   -1898.7127   -1596.4676 0.00049018071 0.0004763169 0.00046172988 
 5582000    539.37225   -117.22713    555.61413    1598.2832    1611.4339   -1316.3929 0.00049007052 0.00047642983 0.00046150422 
 5584000    517.49491   -116.80439   -501.74854   -4767.0405    3415.1189    2844.5574 0.00049038021 0.00047633393 0.00046147142 
 5586000     501.3121   -117.82045   -4525.7219   -3794.8411    3823.0507    851.13434 0.00049147236 0.0004760423 0.00046141278 
 5588000    468.09791   -117.37319    2740.2871    259.65488   -1034.4363   -998.09136 0.00049114924 0.00047578542 0.00046139005 
 5590000    466.79078   -117.76261   -3749.3531   -2502.2832    3467.0696    1710.8943 0.00049092832 0.00047567165 0.00046195775 
 5592000    484.63513   -117.69073    2932.3469    1777.1802    2978.3879    -77.35554 0.0004907468 0.0004754665 0.00046173499 
 5594000    600.41398   -118.43064   -647.11292     1221.729    3625.6152    1796.6216 0.00049089487 0.00047541272 0.00046192161 
 5596000     505.0366   -117.97906   -1674.1298   -1571.9262    1813.5443    386.28436 0.00049077775 0.0004755512 0.00046199608 
 5598000     530.0719   -117.35469    1738.9246    2511.5339   -1236.3436   -292.31909 0.00049061619 0.00047535867 0.00046183487 
 5600000    497.01674   -117.03276   -3247.5285    4094.1857   -671.48676   -159.14153 0.00049046094 0.00047522192 0.00046175984 
 5602000    497.77411   -116.60987    1599.8837   -129.13157   -5679.6582   -2065.9843 0.00049090622 0.00047526733 0.00046198219 
 5604000    496.66544   -117.35056   -2363.3491   -2044.6188     2571.377    2348.0785 0.00049126389 0.00047504095 0.00046196794 
 5606000    500.59112   -117.68444   -1627.2238    4675.6269     249.2395    4066.5812 0.00049122784 0.00047503666 0.00046186911 
 5608000    553.86969   -119.47484   -30.299679    2899.2101   -1335.6776    1052.4525 0.00049104459 0.00047488809 0.00046169786 
 5610000    500.81929   -118.55043   -4335.7343   -252.54904    730.61755   -1613.2522 0.00049074991 0.00047480443 0.00046152108 
 5612000    480.28458   -117.51281    2673.6097    44.052138   -788.65413    2645.2877 0.00049061468 0.00047497631 0.00046135663 
 5614000    512.52332   -116.86428    -2899.712   -1577.8813    4614.0369   -86.109098 0.00049068426 0.00047512013 0.00046117485 
 5616000    510.22892   -118.40075    1051.9244    93.172431    1138.8861   -4008.4872 0.00049081021 0.00047504929 0.00046111951 
 5618000    483.65864   -117.98889     1825.558    385.63026    3283.3951   -5446.7146 0.00049083413 0.00047489355 0.00046088984 
 5620000    511.98356    -118.0598   -1747.0118   -1069.1116   -3623.9926   -587.89701 0.00049067231 0.00047477405 0.00046078161 
 5622000    520.99527   -117.12571      5012.97   -3908.1529    1881.5996    1201.5461 0.00049051906 0.00047469934 0.00046065533 
 5624000     551.1804    -116.9542   -4188.5592    -1178.384   -3320.4986    3912.1599 0.00049038225 0.00047443475 0.00046066625 
 5626000    464.44553    -118.3705   -981.64084    -2792.291    1780.2839   -447.70535 0.00049047365 0.00047423408 0.00046061619 
 5628000     461.5553   -118.03414   -1312.0057   -176.62697    2062.5767    1784.3765 0.00049019965 0.00047412106 0.00046046581 
 5630000     447.9379   -117.82439   -5078.7933    6771.4902    1116.8188   -2740.5191 0.00048999649 0.00047463947 0.00046036499 
 5632000     484.0986   -117.08217    3992.4509    1380.5986    1050.4813   -315.46044 0.00048999979 0.00047431187 0.00046026308 
 5634000    497.59638   -117.63951   -2643.8032    -3855.251    683.00989    449.04066 0.00049008852 0.00047444998 0.00046030904 
 5636000    513.27316   -117.08377    3309.4488   -4829.4554   -8.5717762    2901.9487 0.00048987687 0.00047443619 0.00046020767 
 5638000     450.2024   -117.93634    291.89828    3898.2298    906.09276    2434.0295 0.0004897905 0.00047472377 0.00046007378 
 5640000    439.89129   -117.63526   -2101.4226   -2079.9961    5853.0347   -190.86018 0.00048946921 0.00047447651 0.00046001847 
 5642000    550.28017   -117.93782    1964.2709   -372.91976    1120.9466    1865.1879 0.00048933042 0.00047421114 0.00046000618 
 5644000    498.64803   -118.43109   -4263.3407    4290.3355   -1290.8532   -269.67087 0.00048988572 0.00047426457 0.00045995763 
 5646000    561.68442   -117.24911    1648.1314     2650.622   -1312.2064    1262.9042 0.00049073339 0.00047398515 0.00045980615 
 5648000     497.5397   -117.24215   -2288.2836    1531.5763    -131.3223   -488.94042 0.00049059308 0.00047377537 0.00045966068 
 5650000    509.86803   -118.11939    -1467.434   -5405.7414    2440.4842    3198.9678 0.00049029524 0.00047400207 0.00045954531 
 5652000    476.05804   -117.77659    153.08508    3851.3936    1394.1201   -4050.6396 0.00049018769 0.00047504061 0.00045940984 
 5654000    507.92114   -117.89458   -3728.4597    1382.9992   -2616.8747    5485.7806 0.00049031394 0.00047462795 0.00045921193 
 5656000    495.19514   -117.23269    2643.4205   -3480.8746    172.25696   -1974.6633 0.00049036748 0.00047437048 0.00045904698 
 5658000    487.42458   -117.48005   -705.77142   -5162.4184   -3766.1013    1283.6774 0.00049030612 0.00047455337 0.0004590318 
 5660000    479.84374   -117.78342    1635.1726   -101.94631    -744.1205   -4089.8676 0.00049022859 0.00047457757 0.00045956465 
 5662000    524.20646   -117.51152    2995.3829   -428.27223     -3282.18    827.47701 0.0004909308 0.00047541222 0.00045919964 
 5664000    550.82571   -117.43951   -3050.2967    5383.6226    3537.4746    1268.5711 0.00049179439 0.00047582091 0.00045957039 
 5666000    498.24324   -116.82215    1610.3477    -2589.761   -1946.1896   -1002.2823 0.00049170102 0.00047567373 0.00045963514 
 5668000    493.51597   -118.98875    -4242.698   -2543.6515    -545.2177    596.45592 0.00049181651 0.00047568525 0.00045939351 
 5670000    466.37881   -117.40044   -1502.8538    2828.6743    641.83786    -924.8919 0.00049180836 0.00047537329 0.00045918494 
 5672000    523.92524    -115.6462   -1210.3622    680.40603   -738.24221     1110.639 0.00049167676 0.00047542385 0.00045904045 
 5674000    427.11134   -118.40195   -3644.5483    1615.5393   -1214.3594    2814.3699  0.000491771 0.00047563987 0.0004589301 
 5676000    444.18663   -117.91249    1680.8271    1634.0879    2024.6162   -1831.6759 0.00049194933 0.00047554019 0.00045879259 
 5678000    524.24438   -117.51068   -3630.9083   -388.89298   -45.739658     -109.029 0.00049178166 0.00047540797 0.00045863349 
 5680000    461.66885   -118.01174    3358.3925    4480.6463    4222.9397    503.24467 0.00049166185 0.00047535039 0.00045848566 
 5682000    461.82041   -117.07807   -322.97824    219.89865   -654.26164    3758.3437 0.00049151906 0.0004753139 0.00045845892 
 5684000    492.53699   -118.22342    216.58968    -2971.677   -270.51474    -3399.224 0.00049139321 0.00047527222 0.00045835602 
 5686000    474.27952   -118.58451    4175.3364    548.50084    665.89878    1756.4598  0.000491434 0.00047504232 0.00045823591 
 5688000    506.45255   -117.93612   -3913.7923    335.46646    2305.9726   -70.874087 0.0004912822 0.00047477284 0.00045810745 
 5690000    504.48918    -117.6605    2881.1523    1588.0067   -555.01506   -1286.6342 0.00049117498 0.00047469489 0.0004582351 
 5692000    472.33129   -118.25951   -3739.4159    531.97676    7221.7956    6604.5912 0.00049113554 0.00047459178 0.00045804064 
 5694000    433.16024   -117.34366   -1955.2729    788.12664    3305.7787    1256.7077 0.0004912775 0.00047450153 0.0004579636 
 5696000    472.68121   -116.77268    2091.8496   -1232.5703    424.37573     3574.358 0.00049146218 0.00047445402 0.00045809557 
 5698000    477.59382   -117.59413   -5772.6191    2564.0714   -5847.9366    1772.4773 0.00049122709 0.0004744855 0.00045805686 
 5700000    507.61244   -117.33619    2930.1538   -370.84108   -1531.8069    1012.0567 0.00049161823 0.00047421464 0.00045843504 
 5702000     511.6016   -117.64063   -1813.6718    5618.9001    509.41789   -4338.0245 0.00049164827 0.00047405561 0.00045855637 
 5704000    522.88302    -117.5632   -250.81259    815.59471    914.84959    18.669443 0.00049146303 0.00047391615 0.00045891157 
 5706000    532.74192   -116.84868    2752.9839    1167.4093    1294.5831    5638.4579 0.00049158793 0.00047488568 0.00045898022 
 5708000    508.25173   -117.55922   -3106.3865   -3685.4999    4458.3813   -2869.1447 0.00049158257 0.00047596418 0.00045868221 
 5710000    545.71955   -117.91503      4180.27   -2577.6494    -426.7481    1188.2655  0.000491616 0.00047612301 0.00045863063 
 5712000    498.82313   -117.80883   -3809.6895    3711.8411    21.282903   -516.68879 0.00049143523 0.00047582878 0.00045842818 
 5714000     503.6471   -117.32435    670.55733    3763.0872   -4531.6946    1022.1825 0.00049124152 0.00047573652 0.00045868309 
 5716000    525.46614   -117.46387   -1066.8862   -2459.6533     1614.429   -2577.9331 0.00049105527 0.00047565602 0.00045901515 
 5718000     531.5521   -117.74475    -4243.768   -441.28995   -3362.7862     1626.153 0.00049099144 0.00047578467 0.00045946693 
 5720000     555.5667   -117.90163    1744.7906   -2747.6279    63.307214    566.78888 0.00049086435 0.00047556062 0.00045929733 
 5722000    536.33935   -117.33892   -4314.4158   -1472.7111    359.60973    -339.8964 0.00049059873 0.0004754455 0.00045911305 
 5724000    483.43586   -118.05135    1674.1865    1777.1245   -161.34936   -3434.6635 0.00049186072 0.00047530659 0.00045894584 
 5726000    474.34715   -118.28776    -2009.994   -4691.1115   -1944.1568   -3483.9228 0.00049238345 0.00047623398 0.00045878232 
 5728000    506.45797   -117.60593   -1298.9466    206.75972   -817.05197   -2250.5194 0.00049228376 0.00047644134 0.00045959609 
 5730000     463.8865   -117.49661    2952.3706   -1302.4191   -2039.3769    4587.1887 0.00049256349 0.00047630834 0.00045998616 
 5732000    476.12263   -117.94337   -2239.2399    3682.7789   -1710.3543   -1285.0829 0.00049259659 0.0004762861 0.00046057555 
 5734000    439.68065   -117.02019    3580.5206   -2542.3861    1956.7296    527.62016 0.00049268361 0.0004761651 0.00046073332 
 5736000    476.34487   -117.16661   -1621.2098     161.1811   -2171.5249   -2573.5831 0.00049252308 0.00047597112 0.00046060528 
 5738000    539.49303   -117.86322   -1260.4833   -1798.6162   -413.86893    1107.9561 0.00049228176 0.00047618152 0.00046054201 
 5740000    476.76246   -118.49665   -808.67421   -241.21533    1076.1021    502.27926 0.00049216854 0.00047606742 0.00046049446 
 5742000    509.23791   -116.42295   -5551.0195    3704.2609    3605.8009   -1451.4987 0.00049239564 0.00047641922 0.00046027523 
 5744000    467.06289   -117.96478     1987.903   -3976.2666   -2422.5307     968.1737 0.00049315111 0.00047619325 0.0004601046 
 5746000     428.5472   -117.32875    -3036.849   -4649.3642    1111.9607   -2540.0614 0.00049284057 0.00047600895 0.00046023575 
 5748000    504.68246   -116.79537    2669.5754     6808.334    431.82354    1330.6762 0.00049260483 0.00047604684 0.00046033783 
 5750000    483.84914   -117.53567    423.90529   -919.30138    938.54264   -452.78079 0.00049273303 0.00047592685 0.0004603491 
 5752000    505.20273   -117.86639   -692.69529    5897.8876    2076.4038    -2371.521 0.00049282491 0.00047578856 0.00046018866 
 5754000    529.87432   -117.41246    2725.7605   -1968.6101   -108.02594    97.424288 0.00049326749 0.00047592153 0.00046016468 
 5756000    452.58299   -117.73716   -3388.7102    2004.5299    887.61761    504.77455 0.00049320265 0.00047602836 0.00046053749 
 5758000    484.87794    -118.3626     1114.329   -933.91012   -1506.0166   -1640.4746 0.00049319947 0.00047583871 0.0004603819 
 5760000    513.15835   -118.09232   -1487.9575   -579.62464    595.76088   -387.41691 0.00049324219 0.00047574685 0.00046025991 
 5762000    518.01615    -117.1341   -1351.8726    1278.4426    -5638.447   -449.36044 0.0004931086 0.00047559919 0.00046048945 
 5764000    471.32323   -118.41286   -1822.3918    1881.0271     1721.554    7050.9807 0.00049293392 0.00047579738 0.0004606799 
 5766000    494.61054   -116.56288   -4320.5617    -3730.606    3324.9109   -2105.1719 0.00049276205 0.00047563969 0.00046071225 
 5768000    510.89109    -116.6974    1532.0231    3175.0415    3759.6494   -2667.6568 0.00049261519 0.00047658681 0.00046067189 
 5770000    479.22818   -118.28525   -2260.3217    2574.4507    938.43135   -3036.0726 0.00049242489 0.00047759006 0.0004606296 
 5772000    495.14398   -118.66633    2040.5417    372.90042    1598.3921    1041.1412 0.00049254568 0.00047740663 0.00046072273 
 5774000    528.14105   -118.37317    1896.3413    924.91334   -4652.3673   -1815.7835 0.00049241763 0.00047725245 0.00046067703 
 5776000    504.50037   -116.04722   -181.57452    819.49323   -4695.8462    8166.4587 0.00049222499 0.00047710816 0.00046101238 
 5778000     488.8273   -116.17294    2647.3014    407.31328   -21.572213    2658.8239 0.00049214354 0.00047711287 0.00046087474 
 5780000    507.96282   -117.83091   -2654.8601    1189.5603    2100.6552   -2468.8485 0.0004919808 0.00047699296 0.00046076429 
 5782000     516.3306   -118.19036   -1164.9204    3233.1096    2630.1339    695.73657 0.00049182434 0.00047684669 0.00046062121 
 5784000    491.33286   -118.02907   -923.21298    3554.3838    -3538.404     2587.637 0.00049161605 0.00047738568 0.00046048102 
 5786000     535.1049   -117.58425   -1784.9944   -2840.6089     1418.764    2665.5469 0.00049144205 0.00047724122 0.00046031704 
 5788000    514.51197   -117.93236    1352.1993   -1802.7084   -79.748896    722.50525 0.00049134964 0.00047709526 0.00046018635 
 5790000    501.55594   -117.77518   -2253.6673   -1819.9034    1625.4552    1282.3661 0.00049134662 0.00047690137 0.00046007481 
 5792000    531.87364   -117.58522    -492.5204     3933.484   -7331.6069    -185.6886 0.00049125777 0.00047672335 0.00046008583 
 5794000    510.27619   -117.55559   -759.07037   -1353.6298    824.08046    2760.4979 0.00049133081 0.00047658901 0.00045994959 
 5796000    470.03974   -116.12178   -2125.4443    2506.7914   -76.922097   -1330.1028 0.00049106199 0.00047643287 0.00045977843 
 5798000     549.0018   -116.51062    2155.9192    -2577.459   -37.875304   -780.13072 0.00049093327  0.000476236 0.00045965151 
 5800000    491.92161    -118.1217   -779.88693    747.36538   -1094.1802   -2935.1608 0.0004909716 0.00047654345 0.00045947429 
 5802000    508.82116   -117.39465      2863.13    1313.5388    -829.7229   -3307.0896 0.00049078798 0.00047805689 0.00045933894 
 5804000    516.88995    -117.4333    -1018.292    692.02347   -1545.7725    3019.0618 0.0004910777 0.00047825023 0.00045921145 
 5806000    526.31584   -117.72676   -1104.1164    2470.0579   -370.63724    298.96531 0.00049099521 0.00047814666 0.00045909336 
 5808000    512.58768   -117.49275   -1464.0265   -2017.4785     132.0561   -358.08186 0.00049080659 0.00047802902 0.00045906056 
 5810000    485.67436   -116.38653   -4372.3274   -3434.0681   -1472.9746    2582.5367 0.00049052336 0.00047794022 0.00045892383 
 5812000    497.16453   -118.08364   -36.062263   -490.24931   -989.31328     1839.637 0.00049038823 0.00047796157 0.0004589748 
 5814000    543.13059   -117.49545   -1357.2269    156.02039    2690.0863   -1197.0131 0.00049034802 0.00047794856 0.00045882759 
 5816000    478.25638    -117.8731    1146.9813   -4279.1797    1152.6003   -806.45979 0.0004902011 0.00047788715 0.00045870719 
 5818000     510.6047   -118.44651    735.20003   -1017.2701    1435.6479   -1123.9646 0.00049042089 0.00047773351 0.0004585958 
 5820000    486.15487   -116.68157   -1418.8718   -1210.9887   -3044.1567   -361.18702 0.00049029378 0.00047779694 0.00045860337 
 5822000    546.45045   -117.66665    722.17358    4268.6034    -5105.319   -469.96443 0.00049014771 0.0004776365 0.00045856334 
 5824000    542.52875   -118.25845   -3101.3624   -7132.4225   -3520.1353    1618.4977 0.0004899504 0.00047744161 0.00045850518 
 5826000    540.78591   -117.18366       1384.4    835.60673    227.25156   -2280.6708 0.00048983539 0.0004773709 0.00045854851 
 5828000    483.59224   -117.58951    711.88561    2966.2461     306.4492    3320.1627 0.00048987379 0.00047740762 0.00045842764 
 5830000    515.47919   -118.35795   -335.81397   -1648.7023   -2034.7582    435.75327 0.00048987213 0.00047716419 0.00045850906 
 5832000    497.65658   -117.36352    2259.8223    856.52912   -1877.8785   -867.21044 0.00048980733 0.00047700059 0.0004583509 
 5834000    496.17544   -117.41423   -3093.6637   -3986.5905   -886.65966    -499.7329 0.00048956882 0.00047686971 0.00045822334 
 5836000    546.32777   -116.76751    706.48865    1006.2866   -886.66094     1170.075 0.0004893673 0.00047680925 0.00045811686 
 5838000     496.2133   -117.05454    -3776.608   -1864.5095    3721.1625   -786.73784 0.00048919609 0.00047672112 0.00045822527 
 5840000    452.85929   -116.99314   -2204.2934    1206.9431   -630.70876    2757.9123 0.00048933124 0.00047666267 0.00045803192 
 5842000    457.28289   -118.42657    112.00509    257.19186   -2235.9427   -1838.0679 0.00048907976 0.00047685986 0.00045782933 
 5844000    480.72821   -116.55215   -2766.0145    433.36398    -1491.781    3906.9037 0.00048900186 0.00047720964 0.00045763395 
 5846000    507.08163   -116.76992    4348.2489   -1171.0388    337.19001    2234.5885 0.00048886092 0.00047741899 0.00045748944 
 5848000    523.08797   -116.92914   -2263.3568    1128.7216   -1330.3889    2549.5713 0.00048873732 0.00047756282 0.00045732143 
 5850000    464.76303   -117.95174    -276.9374   -3419.4026    -1365.356   -1772.0507 0.00048872167 0.00047744047 0.00045735992 
 5852000    511.26784   -118.98388    367.28742    665.20333    1029.1919    305.00359 0.00048853294 0.00047738575 0.00045721599 
 5854000    557.55825   -116.85726   -4646.5149   -39.494834    3109.8759   -1948.3021 0.00048826529 0.00047736366 0.00045714568 
 5856000    560.11989   -116.57824    3867.4381    963.87665   -1050.0183     543.7666 0.00048816239 0.00047730617 0.00045708943 
 5858000    481.90506   -117.35892    -3285.989   -1154.6728   -3252.9356   -1770.6716 0.00048803569 0.0004773296 0.00045693558 
 5860000    488.84922   -116.43594    478.12343    3008.0736   -3807.4533    951.75511 0.00048797487 0.00047834102 0.00045676459 
 5862000    469.86092   -116.71793   -27.968756    189.69898   -212.67536    -4336.577 0.00048782639 0.00047823994  0.000456788 
 5864000    487.60517   -118.02226   -2834.7734    1179.1212    1042.8794   -742.76436 0.00048791052 0.00047810889 0.00045711173 
 5866000    553.90034   -117.68645    1509.6971   -940.20278   -4101.3183    1328.6617 0.00048766002 0.00047798147 0.00045720884 
 5868000    542.95462   -117.20662   -2986.8692   -4688.0834    347.70346   -2065.4521 0.00048753948 0.00047800994 0.00045716644 
 5870000     533.8431   -117.99076    1767.1284   -298.80239   -895.00153    -4036.421 0.00048731796 0.00047819823 0.00045698587 
 5872000    439.39828   -118.17486    468.68135    1094.1352   -45.275298    2925.2942 0.0004870194 0.00047820581 0.00045669751 
 5874000    551.43669   -118.16805    174.45917    981.38107    1780.5538    -1485.427 0.00048691539 0.00047809321 0.00045685199 
 5876000    490.89646   -118.57887    2758.3341    1819.5117   -879.26481   -514.49878 0.00048675467 0.00047793343 0.0004571583 
 5878000    492.98769   -117.31798   -3928.7942    1903.5307     2883.485    3697.3086 0.00048661916 0.00047808383 0.00045695111 
 5880000    449.76727    -117.9424    56.040894    4966.0945   -115.99254    2340.2785 0.00048632462 0.00047885543 0.00045680376 
 5882000    455.11047   -117.12724   -3821.4684    2077.5196   -3676.7781    1323.0199 0.00048622409 0.00047922268 0.00045678024 
 5884000    456.61887   -118.33905   -1920.2031    4916.0083    333.38179    -1502.013 0.00048635995 0.00047915157 0.00045660359 
 5886000    549.35321   -117.26924    1366.8109   -1322.9878    537.56781    1153.4518  0.000486173 0.00047994434 0.00045683017 
 5888000    453.08294   -117.53347   -1294.2131   -2771.0559    363.83687   -1622.4439 0.00048619871 0.00048027961 0.00045690597 
 5890000    502.51011   -116.99614    3632.1875   -344.26021    1378.6052    1361.2027 0.00048602131 0.00048021481 0.00045676781 
 5892000    565.30326   -117.34101   -703.44876    2637.7031   -788.34646    706.88294 0.00048589071 0.00048005175 0.00045694145 
 5894000    517.03065   -116.99114   -242.58218    343.78037    -5482.217   -1608.7409 0.00048597288 0.00048000385 0.0004567996 
 5896000    519.41984   -117.31687   -586.50471    619.59568    673.94619   -4003.2821 0.00048626211 0.00047982274 0.00045668028 
 5898000    482.20398   -117.01801   -2476.0191   -726.86065   -574.15215   -3326.6539 0.00048620438 0.00047960135 0.0004566088 
 5900000    502.20818   -117.41725   -176.10673    5479.3387    -1249.367   -4256.3532 0.00048673521 0.00047944832 0.0004564714 
 5902000    525.11002   -118.09069   -1705.0958    1336.1878   -815.85683   -611.01639 0.00048647915 0.00047938816 0.00045656377 
 5904000    450.99457   -117.65143    162.82844   -3418.2072    1124.6567   -2003.1441 0.00048633474 0.00047915918 0.00045669338 
 5906000    494.67266   -117.90007   -1066.0703    1372.8161   -2009.3531    291.07647 0.00048614407 0.00047897372 0.00045657251 
 5908000    485.04732   -116.76249   -915.88482   -3658.5267    846.07877    -2499.977 0.00048637269 0.00047889129 0.00045653732 
 5910000    520.49736   -117.74824    23.230539    -794.2865    687.33845    1801.2379 0.00048644268 0.00047881102 0.00045649056 
 5912000    499.52253   -118.07847   -1700.6794    1081.1688    159.29437    1469.1727 0.00048650421 0.00047868701 0.00045645958 
 5914000    467.36608   -118.10142    2454.9115    334.23656    3690.8127   -7042.6749 0.0004863665 0.00047863213 0.0004565769 
 5916000    472.66402   -118.30102    -829.5316   -311.64102   -1725.8309    475.99893 0.00048643284 0.00047839533 0.00045660686 
 5918000    416.96704   -117.75234    788.98472   -238.71362   -1116.5747   -1343.1355 0.00048721104 0.00047891862 0.00045666697 
 5920000    509.21723    -117.3192    734.18096    1144.3617    3212.6582    6837.4833 0.00048763164 0.00047882787 0.00045667411 
 5922000    486.12931   -117.58814   -4689.1386    1000.9359    825.68449   -4359.1596 0.00048824201 0.00047886895 0.00045703259 
 5924000     442.8745   -117.66362     113.9095   -1769.4009    787.15804      156.468 0.00048865017 0.00047869973 0.00045732975 
 5926000     519.4264   -117.90014   -3903.5947   -451.84665    2887.1512   -1037.7004 0.00048863241 0.00047850958 0.00045715561 
 5928000    477.91584   -118.12911    183.97824    2308.3501   -3086.9661    733.69433 0.00048846035 0.00047838519 0.00045698111 
 5930000    488.19019   -118.33675    1110.3847   -2050.2905     205.8116    465.17664 0.0004884608 0.00047848779 0.00045685191 
 5932000    436.20532   -117.27578    312.69274    3193.2798    3178.6574    5911.5726 0.00048871025 0.00047943796 0.00045663954 
 5934000    497.70867   -117.93839    3592.0685   -135.13323   -2665.5061    480.11471 0.00048861613 0.00048040334 0.00045640574 
 5936000    526.44462   -117.25798    -2734.231   -789.19455   -4930.8273   -1894.3331 0.00048847431 0.00048088041 0.00045616743 
 5938000    528.85251   -118.06965   -652.40185    917.31364   -1587.0427   -2643.3932 0.0004883091 0.00048125851 0.00045622844 
 5940000    529.37543    -116.8959   -3009.1343    244.47732   -4578.3237   -4382.6387 0.0004883254 0.00048181635 0.0004565645 
 5942000    480.64234   -117.20588   -2462.1441    323.73699   -2291.5738   -1880.2673 0.00048820215 0.00048175995 0.00045651108 
 5944000     522.6521   -117.47142    203.22535   -3599.8123    1943.1207   -2007.4724 0.00048793856 0.00048151648 0.00045637439 
 5946000    492.93438   -116.65715   -2196.8669    1944.2038    84.041241   -341.19452 0.00048807267 0.00048175417 0.00045623198 
 5948000    485.10786   -116.45559    2841.5703   -1012.4473   -1525.6075   -2577.2455 0.00048799125 0.0004815453 0.00045625203 
 5950000    526.61795   -117.02552   -455.73683    1560.2657   -3875.7824   -289.91937 0.0004880556 0.00048147199 0.00045605668 
 5952000    517.88098   -117.68579   -1543.3213    328.41924   -820.59953   -2309.0457 0.0004879427 0.00048128394 0.00045592178 
 5954000    494.40235   -117.93853    407.01162   -1200.0983    7106.1252    1736.8261 0.00048768256 0.00048148443 0.00045578831 
 5956000    444.98236   -118.62798   -2944.5452   -2734.5715   -3050.4353   -21.714443 0.00048751997 0.00048134333 0.00045559004 
 5958000    524.17748   -119.03102     2135.125    4313.0856    3789.7313   -940.59413 0.00048762724 0.00048134418 0.00045554306 
 5960000    493.74712   -118.04317   -976.56899   -152.95907   -857.91175    1914.3832 0.00048756294 0.00048127083 0.00045539186 
 5962000    503.46914   -117.52612     998.3717    82.830208   -2694.3066    4154.0694  0.000487369 0.0004813148 0.00045536238 
 5964000    505.05798   -116.60277   -11.559478   -1546.7341   -3249.2032   -271.09822 0.00048720174 0.00048116933 0.0004552037 
 5966000    485.45965   -116.84901   -2287.8563   -1728.4994    554.21117    1858.0894 0.0004874482 0.00048093235 0.00045540547 
 5968000    503.90769    -118.3472    -528.5087    -5790.119   -2171.0458   -2689.6422 0.00048717794 0.00048089957 0.00045556606 
 5970000    530.25423   -117.37643   -2723.5556    2935.7872    249.58811    2526.7199 0.00048700958 0.00048076547 0.00045621022 
 5972000    520.61317   -117.74558    1913.3926   -1855.6889   -190.82377    1838.1908 0.00048696507 0.00048060761 0.00045601236 
 5974000    441.96989   -116.41731   -1326.9019    -2140.225   -133.94423    1690.2132 0.00048701793 0.00048058028 0.00045588357 
 5976000    551.76398   -118.29394    351.63867    2159.8852    516.70133    1498.4403 0.00048696904 0.00048072009 0.00045582262 
 5978000    488.76963   -118.07272    167.62118    2286.8853   -2848.9701    5615.6834 0.00048701733 0.00048062067 0.0004556323 
 5980000    515.60291   -118.05077   -3351.7293     2885.506     -3348.84   -2598.5744 0.00048693668 0.00048056902 0.00045564003 
 5982000    484.21969   -116.86985    1829.8887    6099.9725    557.56939    2867.0891 0.00048685616 0.00048040904 0.00045564908 
 5984000    612.87954   -117.38255   -3804.3037   -1549.5558   -2506.7877   -1504.4917 0.00048697684 0.00048039076 0.00045537392 
 5986000    534.92063   -118.59071   -406.16164   -3383.5254   -3690.0822   -2521.0877 0.00048708122 0.00048059779 0.00045523816 
 5988000    530.78649   -118.13216    63.280149   -3133.8452    1654.5287    5428.5113 0.00048731679 0.00048068755 0.00045512731 
 5990000    479.28454   -117.15242   -1355.1797    2239.0603    760.98122   -3976.6874 0.00048707128 0.00048171259 0.00045535193 
 5992000    498.88147   -117.07187    1860.8713   -891.40992   -4890.8977    4951.5467 0.00048689177 0.00048194136 0.00045540787 
 5994000    498.63286   -117.35976   -1155.9674    893.26296    330.83691    1207.6663 0.00048685374 0.00048186235 0.00045530639 
 5996000    467.81428   -118.17135    455.85069   -356.80717   -1216.0829   -2515.0775 0.00048693992 0.00048186707 0.00045517768 
 5998000    458.60879   -118.48262   -1042.4004     4143.519   -2790.5423   -5409.5352 0.00048685539 0.00048175981 0.00045503121 
 6000000    439.09437   -117.90443   -2194.5465    -2174.295    872.32091   -1448.6209 0.00048696008 0.00048162805 0.00045504318 
 6002000    469.89164   -117.79358    -175.4538    2147.8549   -2168.7475   -2103.1527 0.00048703146 0.00048142413 0.00045509874 
 6004000    488.63813    -116.8565     -2645.12    4702.4562   -3227.7381     2141.665 0.00048676816 0.00048127836 0.00045509855 
 6006000    516.41323   -116.61866    1488.4793   -137.37716    4196.7962   -1577.8108 0.00048690034 0.00048140463 0.00045504135 
 6008000     494.8819   -117.88315   -817.37068    3608.9384    1944.5415    1014.7801 0.00048681466 0.00048122539 0.00045484095 
 6010000    502.30024   -117.13323    680.72851    1140.4138    1643.0884   -2944.6957 0.00048713581 0.00048135453 0.00045472869 
 6012000    474.63897   -117.97556    405.69524    1813.2521   -1549.1274   -950.12312 0.0004869736 0.00048166402 0.00045517923 
 6014000    472.33897   -117.34259   -2869.8786    1245.4429    814.93672    139.60228 0.00048683188 0.00048183482 0.00045487984 
 6016000    480.18228   -118.13738     998.6512     1352.238    3671.6034   -1421.3437 0.00048674112 0.00048180481 0.00045468803 
 6018000    512.38338    -116.6044   -2798.8999    1570.4019   -2351.9614    1629.3024 0.00048646687 0.00048173883 0.00045458144 
 6020000    506.04971   -118.83511    341.93937   -2721.7122   -5124.7541    1654.9752 0.00048657895 0.00048168524 0.00045438859 
 6022000    480.46829   -118.45267   -492.31453    3203.2079    3973.9752    578.35352 0.00048670733 0.00048156814 0.00045425632 
 6024000    516.39341    -118.2192   -2445.3817   -1428.2853   -594.05259   -856.05578 0.00048668379 0.00048192984 0.00045411005 
 6026000     526.2647   -118.13056   -352.68871    1266.4571    1808.8705    3158.8308 0.00048656021 0.00048180145 0.00045410734 
 6028000    565.93637    -116.8419   -1881.5982   -5137.5551    3177.9649   -2645.9145 0.00048642304 0.00048176483 0.0004540389 
 6030000    507.48671   -116.89864    28.350002   -11.047514    -1459.475    1782.8741 0.00048627995 0.00048159214 0.00045392626 
 6032000     539.2154   -117.35591   -258.27501    2372.2557   -1427.6192    2008.9936 0.00048618857 0.00048217793 0.00045441351 
 6034000    544.58453   -116.93855   -528.75509   -2658.5362    884.65718    483.74252 0.00048594375 0.00048212581 0.00045459357 
 6036000    534.10265   -117.59834      235.648    1727.3382    2256.8252   -2170.6074 0.00048582507 0.0004825856 0.00045449265 
 6038000    534.60629   -117.37264    -837.4221   -1001.1376   -1869.3306   -1657.3948 0.00048577095 0.00048253395 0.00045435925 
 6040000    525.05053   -117.51228    924.20418    718.73407    896.69181    1453.5318 0.00048561326 0.0004826364 0.00045428936 
 6042000    498.62477   -117.10606   -655.05381    6.7705119   -692.37344    3628.1182 0.00048549773 0.00048245386 0.00045406274 
 6044000    505.77447   -117.12985     468.4636   -788.88426   -682.92643    344.94291 0.0004854055 0.00048225298 0.0004539807 
 6046000    531.02023   -117.65422     146.3049    736.70933   -375.85516     3774.186 0.00048515938 0.00048216847 0.00045388861 
 6048000    505.43041   -118.69825   -1991.7365   -2311.3659   -720.45836    4077.1309 0.00048515501 0.00048199969 0.00045376916 
 6050000    475.05347   -117.66612   -384.89389    731.69833   -5143.4668   -1868.8944 0.00048494922 0.00048195422 0.00045391169 
 6052000    575.01284   -117.62777   -2729.1878    1467.2746    2560.7306    1961.1917 0.00048482827 0.00048186914 0.00045407393 
 6054000    489.92137   -117.11939   -1632.1413    1176.9035   -1175.4211   -3.8213498 0.00048460272 0.00048188852 0.00045393861 
 6056000    531.31704    -117.7282   -770.59518    1122.7162   -1542.0182    4665.2254 0.00048451371 0.00048212844 0.00045395393 
 6058000    532.98824   -116.76932   -609.91514    -2393.297   -50.754067   -654.25227 0.00048451228 0.00048212828 0.00045362592 
 6060000    479.19377   -117.03525    3153.0408   -1183.1613   -4283.2983    158.42583 0.0004844412 0.00048231481 0.00045350659 
 6062000    514.39219   -116.40217    178.98356    3155.1105     1928.327    3857.9845 0.00048473309 0.00048218515 0.00045367376 
 6064000    520.42469   -117.75007    1684.7124     721.5904    1412.9824     1868.918 0.00048526749 0.00048221868 0.00045360597 
 6066000    457.39772   -117.84317   -1870.5527    2737.0381    1653.7377    5782.0798 0.00048584775 0.00048215174 0.00045339727 
 6068000    475.20027   -116.35821   -2566.5101    2238.6997     4878.366    -1469.705 0.00048565726 0.00048200086 0.00045328519 
 6070000    478.75622   -117.83229   -1342.1063    2550.0968    3193.7769   -1598.0926 0.00048553756 0.00048217093 0.00045318526 
 6072000    521.31087   -116.93242   -2850.1627   -2511.0469     817.8534   -348.14888 0.00048556424 0.00048216232 0.00045390167 
 6074000    529.62881    -116.6047    557.36606   -4371.8708    168.39904   -1693.7114 0.00048671535 0.00048200577 0.00045386824 
 6076000    497.50657   -117.75962   -647.31768    570.26651   -5740.4013    1896.9342 0.00048633833 0.00048243211 0.00045387138 
 6078000    517.79053   -117.99923   -919.07334    1598.4201    3148.4586   -2302.9979 0.0004862375 0.00048273389 0.00045375107 
 6080000    492.16212   -117.94081   -593.31183    271.03615    1086.0203   -364.53007 0.00048610131 0.00048264364 0.00045387156 
 6082000    531.83348   -116.73245   -524.68505    -2758.741    3022.3685    687.47058 0.00048613824 0.00048236729 0.00045423803 
 6084000    469.25426   -118.06804    1432.2527    2590.8397    599.17373    -959.1727 0.00048591643 0.00048220377 0.00045413679 
 6086000    469.21309   -117.83611     182.0618    1688.9364    1702.2571   -1866.1506 0.00048628775 0.00048213275 0.00045390316 
 6088000    498.39979   -117.16096    2785.1766    2505.3053   -1441.8529   -3294.3165 0.00048643672 0.00048231163 0.00045379138 
 6090000    523.98627   -116.86621    44.366082     1530.793     1291.888    176.01969 0.00048627452 0.00048239726 0.00045473463 
 6092000    528.27779   -116.84629   -1544.7248    2572.6015    2076.9455   -2805.4024 0.00048597151 0.00048289267 0.00045450754 
 6094000    504.92943   -116.52979   -1161.1967    193.84652   -249.70869    -169.1943 0.00048578848 0.00048253381 0.0004544034 
 6096000    520.33416   -117.11759   -2763.7658     1244.136    649.71029    3148.9506 0.0004856916 0.00048250241 0.00045430761 
 6098000    584.67474   -116.26742    265.01827   -3577.5424    448.14712   -1486.3784 0.00048557596 0.00048243218 0.0004542279 
 6100000    491.72045   -116.78774     251.0056   -2977.0968    2536.5685    2785.4035 0.00048544659 0.00048228972 0.00045424958 
 6102000    483.08954   -117.27065    765.64945    4025.3742   -1285.5831   -2770.3967 0.00048534305 0.00048233569 0.00045482789 
 6104000    528.78571   -118.16046    284.13806   -4582.1903    1251.9715     3736.997 0.00048541645 0.00048243095 0.00045489736 
 6106000    491.90228   -117.84889   -2117.1755    1233.8997    2066.7291   -1001.9969 0.00048534476 0.0004826254 0.0004557915 
 6108000    470.98651   -118.09529   -1090.2713   -1184.8408   -2383.5876    4371.5059 0.00048521213 0.00048302128 0.00045598228 
 6110000    513.98842   -117.17721   -1141.4055    330.17128    539.11285    936.89116 0.00048534656 0.00048347515 0.00045589941 
 6112000    512.28204   -117.47143    375.88841   -3190.0836   -374.08879   -5734.0364 0.00048535674 0.00048390033 0.00045571636 
 6114000    561.80185   -117.97419   -1592.3653    1703.3336    4297.0986   -68.112099 0.00048537725 0.00048380424 0.00045566844 
 6116000    504.34097   -118.09114     274.0509   -1113.3342   -3348.4255    823.79074 0.00048564448 0.00048363763 0.0004555383 
 6118000    503.16044   -118.37475   -993.14843   -140.19812   -891.97489   -1244.4983 0.0004859428 0.00048376125 0.00045585543 
 6120000    482.58038   -117.69049   -2362.6029    1945.4832   -4423.4441   -2374.5176 0.00048572948 0.00048368881 0.00045587114 
 6122000    478.57669   -117.53644    166.73891    1859.1049    839.09571   -4098.1177 0.00048560552 0.0004836291 0.00045564641 
 6124000    516.28506   -118.04925   -2311.1561    1140.6067    1385.4315    1240.3403 0.00048543269 0.00048360062 0.00045557447 
 6126000    507.16297   -117.54031     1786.636   -2160.8225    1680.8598    400.31635 0.00048536831 0.00048402374 0.00045553523 
 6128000    498.50765   -116.42636    646.21535   -43.659542    1413.7755    6365.5323 0.00048538542 0.00048389321 0.00045564647 
 6130000    539.40191   -117.70803    468.02733   -1574.2609    2971.4205    1491.5896 0.00048535098 0.00048370159 0.00045544321 
 6132000    476.99696   -117.44078    1755.7175    1996.3506     3089.314    2885.7357 0.0004852225 0.0004835736 0.00045527777 
 6134000    490.14175   -118.39558   -2912.1505   -345.30291    774.13071   -1910.7405 0.00048507734 0.00048344403 0.00045513622 
 6136000    544.45402   -117.32211   -818.05747   -3801.1525    1904.5181    -155.6098 0.00048494611 0.00048348665 0.00045506866 
 6138000    500.65172    -117.7621   -1347.0638    3187.2933    1880.0084     884.5868 0.00048482264 0.00048341163 0.00045495104 
 6140000    470.35157   -116.66696   -1218.0718   -309.37889   -759.86454    339.87729 0.00048467458 0.00048328365 0.00045545565 
 6142000     500.7054   -116.84152    851.14877   -2206.3242    789.73338    2585.7112 0.00048455426 0.00048315573 0.00045577056 
 6144000    488.05277   -116.78515   -1116.9403    289.31248   -1597.1301   -1444.7294  0.000484425 0.00048309953 0.00045548821 
 6146000    465.61514   -118.68478    2200.9309   -1543.2232    834.04836    -4663.498 0.00048436835 0.00048334572 0.00045538177 
 6148000    489.22645   -117.33048   -1130.0805   -1761.7665    1466.0114    2908.9499 0.0004841926 0.00048334035 0.00045529763 
 6150000    429.19567   -118.26396   -150.11174     1164.954    2127.2571   -3288.8672 0.00048415391 0.00048317372 0.00045547795 
 6152000    466.73546   -118.03436   -1281.2479    4295.3157   -1790.4312    3468.4825 0.00048398679 0.00048308422 0.0004553446 
 6154000    572.23223   -117.50865   -1497.2468    694.22506    970.72977   -1813.7314 0.00048396374 0.00048337554 0.0004552116 
 6156000    540.95037   -116.69737    1968.6868     -1771.17   -516.43343    123.36046 0.0004839493 0.00048333905 0.00045517566 
 6158000    498.20917   -118.29906   -1386.6778   -1127.9819   -106.94374    1407.6344 0.00048391511 0.00048311657 0.00045514078 
 6160000    496.73977   -117.21181    1463.9128   -1003.0528    3484.2499    467.10288 0.00048372742 0.00048325247 0.00045516742 
 6162000    487.74896    -117.3881   -556.65549    3313.4266    693.48977    1941.3141 0.00048354955 0.0004828511 0.00045496679 
 6164000    584.46675   -118.15298   -2070.9134    1315.3908    1228.8172    35.813972 0.00048352346  0.000482844 0.00045499325 
 6166000    433.15615   -118.79259    375.30418     738.6267    2580.6153    1773.3813 0.00048333237 0.00048267246 0.00045505754 
 6168000    484.91235   -116.47584   -2128.6626   -134.08269   -1154.8305    1499.4146 0.00048334311 0.00048259397 0.00045497834 
 6170000    543.74966   -117.38902    2130.9663    -4309.353   -1647.0121    4.8088731 0.00048304842 0.00048246882 0.0004548314 
 6172000    415.29619   -117.16945    575.82595    1044.7099    7034.3352   -287.92684 0.00048301174 0.00048230775 0.0004545898 
 6174000     481.0281   -117.44926   -382.13898    77.446658   -1247.0674    -1922.268 0.00048354229 0.00048217426 0.00045458967 
 6176000    483.67413   -117.50966    978.78549    -1337.852    3029.4311    234.73037 0.00048343158 0.00048195325 0.00045456269 
 6178000     489.6247    -117.9009   -3573.4578    3191.3948   -971.34297    1164.1096 0.00048333897 0.00048169255 0.00045441368 
 6180000    507.58844   -117.02666   -724.08728    218.19593   -1948.2113   -18.460456 0.00048351523 0.00048181225 0.0004543767 
 6182000    523.02874   -116.48718   -1572.0459    1495.3239   -1202.8159    1292.2014 0.00048406249 0.00048179489 0.00045479622 
 6184000    552.75198   -115.78657   -569.49542    1594.0193   -1987.3599     982.0186 0.00048423729 0.00048170569 0.00045462618 
 6186000    503.90521   -117.75279    1196.0886   -4954.3126    -4869.561    2239.5951 0.00048442336 0.00048180863 0.00045427466 
 6188000    491.10617   -117.29131   -1033.5096    5551.3254   -347.69669    1296.0978 0.00048435109 0.00048160035 0.00045427511 
 6190000    481.28269   -117.54351    775.89484   -3267.9783    3185.9057    531.82775 0.00048412724 0.00048143537 0.00045414146 
 6192000    463.09119   -117.57575   -362.74699   -919.35123   -34.971758    1089.1401 0.00048414394 0.00048123966 0.00045401473 
 6194000    520.66106   -116.38452   -1106.8447   -2841.1331   -740.60899   -6591.0267 0.00048435889 0.00048108579 0.00045377719 
 6196000    500.01538   -118.33988    275.91568   -1176.6538   -597.85898    -1667.477 0.00048450918 0.00048096462 0.00045367734 
 6198000    528.98193   -118.53806     -1148.58   -2153.1776   -393.56448   -423.61521 0.00048495797 0.00048100541 0.00045395004 
 6200000    486.82121   -117.15587    1126.1433    2416.9221   -2760.5824     578.3286 0.00048516252 0.00048100048 0.00045446118 
 6202000    439.26601   -117.18001   -1704.5494   -3511.7438    3453.8607   -341.84907 0.00048494226 0.00048140948 0.00045425691 
 6204000    504.07272   -117.73489     -746.437   -2160.9461    1082.6787   -1586.5586 0.00048503841 0.00048113395 0.00045418064 
 6206000    564.27315   -117.53511   -1591.8221   -578.00384    1021.1165    3049.7084 0.00048488072 0.00048116443 0.0004543307 
 6208000    444.89266   -116.90298   -1394.4079    2515.2452   -644.97076   -1845.6228 0.00048486636 0.00048092147 0.00045426628 
 6210000    526.63449   -118.14213   -1125.1595   -2180.9417    2502.8844    6106.0567 0.00048487321 0.00048084371 0.00045418264 
 6212000    481.28357   -117.47455   -2090.3845    2229.4529    3127.3325   -3355.3048 0.00048480113 0.00048096591 0.00045404161 
 6214000    492.30276   -116.93228    1459.5415    1322.8016   -310.09962   -234.40108 0.00048469355 0.00048090148 0.00045412022 
 6216000    472.57001   -118.62649   -822.39064   -1848.4796    785.56835    985.54404 0.00048491355 0.0004811142 0.00045405985 
 6218000    495.33239   -117.37035    15.100673   -1150.4625   -2677.0208    940.43204 0.00048487161 0.0004816786 0.00045386362 
 6220000    473.20409   -117.73617    180.09214    847.74401   -3379.1334   -1016.1737 0.00048471916 0.00048159739 0.00045365719 
 6222000    544.11507   -118.03959   -1095.7424   -4563.1236   -444.35162   -1200.3414 0.0004845967 0.00048146247 0.00045391119 
 6224000    478.38986    -117.4947     561.4996    1471.4509   -1227.0939   -883.26275 0.00048438888  0.000481525 0.00045383536 
 6226000    501.70142   -118.70454   -2088.4897    3741.5499   -2806.2126   -5188.3883 0.00048430324 0.00048152463 0.00045375943 
 6228000    469.28695   -118.00519   -305.78974   -1294.8076    -3627.639    169.52519 0.00048471793 0.00048134491 0.00045364333 
 6230000    477.26908   -117.79812    575.09273    4816.1929    -236.2485   -216.60374 0.00048462097 0.00048149668 0.00045363156 
 6232000    508.01246   -118.34065   -845.61098    -588.8905    275.58544   -1347.8481 0.00048447953 0.00048130708 0.00045360562 
 6234000    518.95423   -117.58482   -158.20159    244.59537    2271.2329   -1640.2035 0.0004846162 0.00048123832 0.00045351442 
 6236000    526.80541   -117.37524   -1643.5592    1270.1638   -1983.3998    3027.6099 0.00048439957 0.00048143643 0.00045337398 
 6238000    464.79791   -118.18794   -1326.5901    964.86997   -2172.0499   -505.66552 0.00048428376 0.00048153575 0.00045326282 
 6240000    518.11139   -118.08586    -485.0627   -656.40249    4971.5754    834.74566 0.0004841465 0.00048134106 0.00045311599 
 6242000     504.1865   -117.40775    -464.8332    -2357.923    1585.1217    4685.1253 0.00048451713 0.00048113965 0.00045317098 
 6244000    488.93428   -118.01433     932.9445    1101.9181     -4861.61   -450.44296 0.00048438025 0.00048110057 0.00045348237 
 6246000    525.02443   -116.59658   -513.31738   -4847.9953    2576.6646    2254.8209 0.00048446255 0.00048095975 0.00045340143 
 6248000     502.6976   -117.60306   -1052.6683    1970.6614   -2482.5941    2634.7763 0.0004843174 0.00048081051 0.00045323639 
 6250000    460.92106   -117.91536   -972.92936   -59.528614   -1735.4751   -2270.0423 0.00048416425 0.00048059058 0.00045309595 
 6252000    481.14697   -117.47778   -2799.1131    1705.0986    2563.5393   -1093.3802 0.00048401811 0.00048055108 0.00045295909 
 6254000    521.90316   -117.72902    89.503531   -2677.2036    1809.5476    4133.1522 0.00048388379 0.00048045648 0.00045272944 
 6256000    519.41714      -116.75   -1456.8183   -2958.6493   -7035.5642    2207.7946 0.0004838577 0.00048029817 0.00045245251 
 6258000    502.80795   -117.39772   -1174.2093   -2631.2695   -1360.5062   -3976.7993 0.00048396171 0.00048007718 0.00045240383 
 6260000    525.76652   -116.05858    729.74709    1445.6603    916.02485    3473.5332 0.00048377192 0.00048009835 0.00045240475 
 6262000     444.2834   -116.72353   -733.65523   -211.74763   -6172.1511   -214.01659 0.00048393869 0.00048016772 0.00045230669 
 6264000    454.43686   -117.62692    191.06469    1434.8118   -2457.5718    1058.1807 0.00048415849 0.0004803211 0.00045373042 
 6266000    556.04442   -117.85872   -2278.5862    1158.1354    973.48172    965.89687 0.00048406777 0.00048012293 0.00045334621 
 6268000    472.03755   -117.74923    167.64016    665.64675   -3500.1985     4829.463 0.00048407049 0.0004800179 0.00045330235 
 6270000    438.01488   -117.98762   -985.67921   -952.04675    2626.5194    4609.0734 0.00048475036 0.00047985073 0.00045318217 
 6272000    527.16927   -117.31838    422.36248   -880.68724    1118.0256    1109.4137 0.00048530387 0.00047993654 0.00045294393 
 6274000     580.3887   -118.42655    2827.2854    219.95576    1105.0429    1545.8697 0.00048513191 0.0004810205 0.00045340722 
 6276000    548.66622   -117.43649   -1953.3921    2272.4178    1081.7851    5128.7777 0.00048491997 0.00048117376 0.00045337147 
 6278000    462.19457     -118.109    803.04294   -857.34604   -5861.1396   -2964.2979 0.00048486836 0.00048116924 0.00045340377 
 6280000    537.48604   -118.16399   -2377.1507    -368.5167    4081.4738   -283.39913 0.00048469836 0.00048122727 0.00045338521 
 6282000    503.62946   -118.33596    -1874.696    -3654.916   -629.14651   -2822.7034 0.0004847102 0.00048107008 0.00045327169 
 6284000    456.12707   -117.92519   -1404.7265    934.76947   -2031.6557   -1365.5408 0.00048462872 0.00048117243 0.00045311466 
 6286000    484.45215   -116.53043   -4747.3098   -3988.3141    2153.7745     4906.619 0.00048478768 0.0004812728 0.00045300564 
 6288000    493.48782   -116.64165    1151.9424    -753.2753   -1416.5996    3141.2276 0.00048500869 0.00048099217 0.00045275118 
 6290000     542.4873   -118.18796   -1730.9702    1166.8363    166.88188   -643.57268 0.00048496957 0.00048096828 0.00045265753 
 6292000    473.78325   -116.96047    619.51087   -8221.6247   -4408.2841    2210.8189 0.00048493226 0.00048074145 0.00045246217 
 6294000    464.73543   -117.08883    1869.5812    4614.3031    14.597985    4132.2186 0.00048504484 0.00048079462 0.00045235359 
 6296000    455.98691   -117.12929   -1418.6253    1108.2183   -2820.8977    2782.8003 0.00048528664 0.00048075295  0.000452248 
 6298000    545.88569   -116.94644    3066.2436    1630.5381   -1304.8121    1398.1067 0.00048513312 0.00048053802 0.00045222946 
 6300000    448.41591   -117.38543   -2882.2717   -2662.5336   -577.79081   -3159.6709 0.00048491216 0.00048037739 0.00045206572 
 6302000    552.10224   -116.72133    1970.0216     -3054.95    913.31178   -578.46246 0.0004848517 0.00048020754 0.00045192569 
 6304000    458.09258   -116.44207   -1511.3332    3128.3698    3375.6789    2137.8007 0.00048503552 0.00048025297 0.00045177497 
 6306000    483.17427   -118.23766   -3042.8027   -3064.9291    1216.5581   -1937.4713 0.00048512713 0.00048014489 0.00045202952 
 6308000    517.60073    -118.0649     1370.124   -645.12995    850.80554    2919.6304 0.00048502435 0.00047997305 0.00045199865 
 6310000    470.33082   -118.15626   -6367.2179    886.28561    5028.9219   -3598.4103 0.00048516771 0.00047982539 0.00045189249 
 6312000    550.98231    -116.6223     1448.203    1272.7168   -664.75051   -465.56479 0.00048505094 0.0004804756 0.00045174139 
 6314000    514.34611    -117.5381   -337.24199     4294.978    1754.3162   -3735.1011 0.00048493861 0.00048052948 0.00045159286 
 6316000    444.11545   -116.98074    54.206332    1221.8992   -5275.9409   -2826.1245 0.00048477627 0.0004802154 0.00045139786 
 6318000    463.94098   -118.36725    2570.3619   -810.61917   -1899.6925     -1764.39 0.00048460595 0.00048149503 0.0004518732 
 6320000    514.67557   -117.94805   -1223.3948   -923.77142   -2494.4388   -2650.3117 0.00048459841 0.00048110004 0.00045167158 
 6322000    532.14788   -119.45048    1154.1361   -1460.3075   -1234.3811   -4313.2471 0.0004846803  0.000480981 0.00045153988 
 6324000    488.54483   -117.48512   -1937.8749    816.67188   -6426.3422      315.337 0.0004847033 0.00048097848 0.00045185007 
 6326000    469.93431   -117.28053    -1215.216   -386.04096    3185.2008   -1671.3025 0.00048465356 0.00048088706 0.00045199787 
 6328000    521.73694   -117.68309   -684.75136   -5404.4135   -1016.8783   -1317.4136 0.00048453653 0.00048086987 0.00045194688 
 6330000    547.29021   -117.36553   -2553.9038   -1203.8638    7.0120096    919.30711 0.00048460474 0.00048158977 0.00045192451 
 6332000    505.61479   -117.36095    1694.0581   -2984.4191    -6062.617   -741.16144 0.00048462317 0.00048162221 0.00045260743 
 6334000    451.89199   -116.15037   -1091.8216   -4375.4083    -453.1632   -2960.6597 0.00048448012 0.00048171451 0.00045260643 
 6336000    516.28042    -116.8076    205.07779    668.38096    -1648.018     3052.137 0.00048439301 0.00048170036 0.00045277684 
 6338000    482.92172   -118.83622   -1716.6432    223.90407    1853.9733    1792.5817 0.00048421776 0.00048153205  0.000452605 
 6340000     553.0543   -118.32155   -545.75522   -563.23354   -499.39746    797.28271 0.00048409699 0.0004817489 0.00045250161 
 6342000    484.79837    -117.3766   -56.924599   -637.22867    3177.4957   -2356.0374 0.00048393764 0.00048159917 0.00045234683 
 6344000    474.02478   -117.30938    78.680957    3127.8397    1362.5437   -1438.7636 0.00048387958 0.00048144865 0.00045215938 
 6346000    516.63368   -117.80044    1670.2166   -2035.2556   -4210.0319    915.37431 0.00048391783 0.00048131741 0.00045239314 
 6348000     509.6843    -118.4825    -891.3491    2769.1095    2392.4261    4490.9345 0.00048499954 0.0004811641 0.0004523394 
 6350000     480.0773   -117.66673   -368.60459    -3004.342    2608.2323   -832.44604 0.00048491292 0.00048097344 0.00045225178 
 6352000    573.41598   -116.83075   -1153.7088   -788.71339   -1382.8814   -200.91705 0.00048500129 0.0004809432 0.00045227796 
 6354000    549.93781   -117.39386   -2298.3287   -1003.0543    1214.3046    4263.1312 0.00048502167 0.00048083082 0.00045228381 
 6356000    490.73376    -116.8486   -245.85783   -199.56758   -62.597063    -2174.666 0.00048467515 0.00048076107  0.000452122 
 6358000    481.14947   -116.34265   -1265.1129    3328.5642   -1255.4523    6246.9852 0.00048432067 0.00048062972 0.00045200892 
 6360000     515.1953   -118.20075    834.15954    2367.5601    1722.5996    3183.1355 0.00048426304 0.00048051441 0.00045190538 
 6362000    527.38678   -117.62561   -290.21834    212.76444   -394.82302   -2007.7775 0.00048414689 0.00048058202 0.00045238519 
 6364000    527.14215   -117.75012   -1988.3325   -2900.2733    -1326.216    611.18871 0.00048397093 0.00048031408 0.00045263964 
 6366000     500.5058   -118.07905   -1573.4532     5021.621    3920.4494    3281.4744 0.00048401806 0.0004801398 0.00045303646 
 6368000    518.81783   -118.00332   -2008.6098   -2099.0055   -1754.1094    6275.9128 0.00048408852 0.00048011767 0.0004529934 
 6370000    480.81173   -118.59353     1608.154    321.90014    2791.6801    135.68398 0.00048398393 0.00048001756 0.00045278763 
 6372000    510.64652   -117.33907    1753.6008   -1909.1993   -1197.6599   -2217.1591 0.00048396803 0.0004800894 0.00045267316 
 6374000    485.80069   -117.47593    602.04679    98.051423   -4121.7906     302.9476 0.00048380685 0.00048001387 0.00045248988 
 6376000    471.80813   -116.69717   -109.11633   -2619.9064   -6991.5357    682.90609 0.00048370013 0.0004798629 0.00045233139 
 6378000    514.42366    -117.5189   -3234.8309   -159.29382   -3867.2264   -854.66984 0.00048348881 0.00047978445 0.00045224874 
 6380000    523.34916   -116.70973   -2225.7531   -1312.4647     1862.131    960.16508 0.00048341218 0.00047966719 0.00045199749 
 6382000    512.40599   -118.69691   -3364.6981     2526.513    3896.5587    937.50478 0.00048334851 0.00047953458 0.00045187321 
 6384000    498.55515   -117.84917    328.17466   -2672.1673    4736.1498    781.99983 0.00048316128 0.00047950808 0.00045169915 
 6386000     514.3713   -116.90074     1780.037    5855.8428    -3537.789    1440.6261 0.00048319207 0.00047935539 0.00045152408 
 6388000    508.44414   -118.47094     1557.049    -74.22473   -702.79534   -2811.8589 0.00048305289 0.00047914202 0.00045136068 
 6390000     481.1455   -117.57274    3124.5796    -2281.517    4921.9243   -4093.8275 0.00048293684 0.00047892563 0.00045121948 
 6392000    500.85267   -116.42499   -1031.7167    372.59139   -343.63363   -493.37285 0.00048278818 0.00047879282 0.00045131906 
 6394000    456.48888   -116.92798   -907.45625    814.68441     1396.375   -2874.0746 0.00048263607 0.00047874503 0.00045125106 
 6396000    536.25228   -118.77125   -3550.2451   -4842.7058    2507.9916    -2041.244 0.00048236886 0.00047876654 0.00045109098 
 6398000    565.33404   -117.90788   -1934.4956    2411.1774    -3239.704    1560.1305 0.00048226045 0.00047867538 0.0004509925 
 6400000     551.2999   -117.47562    443.18191   -4819.0916   -2067.8244    273.38432 0.00048224143 0.00047850267 0.0004508671 
 6402000     509.5768   -118.10939   -1121.4168    754.09206   -1482.6345   -278.34978 0.00048251398 0.0004783772 0.00045078196 
 6404000    500.10226   -117.05844    2166.3701    61.416406   -280.64616    3190.1106 0.00048245167 0.00047830414 0.00045057068 
 6406000    495.55786    -115.6455   -652.36705   -4676.6143    4359.5924    5474.4127 0.00048233938 0.00047859474 0.00045047858 
 6408000    508.84813   -118.06906   -1049.3325   -4336.8806    -1274.132   -4942.4056 0.00048224624 0.00047885226 0.00045030815 
 6410000    534.23269   -117.55987    641.05023   -3525.9921   -400.79388    4594.5191 0.00048218238 0.00047866806 0.00045026561 
 6412000    526.31476   -117.52944   -2424.6116    -2934.503   -595.16334   -259.57969 0.00048200144 0.00047860521 0.00045009729 
 6414000    478.85756   -118.03395    2740.2803    1164.1722   -5794.3158   -91.987506 0.00048225293  0.000478526 0.00044997608 
 6416000    544.39977    -116.8185   -515.75797    346.43975   -951.14867   -1006.7591 0.00048252066 0.00047843101 0.00044991254 
 6418000    493.33612   -117.48748   -3.4296208   -1883.4399    4023.5263    3692.3731 0.0004824862 0.00047865355 0.00044985261 
 6420000    529.43728   -116.91603   -886.33528    1212.9859    737.21488    4629.3533 0.00048318258 0.00047873803 0.00045004454 
 6422000    532.89078    -117.0977   -3330.2427   -1685.1283    3234.6098   -589.56172 0.00048322887 0.00047859878 0.00044998113 
 6424000    537.03627   -117.92836    94.884605    413.21064   -3880.9511   -1094.6172 0.00048339645 0.00047910533 0.00044990899 
 6426000    477.85543   -118.00008   -1426.7262   -1322.1016   -1233.0919    3253.7051 0.00048332174 0.00047895203 0.00044983258 
 6428000     520.4664   -118.01974    688.85262   -3333.0152    500.33279   -2316.6632 0.00048321705 0.0004789263 0.00044971225 
 6430000    453.78273   -117.00207    831.59809    -57.41448   -1923.2161   -4069.4375 0.0004831411 0.00047866205 0.00044980582 
 6432000    473.49847   -117.77147    322.18316    650.33591    4382.1923    1034.9022 0.00048296366 0.00047848465 0.00044993208 
 6434000    525.53438    -117.9612   -249.97094   -2324.8151      119.629   -3926.3349 0.00048284947 0.00047843732 0.00044994849 
 6436000    556.49417   -117.77873   -1298.8201    457.42074    194.81407    409.26249 0.00048277949 0.00047844001 0.00044979491 
 6438000    446.95605   -117.85141     263.0796   -5690.6859    1670.0529    2812.3976 0.00048258944 0.00047825182 0.00044962903 
 6440000    471.59265   -117.57474   -1569.0023   -535.37774   -406.12633   -1318.0107 0.00048303183 0.0004781713 0.00044954356 
 6442000    458.27583   -117.02343   -68.760133    -3758.058    3517.7391    1012.9055 0.00048291438 0.00047826956 0.00044967918 
 6444000    484.15258   -117.23115   -615.43304     -2264.52     2273.847    3690.5631 0.0004832773 0.00047812335 0.00045023288 
 6446000    462.75636   -117.29912   -1710.1884     1057.785    -496.9158     2345.406 0.00048368656 0.00047806878 0.00045014997 
 6448000    555.18651    -118.4382   -579.54007   -1413.3448   -2345.8346   -4493.0006 0.00048384647 0.00047805617 0.00045024019 
 6450000    542.24258   -117.24463    -965.4677   -612.93758     2620.388    246.36803 0.00048448728 0.00047795568 0.00045087405 
 6452000    488.91782   -117.00535   -687.67078    3889.8353   -376.00685    1198.9055 0.00048467587 0.00047782326 0.00045106937 
 6454000    495.82149   -117.59401   -221.84734    560.03417    3559.2685   -4151.3915 0.00048452097 0.00047773575 0.00045096166 
 6456000    563.10633   -116.91338   -289.64815    3496.4767    2814.0622   -2044.4178 0.00048431213 0.00047766095 0.00045123932 
 6458000    520.70805   -116.72846    1907.4636    4385.6531   -3091.4725   -120.07438 0.00048412849 0.00047750886 0.00045147118 
 6460000    488.86957   -116.73585   -596.47584   -531.33142    1018.5711    2242.4034 0.00048390739 0.00047739135 0.00045141942 
 6462000    576.07987   -117.39474   -1004.8888    2146.6023   -2288.6933    1211.7892 0.00048435678 0.00047739591 0.00045144435 
 6464000    424.52987   -117.32562   -1692.7952    1307.9835   -962.24508     962.6232 0.0004845891 0.00047739642 0.00045164656 
 6466000    513.31411    -118.3291     -2777.66    4690.5795    76.956522   -654.83836 0.00048449194 0.00047727419 0.00045156367 
 6468000    460.93373   -118.06709    166.02901      2412.66   -3887.9793    812.48673 0.00048439121 0.00047768001 0.00045169341 
 6470000    503.90804   -117.17449   -1012.2242    1920.2548    1257.3585   -894.75546 0.0004844013 0.00047771531 0.00045167216 
 6472000    485.73318   -117.10294    2357.3095    1963.8002   -1838.1175    507.66553 0.00048454459 0.00047757891 0.00045153646 
 6474000    508.81987   -117.44891    1277.2068    2885.6683    884.11809    559.90252  0.000484354 0.0004775949 0.00045146303 
 6476000    471.21596   -117.51945   -1625.0402   -4817.7264    1443.9357    3496.0012 0.00048424246 0.00047757094 0.00045129741 
 6478000    507.06232   -117.53278    848.95441    2967.8187    -1435.563   -6489.1463 0.00048466281 0.00047774899 0.00045119925 
 6480000    529.55594   -116.77264   -1834.6174   -5330.1248   -2854.6488    928.56702 0.00048458084 0.00047804555 0.00045120415 
 6482000    518.41578   -117.20562   -1024.3303    5084.8525    823.71557     4635.113 0.00048519343 0.0004786589 0.00045109884 
 6484000    517.47613   -117.09063   -398.60444    2526.7374   -16.719976    228.69484 0.0004854724 0.00047866881 0.00045121262 
 6486000    483.42118   -116.73431   -1513.5955    2968.6173   -1202.5176    1704.6711 0.00048531193 0.0004788503 0.00045110047 
 6488000    565.34876   -118.55232   -361.91255    2984.0586    2601.8735   -4547.9522 0.00048513903 0.00047892307 0.00045099019 
 6490000    485.64591   -118.05747   -804.67806    -2098.425   -1904.5797   -1070.7428 0.00048525995 0.00047895141 0.00045092204 
 6492000    525.59573   -118.14431   -837.43721   -2131.9443    4323.6148   -2063.1341 0.00048527977 0.00047880125 0.00045073996 
 6494000    535.75922   -118.60776   -971.47861    1601.8997   -689.91889   -2705.0324 0.00048512456 0.00047866481 0.0004506268 
 6496000    503.63108   -116.31187    308.67557    351.58835   -1823.9865   -4829.8946 0.00048509526 0.00047856071 0.00045059869 
 6498000    504.69766   -118.24911    -114.2013    4996.9112   -2159.4525   -166.79104 0.00048509004 0.00047929983 0.00045051671 
 6500000    547.99191   -116.49017   -711.74768    633.51349    3212.3696   -2262.1961 0.00048535483 0.00047943862 0.00045108906 
 6502000     539.4498   -116.18184    1649.4299    5309.1202    1355.0179    1659.3371 0.00048539866 0.00047943975 0.00045145371 
 6504000    501.17127   -117.83228   -1639.0713   -188.76407    2536.8338    -7553.984 0.00048533115 0.00047939165 0.00045148951 
 6506000    489.16779   -118.10875   -913.54552    -1598.953   -485.44241   -2590.7886 0.0004852381 0.00047926137 0.00045136712 
 6508000    530.32416   -117.34603   -744.25772    3758.3828    1073.5719   -2219.3184 0.0004851924  0.000479237 0.00045125322 
 6510000    502.29796   -116.82349   -1653.7528   -2157.8046    1528.3764   -221.91432 0.00048515422 0.00047913682 0.00045111923 
 6512000     526.7649   -116.66885    594.71835   -1969.6411   -1274.5199   -3535.3794 0.0004850641 0.00047920819 0.00045119111 
 6514000    579.99402   -117.52789    1439.7288   -2898.3129   -213.08237   -331.89183 0.00048505423 0.00047911592 0.00045119051 
 6516000    495.64085   -118.04139   -216.13173    470.53938   -2026.7628   -4809.5387 0.00048489614 0.00047914972 0.0004510292 
 6518000    556.01115    -117.5554    1748.0343    709.72301    4308.0773   -270.50769 0.00048474624 0.00047908134 0.00045090576 
 6520000    533.26547   -117.52308    221.81343   -6215.6774    302.25386    1913.0972 0.00048457199 0.00047915592 0.00045128589 
 6522000    482.99554   -117.06887    760.38603     1002.306    3405.5679   -2860.1299 0.0004845022 0.00048026598 0.00045162105 
 6524000    480.42171   -116.55937   -241.12136     3293.525    1545.3387    1366.5531 0.00048444788 0.0004807278 0.00045151292 
 6526000    414.04314   -116.89352   -4100.6451    2288.6823   -610.74325   -1055.9285 0.00048503221 0.00048041461 0.00045186234 
 6528000     463.4556   -116.15399   -703.15504   -2515.2513    676.70124    2569.1769 0.00048485997 0.00048025159 0.00045193861 
 6530000    484.75474    -116.6008   -2326.4437    2434.3085   -4070.9929    -154.2546 0.00048472907 0.00048015258 0.00045184288 
 6532000    527.30694   -116.79516   -599.57194   -575.17671    341.53091   -3588.5627 0.00048472068 0.0004799721 0.00045173546 
 6534000    550.31448   -117.68055    1632.0511    -751.9983   -1649.8001    5301.5489 0.00048490048 0.00047992125 0.00045160023 
 6536000    514.92552   -118.03015   -1949.3579   -1590.3936   -3580.9152    4466.3435 0.00048476976 0.00048001196 0.0004514973 
 6538000      510.729    -118.0061    1147.1532    4543.1869    3287.9762     484.9051 0.0004846174 0.00047990937 0.0004516162 
 6540000    532.86606   -116.96239   -1986.9345   -4763.7359    4906.8041   -7072.6969 0.00048455233 0.00047982945 0.00045178435 
 6542000    453.95148   -117.76445   -1260.0992    584.65638    964.32047   -3368.6356 0.00048436774 0.00047968868 0.00045174702 
 6544000     457.8875   -117.00351    1014.0144    2169.5911      1964.15   -1896.3788 0.00048420034 0.00047964141 0.00045168303 
 6546000    438.81697   -118.31726   -1601.0685   -3890.0114    3048.7608   -1935.6662 0.00048406681 0.00047954967 0.00045156733 
 6548000    464.88322   -117.98127    814.12109   -4196.4307   -3089.9823   -145.19587 0.00048396012 0.00047939538 0.00045153222 
 6550000     501.4906   -117.70261   -1495.2245    108.15923   -1699.0265   -3709.7872 0.00048418952 0.00047926862 0.00045134607 
 6552000    503.09074   -115.89902    398.88652    5409.4914    -4968.561     5104.611 0.00048405734 0.00047934624 0.00045131991 
 6554000    468.76117   -117.36764   -1794.8133    557.13425   -3948.0674   -302.88721 0.00048414566 0.00047930323 0.00045127743 
 6556000    513.17524   -117.06618   -1050.8473   -522.67576     295.1545   -1307.7272 0.00048398049 0.00047923708 0.00045115911 
 6558000    480.92328    -118.2418     34.60239   -10.347526   -1803.5015    5834.8571 0.0004838249 0.00047920882 0.00045101628 
 6560000    488.76486   -117.19936   -1301.2461   -3588.7064    1398.0533     697.6892 0.00048369256 0.00047910511 0.00045095909 
 6562000    507.43477   -116.99578    1691.0051    2701.2362    1798.0662   -720.04327 0.00048395261 0.00047906834 0.00045093321 
 6564000    509.35715   -117.38656    -1818.476     3773.679   -1395.9142   -1193.0935 0.00048371355 0.00047911662 0.00045094599 
 6566000    513.26699   -116.65906   -150.01305   -4632.3609    1200.6811    5208.1405 0.00048356307 0.00047931539 0.00045086471 
 6568000    481.51161   -117.37357   -2113.0837   -235.24691   -1340.6349    4575.0002 0.00048383365 0.00047920821 0.00045091286 
 6570000    564.14536   -116.79209   -968.46283   -723.47691   -1794.1369    -4131.361 0.00048405712 0.00047907648 0.00045074835 
 6572000     534.6709   -117.67466    379.63514    3379.7941   -1269.0441   -1866.5905 0.00048399284 0.00047927204 0.00045066036 
 6574000    551.70929   -118.11077   -1001.2673    1025.2451     869.0265    459.37484 0.00048385468 0.00047906263 0.00045050649 
 6576000    500.29616   -117.85592    3596.3814    2344.4339   -708.46645     4891.008 0.00048375074 0.00047894318 0.00045032877 
 6578000    508.66694   -116.82146    1649.0605    295.31983    2784.8527    719.76374 0.00048366891 0.00047907585 0.00045027777 
 6580000    552.01909   -118.15054   -652.60434   -2653.9536    419.99623   -176.33331 0.00048354484 0.00047923269 0.00045028752 
 6582000    516.24611   -117.30972    590.28915    312.56336   -532.48312    600.45065 0.00048376509 0.00047946631 0.00045000527 
 6584000     431.9582   -117.65377   -5196.6127   -1569.7316    1276.2878   -536.82169 0.00048382646 0.00047960647 0.00044989198 
 6586000    471.85444    -118.7227   -558.90456    2067.0765   -3781.2318   -3527.5396 0.0004838145 0.00047944806 0.00044996997 
 6588000     536.5848   -117.24601     -2908.71   -3696.3826   -1449.4737   -3435.4073 0.0004837594 0.00047939792 0.00045026046 
 6590000    533.47938   -118.17946     1050.956    -1632.315   -1445.7812   -2234.7289 0.00048365527 0.00047923202 0.00045023845 
 6592000    495.31957   -117.09241    1623.2121   -1691.4424   -3526.2352    3046.0247 0.00048343283 0.00047903864 0.00045023157 
 6594000    456.28184   -118.39576   -1218.2981   -1886.7806   -2077.8549   -2230.7501 0.00048358617 0.00047881817 0.00045050006 
 6596000    492.50563   -116.89269    3116.2348    5259.6902    654.75342    3947.2769 0.00048337334 0.00047880552 0.0004507362 
 6598000    530.30598   -118.24362   -3534.9585    943.08612    1723.7523   -1767.9346 0.00048327981 0.00047875606 0.00045051997 
 6600000    462.52589   -118.30361    1264.8981   -13.239755   -834.69705   -3817.5924 0.00048345267 0.00047907924 0.00045046385 
 6602000    588.04409   -116.54445   -1535.2907    7986.8307   -4488.4866    292.34008 0.00048388109 0.00047897047 0.00045037367 
 6604000    505.70047   -117.58059    -462.4342    1975.8117   -2214.2334   -2226.1228 0.00048376945 0.00047890205 0.00045028406 
 6606000    525.39544   -117.89024    1521.3124   -3535.0054   -242.69287   -2491.4848 0.00048364058 0.0004788331 0.0004502335 
 6608000    472.33631   -118.21942   -4307.6173     3243.144   -7214.1896    2539.8718 0.00048380803 0.00047883667 0.00045017865 
 6610000    464.86072   -118.36558    -514.8212    1.0285493    2837.0152      616.672 0.00048375711 0.0004787856 0.00045005954 
 6612000    511.58898   -117.52776   -4388.0454   -3561.4403    1262.2682    761.36927 0.00048373376 0.00047866469 0.00045016473 
 6614000    570.59537   -118.22152   -2780.6838    1074.8671    -1853.925    965.29677 0.00048353896 0.00047850838 0.00045023896 
 6616000    453.44697   -117.28316    1176.5789   -1715.2494    672.20667     -1244.03 0.00048364324 0.00047843188 0.00045006893 
 6618000     501.0715   -116.52723   -860.90067   -798.47861    611.50769    4196.4195 0.00048352521 0.00047835343 0.00044986457 
 6620000     457.1604   -118.34809    5282.4093    578.47239    -5458.658    2905.5282 0.00048338119 0.00047815811 0.00045004637 
 6622000    592.78456   -117.60911   -1403.0425   -4842.1648    2212.6025   -1872.7613 0.00048330217 0.00047800835 0.0004500572 
 6624000    551.26708   -116.61215    1515.1654    944.17727    1424.4572    1984.7477 0.00048363618 0.0004778859 0.00045017215 
 6626000    495.37864   -117.68695   -1403.0394   -323.63988    451.13305    5729.1791 0.00048439085 0.00047775209 0.00045012805 
 6628000    489.79286   -116.63538   -4761.2241   -1183.0372     4076.367      2133.16 0.00048431793 0.00047764327 0.00045017974 
 6630000    495.33501   -118.22178   -477.21735   -1314.3357   -657.58854    6612.2058 0.00048431348 0.00047767897 0.00045007241 
 6632000     488.3361   -117.26472   -4345.4603    2191.5217    720.16166   -2763.0446 0.00048420434 0.0004776439 0.00045013064 
 6634000    514.84387   -117.52846    1541.5739    2935.3841    3673.4872    3008.3847 0.00048411092 0.00047746403 0.00044996056 
 6636000    580.06795   -117.09361    1344.5389   -1266.1965    1631.5721    98.455532 0.00048399161 0.00047725321 0.00044989735 
 6638000     596.7427   -116.92297   -994.77203   -2265.0108     5066.215   -4714.8675 0.00048396208 0.00047719743 0.00044982603 
 6640000     498.1967   -117.00816    2634.0876    1400.8274   -1084.7224    2557.8004 0.00048377528 0.00047727309 0.00045009864 
 6642000    515.41506   -117.67668   -4072.5345    1215.9218    2973.1314   -3272.8754 0.00048355708 0.00047719382 0.00045013642 
 6644000     521.7338    -117.6231    1404.7926   -368.38491    148.60554   -1807.3178 0.0004834376 0.00047708614 0.00045002725 
 6646000    466.06329   -117.41284   -513.10199   -63.366652    597.48515    316.95513 0.00048338463 0.00047695715 0.00045024293 
 6648000    520.99773   -117.24652   -1166.8722    355.78376    355.82903   -5318.1023 0.00048319823 0.00047680526 0.0004502221 
 6650000    484.72598    -116.7284    3415.2732   -4064.6351   -1056.0601    1713.5054 0.0004831138 0.00047664172 0.00045007635 
 6652000    474.04282    -117.6299   -1965.7201     323.0568    1444.8021    4780.5139 0.00048310173 0.00047658411 0.00044985334 
 6654000    495.05989   -116.99022   -20.745822   -2337.2114   -775.67948    3443.9803  0.000483188 0.0004764514 0.00044951322 
 6656000    499.25353   -118.26112   -3066.1732   -1520.3976   -426.36041     540.4072 0.00048311167 0.00047667557 0.00044934131 
 6658000    521.17924   -117.36667    -3398.917   -424.05443   -661.69264    2244.5433 0.00048304625 0.00047652917 0.00044933306 
 6660000    467.10054   -118.41809    55.102449   -168.51656    726.97587    3463.3878 0.00048298042 0.00047641335 0.00044922164 
 6662000    550.43447   -117.51964   -1258.5874    1987.3563   -3378.3912   -970.51506 0.00048299211 0.0004764028 0.0004490848 
 6664000    502.49617   -117.97625    3553.6207   -1345.7599    4747.3683    1180.2473 0.00048286665 0.00047636749 0.0004490149 
 6666000    476.95491   -117.78141   -1087.5046    1421.9308   -4630.4677   -4989.0376 0.0004826195 0.00047655351 0.00044911895 
 6668000    501.26673   -117.91942    381.26045   -4134.9225   -368.48623    2108.7394 0.00048274035 0.00047638376 0.00044919011 
 6670000     440.5885   -117.41125   -154.01372   -1658.8368   -3922.8936    889.03502 0.00048273423 0.00047625679 0.00044906966 
 6672000    487.00825   -117.57657   -5510.8682    2965.0905    711.50513   -3685.5178 0.00048262853 0.00047605751 0.00044898222 
 6674000    522.84302   -117.83204    956.87276    1501.9086   -2274.0272   -99.156033 0.00048252979 0.00047596218 0.00044894699 
 6676000    475.17892   -116.60319   -4568.9978    2452.1048    1352.0721   -5517.1321 0.00048242602 0.0004763274 0.00044885325 
 6678000    443.60349   -118.12141    2610.9775   -202.58887    1045.0641    3480.7208 0.00048237927 0.00047651632 0.00044892023 
 6680000    508.00773   -117.13818    873.88824    -3128.847    2258.1485     1336.104 0.00048273013 0.00047666829 0.00044896453 
 6682000    484.36622    -117.9232   -1603.4389    2781.9282   -1190.4624   -1892.3269 0.00048314388 0.00047653499 0.00044890968 
 6684000    470.45601   -117.61224    1883.0789   -1360.5344     2584.768    3650.4398  0.000483019 0.0004764122 0.00044993043 
 6686000    505.98683   -117.28118   -6165.6871    4123.3512    1027.8963    2037.4765 0.00048287344 0.0004763052 0.00045061736 
 6688000    474.39916   -118.04212    656.30937    1332.5388   -137.27288   -3454.7471 0.00048273634 0.00047617433 0.00045130465 
 6690000    457.64912   -118.43437   -3531.3359   -2417.3901    996.64564    1814.6267 0.00048265753 0.00047597435 0.00045129891 
 6692000    534.75383   -116.47999    1367.1633   -1577.0536     188.0599    976.92122 0.0004826339 0.00047610011 0.00045131107 
 6694000    545.25709   -118.08549    2154.7878    178.37175    2379.8886    2681.8757 0.00048421238 0.00047640591 0.00045132829 
 6696000    527.02662   -117.45703   -1252.9415    4952.1797    2375.4804    1410.1692 0.00048414628 0.0004763469 0.00045204402 
 6698000    490.30722   -117.30587    2569.6628   -233.68091   -1449.3692   -1081.2732 0.0004843022 0.00047631153 0.00045238274 
 6700000    504.90207   -116.45958   -3859.6513    1301.0633   -2477.2033    1178.7095 0.0004841816 0.00047611784 0.00045228403 
 6702000    514.41861   -117.37818     536.9616   -3827.7298    1696.1066   -3240.1632 0.00048404208 0.00047599297 0.00045231215 
 6704000    523.86779   -115.91329    -60.33449   -1723.9881     5579.365    526.96133 0.00048445732 0.00047631113 0.00045210376 
 6706000    521.29952   -118.05868   -2809.8789    5606.2904   -1317.7985    233.12055 0.00048415223 0.00047622456 0.0004519653 
 6708000    482.09998   -116.85497    2691.7118   -4211.0038     2179.616   -3858.3124 0.00048419193 0.00047607237 0.00045224361 
 6710000    550.22653   -118.65007   -4753.0444    1996.5019   -2477.5534    548.93355 0.00048409464 0.00047613431 0.00045218227 
 6712000     475.7311   -118.05723      922.312   -6688.8311   -2671.7417    2896.7597 0.00048401013 0.00047650799 0.00045216845 
 6714000    480.14962   -117.34381   -1508.2543     539.9907   -5857.7115    -942.4321 0.0004839637 0.0004763356 0.00045259928 
 6716000    433.40348   -117.37634   -2384.3943   -2449.7402   -3684.9911    4094.3057 0.00048387719 0.00047640093 0.00045258208 
 6718000     539.1427   -116.47673    2781.5593    1732.8009   -3599.2024    98.306798 0.00048377206 0.00047623309 0.00045301415 
 6720000    472.32469    -116.8413   -2052.2408    1044.8156    7613.2708    3850.6871 0.00048360197 0.00047617317 0.00045310052 
 6722000     485.6637   -117.24071    3276.5895    -34.16258   -890.17388   -5262.8126 0.00048350492 0.00047596663 0.00045288366 
 6724000    485.51451   -116.73754   -63.343677   -2717.1407    61.131249   -688.43141 0.00048381218 0.0004764091 0.00045327715 
 6726000    496.26726    -116.7237   -968.88225   -2123.0606    4211.7458   -1687.4161 0.00048428488 0.00047706337 0.00045396944 
 6728000    487.67871   -117.71302    232.50322    622.27625   -2637.2804   -2030.1462 0.00048421009 0.00047716291 0.00045452914 
 6730000    448.05626   -117.72811   -4993.7076     2046.865    -3019.995   -2197.6184 0.00048407437 0.00047754752 0.00045460615 
 6732000    561.73652    -117.0669   -437.45948   -3897.6669   -4360.8503    2670.3678 0.00048399455  0.000477425 0.00045451592 
 6734000    490.75298   -118.06663   -3373.7411    4609.8905    545.48267   -1779.4392 0.00048411827 0.00047727574 0.00045441958 
 6736000    425.44819   -117.47209   -101.75057   -2683.4372    1903.4277    429.23011 0.00048410808 0.00047710402 0.00045448963 
 6738000    495.02947   -117.15136    2474.2394    2540.7022    861.31352   -336.18598 0.00048411244 0.00047694284 0.00045438952 
 6740000    544.53824   -117.06858    -1857.455   -2271.1608   -1620.5437    1624.3979 0.00048420189 0.00047683875 0.00045503406 
 6742000    515.38779   -117.91366    1486.3478    4395.6831    1526.6259   -3250.2084 0.0004842241 0.00047678557 0.00045534345 
 6744000    527.58938   -118.52283   -3005.8746    500.19767    611.75398    3156.4692 0.00048445744 0.00047666475 0.00045535229 
 6746000    498.43165   -117.91146    41.311945   -416.44382   -1927.1015   -4492.4537 0.00048426091 0.00047651435 0.00045529386 
 6748000    476.99216    -116.4735    637.36262   -1218.4025   -262.81345    1418.0241 0.00048413207 0.00047635687 0.00045515909 
 6750000    445.92409   -118.31374   -1386.3765   -1946.1387    -2917.974    2160.9613 0.00048394092 0.00047626125 0.00045523371 
 6752000    477.72927   -116.59669    1557.8066    5209.5153   -767.19719   -1058.6395 0.00048375696 0.00047618263 0.00045518802 
 6754000    506.23336   -117.89752   -2607.1091   -749.93423     71.16914   -3229.1984 0.00048361906 0.00047646875 0.00045506665 
 6756000    532.20956   -117.48602    1374.8606   -2511.9942   -3222.8101   -4470.8803 0.00048340574 0.00047645088 0.00045504111 
 6758000    529.43475   -117.04457   -1859.7697    2407.0379    5132.9392   -1799.6259 0.00048323388 0.00047661089 0.00045494766 
 6760000    521.05128   -118.01699   -2563.1633   -958.14082   -1492.3714   -4094.7311 0.00048308216 0.00047666852 0.00045477312 
 6762000    473.83095   -117.50853   -218.13612    73.792657    855.22342   -807.83397 0.00048308753 0.00047676891 0.00045464542 
 6764000    441.66169   -116.85027   -1639.9927   -2633.8957   -1986.4641    691.95888 0.00048298749 0.0004766728 0.00045445061 
 6766000    490.13809   -117.04864    1275.8964     -297.905   -2186.6249   -2156.5847 0.00048313657 0.00047656461 0.0004543625 
 6768000    474.39177   -117.72129   -162.29292    1406.2683   -625.46599    662.67064 0.00048308139 0.00047654998 0.00045433497 
 6770000    499.29141   -116.25605    140.03723    5660.4767   -509.49233   -740.80107 0.0004830528 0.00047659826 0.00045422348 
 6772000      503.004   -118.56486   -1148.0191   -1609.5987    1458.6577   -1093.7496 0.00048299685 0.00047677539 0.0004540828 
 6774000    547.81716   -118.13367   -2577.4247    2602.1262      1976.38   -1210.8454 0.00048283239 0.00047682523 0.00045396681 
 6776000    509.10764   -118.05119   -1305.5204   -742.39545    3278.7937   -750.25836 0.00048264452 0.00047669043 0.00045387468 
 6778000    449.17457   -118.27435   -2234.5257    3267.1226   -1421.4126    701.88403 0.00048252429 0.00047677678 0.00045393519 
 6780000    446.51367   -116.61805   -481.34943   -794.76954   -1241.1886     -2987.43 0.00048247848  0.000476621 0.00045401155 
 6782000    552.93521   -116.45494   -969.08303    616.26086   -450.12156    1139.3479 0.00048248458 0.00047650519 0.00045378237 
 6784000    503.72668    -116.7336    101.27729   -287.05288    228.17235   -561.14266 0.00048239043 0.00047635783 0.00045364008 
 6786000    489.60198   -116.60101   -131.47611    1536.9833   -356.02145    298.57989 0.0004822824 0.00047656635 0.00045365953 
 6788000    544.10623   -116.96404     331.4443    723.04926   -1449.9208    6595.6531 0.00048219733 0.00047675432 0.00045346655 
 6790000    542.20628   -117.90941   -2.9170527   -4015.0944    -3858.717   -927.49897 0.00048213928 0.00047690632 0.00045335268 
 6792000    479.90955   -118.86023   -463.90676    4053.2807    2453.5693    3595.0663 0.00048226276 0.00047683737 0.00045338919 
 6794000    500.59822   -117.99652   -1319.7939    1545.7568    -1856.307   -2519.6567 0.00048211159 0.00047671663 0.00045323549 
 6796000    568.16952    -118.7456    259.57391   -2292.3882   -239.70678   -1418.8227 0.00048190112 0.00047648194 0.00045311374 
 6798000    521.16136   -117.47796   -1940.9149   -2461.9516    186.55029    3415.5698 0.00048183091 0.00047642042 0.0004529321 
 6800000    471.49042   -117.21731   -237.65166   -4122.5141    2151.4623   -1894.1993 0.00048192621 0.00047634851 0.00045285611 
 6802000     485.3731   -117.77784   -1275.6016   -1503.8957   -3683.2517   -908.77924 0.00048189114 0.00047623228 0.00045276663 
 6804000    501.74365   -117.25503   -1792.6949    2164.9191   -3045.0043    3785.8196 0.00048175952 0.00047611994 0.00045265803 
 6806000    463.30383   -117.48592    765.96453   -3562.5387   -237.11888    2060.6475 0.00048180744 0.00047613673 0.00045264713 
 6808000    539.27566    -117.6254   -1989.5956    1427.6648    1164.8975    3040.5297 0.00048198507 0.00047593382 0.00045278051 
 6810000    482.10657   -117.43786    573.51212   -2801.0236   -568.19627    1782.7062 0.00048188329 0.00047588272 0.00045264152 
 6812000     464.7851   -117.59585   -948.95455   -21.311621   -1327.0551    -1938.399 0.00048170264 0.00047575145 0.00045258807 
 6814000    476.57511   -116.80157    641.20998   -5289.5122    3641.2165     1247.324 0.00048169461 0.00047564818 0.00045241019 
 6816000     550.0513    -117.6028   -252.52378    2376.5933    2008.0452    568.75885 0.00048174081 0.00047555533 0.0004522718 
 6818000    540.85737   -117.13665   -1059.9246   -2002.7132    2149.0913   -2405.0591 0.00048160478 0.00047545625 0.00045213027 
 6820000    477.28487   -116.55223     385.1888    10270.386    5115.3313   -2142.8003 0.00048172825 0.00047535067 0.00045205016 
 6822000    516.37401   -117.31885    -2001.696   -6668.8504    1759.7583   -474.21564 0.0004816267 0.00047545843 0.00045214152 
 6824000    527.26814   -117.85122   -1279.2782    4843.8681    1461.3402    1783.3408 0.00048156847 0.00047532972 0.00045217563 
 6826000    502.10987   -117.83289   -138.03087   -2695.7931    1170.9113   -2710.3571 0.00048161457 0.00047524303 0.0004522847 
 6828000    486.08712   -115.88777    802.13893    806.25207   -4447.6481   -233.05896 0.00048153945 0.00047531275 0.00045224278 
 6830000     499.1111    -116.9953    727.59865   -4751.3351   -315.01937     1277.301 0.00048142091 0.00047521478 0.00045233738 
 6832000    484.08378   -116.48581   -914.77704   -28.383696    1331.7292     -1361.55 0.00048130527 0.0004751146 0.00045221814 
 6834000    459.83891   -116.62903    883.29918   -4309.6131    2529.1997    4911.0843 0.00048126392 0.00047502885 0.00045247664 
 6836000    493.85302   -118.99017   -2640.7257   -1588.1939    1004.6771    1419.4904 0.00048119168 0.00047522557 0.00045257081 
 6838000     524.9124    -118.4919   -2597.6622   -1904.0258    1042.1601   -1477.4703 0.00048099965 0.00047520015 0.00045253748 
 6840000     440.3966   -118.17191   -562.30653    2858.2573    -452.9738    4616.8183 0.00048090624 0.00047539879 0.00045267845 
 6842000    498.90167   -118.29166   -1575.5341    2704.0279    1222.7563   -3480.0342 0.00048079935 0.00047530548 0.00045273175 
 6844000     513.3256   -117.71775   -125.07938    1633.9521   -2070.5098    2587.6443 0.00048068586 0.00047517456 0.00045263958 
 6846000    483.31843   -117.48965   -288.81676    1172.6086   -3344.0254    1338.3577 0.00048051086 0.0004753157 0.00045244392 
 6848000    498.03337   -116.95756    272.78189    -2160.685    4273.4074   -2171.4666 0.00048047687 0.00047526755 0.00045248336 
 6850000     500.3642   -117.24939   -151.07185   -80.965959    1340.4329   -4130.8718 0.00048057921 0.00047517106 0.00045249879 
 6852000    495.06131   -117.20885   -157.02488    982.64031    3532.2267    373.99795 0.00048065139 0.0004751001 0.00045299953 
 6854000    448.84162   -117.49123    408.01463    5265.1209    52.648859     -130.697 0.00048105331 0.00047510807 0.00045420109 
 6856000    478.11311    -118.0604    407.92647   -4199.2843    510.34275    2169.0088 0.00048100932 0.00047549111 0.00045418286 
 6858000    454.73928   -117.52356    -475.6381   -671.08853    1167.8629    70.926248 0.00048130279 0.00047556187 0.0004541079 
 6860000    527.51807   -117.38093   -468.48701   -4340.0781    3801.0041   -1564.5298 0.00048174037 0.00047584787 0.00045400455 
 6862000    540.46661    -117.6375   -1772.4802    4288.5367    3086.1755    407.30447 0.00048167997 0.00047580014 0.00045405409 
 6864000    430.16688   -117.73176    -3908.434   -5958.4291   -2062.0079   -4421.9499 0.00048154222 0.00047560399 0.00045398829 
 6866000    453.59384   -116.79387   -503.24127   -2902.6542   -561.81255   -292.95586 0.00048151175 0.00047546294 0.00045390112 
 6868000    522.90967   -116.96882   -908.79971    3759.7169   -1816.9224   -66.203391 0.00048142013 0.00047580164 0.0004538394 
 6870000    534.09382   -116.70654    1913.4345   -3012.5772   -1122.7352    -178.9609 0.00048141407 0.00047601995 0.00045372121 
 6872000     478.4723   -117.86353    2458.1672    3074.3212   -1763.3342    1362.8073 0.00048131539 0.00047620816 0.00045355933 
 6874000    487.34945   -117.70869    22.136152   -8025.3167   -254.79716    1392.5589 0.00048123644 0.00047618741 0.00045340276 
 6876000    489.83558   -117.16344    1826.6193     2542.512    2589.0606   -871.66305 0.00048117836 0.0004761137 0.00045329098 
 6878000    503.54116   -118.14392   -2865.4105   -880.69477    2818.6222    1858.5763 0.00048134264 0.00047607189 0.0004533103 
 6880000    518.96015   -117.66001    -1670.712   -2805.4969    2297.4844   -1640.4544 0.00048139546 0.00047725063 0.00045322123 
 6882000     519.8899   -117.41439   -1885.0625    896.75143   -1210.1641    2380.9217 0.00048128237 0.00047725372 0.00045314634 
 6884000    512.18502    -116.7697    -2001.403    154.53208    3581.8695   -887.96093 0.00048117981 0.00047715469 0.00045313695 
 6886000    515.14335   -118.11388    45.490717   -1292.3142     595.6902   -189.67218 0.00048111576 0.00047715408 0.00045315036 
 6888000    511.79756   -118.92452   -2616.6662     3050.411   -2696.9676    -1940.788 0.00048106225 0.0004770567 0.00045310034 
 6890000    543.31357   -117.90124    617.37592    684.34501     2298.514    2697.7788 0.00048105296 0.0004771122 0.00045296104 
 6892000    525.34856   -116.73807   -511.78959    6447.1652    4149.4507     1288.873 0.0004809122 0.00047720038 0.00045293061 
 6894000    510.80163   -117.03169    1245.5709    170.77296    1617.2269    1915.6884 0.00048072484 0.00047695426 0.00045333884 
 6896000    427.22875   -117.77793    1185.8736    757.95153   -2567.5397   -2217.3477 0.00048069662 0.00047685542   0.00045352 
 6898000    507.10707   -115.59723    579.00664   -1225.8109    6653.0243   -3139.2443 0.00048058025 0.00047702909 0.00045334798 
 6900000    479.30458   -117.77955    141.86795   -1461.8213    65.300115   -749.00004 0.00048039417 0.00047751909 0.00045319151 
 6902000    488.09879   -117.66082   -2344.4036    426.77182   -933.34963    1695.7988 0.0004805605 0.00047878265 0.0004531949 
 6904000    508.37189   -117.41862   -1131.9197    1119.2039    1929.9284   -66.671402  0.000480431 0.00047888525   0.00045318 
 6906000    562.52926   -117.70692   -1905.1718    3810.0737    290.45463     1039.254 0.00048080079 0.00047881034 0.00045318894 
 6908000     487.3471   -117.53106   -2861.4685   -1343.4654   -2644.0487   -1098.3923 0.00048071032 0.00047880508 0.00045298875 
 6910000    495.30671   -116.89913   -400.63003   -1547.2193    395.95772   -3579.1029 0.00048095981 0.00047882783 0.00045334494 
 6912000    509.52616   -116.13646   -200.84565    659.64826    -231.1679    136.20166 0.00048091611 0.0004788228 0.00045306865 
 6914000    495.59341   -117.19311     1563.918   -1867.6611   -4006.7252   -1569.6136 0.00048084447 0.00047917361 0.00045334294 
 6916000    485.23692   -118.38444   -624.32201    4317.5002   -3160.5033   -4710.7201 0.00048071993 0.00047920561 0.00045368547 
 6918000     495.6305   -117.86779    -510.3444   -902.03254    30.492762   -3814.9621 0.00048086988 0.0004798211 0.00045356003 
 6920000    535.25971   -116.82306    474.45575    930.62275    6286.9342   -1001.6802 0.00048143489 0.00047978393 0.00045342989 
 6922000    525.76384   -117.74607   -2719.9636   -2331.0798   -1560.2252   -1392.5257 0.00048157583 0.00047979814 0.00045371426 
 6924000    499.54649   -118.38534    290.47387   -2017.1508   -1421.6755    374.49756 0.00048159592 0.00047967849 0.00045405006 
 6926000    530.88643   -118.43909   -2769.0024    2207.8842    2062.5377    1611.1472 0.00048147869 0.0004795775 0.00045410356 
 6928000    478.16179   -118.58313   -1400.9126    5726.4826   -2092.2275     3771.727 0.00048174085 0.00047947275 0.00045435208 
 6930000    509.43576   -117.78465   -864.55388    5880.3709    1055.5752    975.12526 0.00048178494 0.00047942211 0.00045431068 
 6932000     493.6475    -117.4355   -1283.9973    2501.9498   -912.48234    1703.8426 0.00048166894 0.0004792448 0.00045418152 
 6934000    497.09303   -116.71697    2340.1915    3076.7652    5133.0118    2801.7996 0.00048151186 0.00047913715 0.00045392931 
 6936000     476.6948   -118.27617   -1543.8589   -4746.8508    1104.8532    494.45364 0.00048137719 0.00047947787 0.00045379737 
 6938000    448.32199   -116.92736    1945.7473    2042.1622   -194.45914   -1321.4886 0.00048123859 0.00047937419 0.00045373305 
 6940000     508.7804   -117.15997    175.85488     1933.703    1197.4688   -9.0109975 0.00048111294 0.00047938471 0.00045349575 
 6942000    467.52324   -116.73299   -1462.9972   -3701.4333    725.22682    -6757.298 0.0004811525 0.00047930559 0.0004533692 
 6944000    492.17831   -117.97075    86.539462   -145.86669    2763.3638   -2314.7228 0.00048085448 0.0004791646 0.00045326009 
 6946000    515.02326   -117.62844   -3690.0358    3380.6468   -2086.1862    6578.1909 0.00048072492 0.00047923682 0.00045327575 
 6948000    529.13292   -117.58921    -285.0504   -3657.8308   -300.57121   -4904.1537 0.00048049482 0.00047901331 0.00045330944 
 6950000    544.85465   -118.11665   -645.80766    944.17156   -646.86167     224.2698 0.00048046173 0.0004788882 0.00045335288 
 6952000    530.64708   -117.60374   -2030.2713     443.2374   -649.80204    1076.8351 0.00048061281 0.00047925041 0.00045327466 
 6954000    448.77186   -117.39266    1554.4764    83.851207    993.77271    1433.8242 0.00048084938 0.00047902927 0.00045348318 
 6956000    505.32891   -116.53329   -2332.1492   -295.32719    3822.2118      1035.08 0.00048066679 0.00047876441 0.00045357529 
 6958000    511.32159   -117.79971    88.795866   -678.03215    1969.9447   -730.00036 0.00048073824 0.00047852085 0.00045351298 
 6960000    488.86384   -116.69924   -1473.9879   -3800.9208   -2183.7182   -424.40398 0.00048066461 0.00047833215 0.00045367483 
 6962000    497.61063    -117.9508     99.96755    2891.6861   -2562.2676    2579.7696 0.00048080933 0.00047820248 0.00045430273 
 6964000     497.0675    -118.2456    1036.1164    3785.7947    734.10867    26.092198 0.00048071145 0.00047807835 0.00045411078 
 6966000    518.31026   -117.81531   -292.34942    1409.3503   -5667.0889   -273.12301 0.00048066944 0.00047794857 0.00045390767 
 6968000    576.62699   -118.52647    2221.9736   -5640.0471    4255.3996     1030.353 0.00048114061 0.00047782984 0.00045377044 
 6970000    434.41506   -116.29673   -4189.9533    1774.4599    3784.0927   -1879.8193 0.00048103612 0.00047815788 0.00045370911 
 6972000     509.0923   -118.29316   -1750.2424   -3239.6528    806.78804    286.34829 0.00048094279 0.00047857426 0.00045366294 
 6974000    480.99565   -116.83979   -3524.9823    730.39059    -1718.698    3425.6289 0.00048078826 0.00047914931 0.00045352939 
 6976000    534.40253   -116.71516    -1777.994    211.21239    1514.0674    953.39372 0.00048072058 0.00047939136 0.00045349238 
 6978000    518.59491   -117.68792    2580.8637   -1058.8524   -1399.2879    3832.5536 0.00048066659 0.00047928855 0.00045403668 
 6980000    548.11117   -117.67733    481.46595     -1278.15    335.10125   -531.01929 0.00048051938 0.00047906522 0.00045406112 
 6982000     553.4464   -117.36307    3707.4528    1046.7922    2056.7228    7839.2862 0.00048041573 0.00047901162 0.00045409178 
 6984000    530.60021   -117.42925   -563.20254    6697.0104   -1624.5307    3777.1835 0.00048112955 0.00047884246 0.00045397275 
 6986000    512.79882   -116.97043   -1633.1869   -3923.9634   -390.52016   -1759.0106 0.00048146128 0.00047873016 0.00045379789 
 6988000    443.69355   -117.57938   -2514.9538   -3354.3057    108.11346    6822.3053 0.00048149469 0.0004789655 0.00045389339 
 6990000    521.83855   -116.31161   -3685.1405    1446.2604   -1358.9303     -4127.28 0.00048149771 0.00047889083 0.00045380735 
 6992000    502.43055   -117.51772    808.01765   -1052.6224    1109.7288    3494.9213 0.00048130606 0.00047890731 0.00045371232 
 6994000    463.30162   -116.50386   -613.48465    1140.0233   -3609.7882    -3698.365 0.00048149679 0.00047879376 0.00045363896 
 6996000    528.73221   -117.90652    1530.0799   -2612.0999     796.1546   -152.52896 0.00048186507 0.00047890424 0.0004534869 
 6998000    517.50302    -117.4359    -803.3963   -889.54683    1707.2437    1818.4063 0.00048242451 0.00047881099 0.00045337297 
 7000000    456.75415   -117.30033   -658.87921   -998.33828   -2968.9862   -63.636904 0.00048225599 0.00047868901 0.00045337562 
 7002000    475.18474   -118.19214   -1008.1765   -2641.7515   -1034.6382    2969.9859 0.00048203861 0.0004785306 0.00045341721 
 7004000     542.5866   -117.89024   -1327.7479    64.299093    5694.5858    223.31365 0.00048184792 0.00047833932 0.0004532318 
 7006000    500.43506   -117.97047     577.9053      299.462   -3059.4982    2463.9836 0.00048174998 0.00047826631 0.00045315928 
 7008000    535.69906   -117.94404    59.439377    8584.1112   -2316.7756   -1020.3527 0.00048163401 0.00047820852 0.00045321204 
 7010000    492.44639   -118.37843     1324.618    -2800.481    3414.0805   -2248.1357 0.00048158485 0.00047802703 0.00045305979 
 7012000     512.2283   -117.35541   -1432.0245    2004.1594   -508.14085    3855.2097 0.00048150891 0.00047801137 0.00045296242 
 7014000    530.31478   -117.32016   -780.54455    1214.1194   -2118.4612    1118.0281 0.00048186969 0.0004779147 0.00045301395 
 7016000    478.74449    -117.3455   -741.12953   -992.20698   -746.09199   -591.46288 0.00048230326 0.00047773221 0.00045285934 
 7018000    441.69183   -117.61356   -3118.8187     981.0829   -252.04107    1062.4931 0.00048247055 0.00047765651 0.00045270456 
 7020000    497.13263    -117.5153    3232.4791   -1750.9369    501.81394     3101.432 0.00048241947 0.00047758997 0.00045266947 
 7022000    562.17073   -117.52283   -791.92433   -1434.3349    4318.1784   -1822.6918 0.00048244009 0.0004775035 0.00045256591 
 7024000    543.59415   -118.08692    2459.4055   -2742.3998   -2292.7747    4061.5573 0.00048244505 0.00047741894 0.00045246435 
 7026000    542.87312   -116.42736    1819.4586   -3379.6129    527.86786    522.49787 0.00048241663 0.00047737789 0.00045241514 
 7028000    458.21107   -117.89475   -1688.2006    2809.7771   -708.25938    541.76474 0.00048230049 0.00047774837 0.00045323972 
 7030000    527.70471   -116.75617    1677.3177    2082.8661    2236.0782   -2275.2034 0.00048227848 0.00047800018 0.00045374452 
 7032000    476.77787    -118.2461   -5901.6023    4212.6697   -2142.2135   -2208.7545 0.00048214464 0.0004783171 0.00045413882 
 7034000    493.26841    -117.3069    881.36455    2472.9028   -4361.4927    470.14443 0.00048199144 0.00047840892 0.00045428162 
 7036000    534.67661   -118.35196    -2156.708    2881.1993    544.95464   -6188.1138 0.0004819633 0.0004783143 0.00045426374 
 7038000    498.37295   -118.72262   -1888.7957    2101.8949    1073.8582   -1168.7142 0.00048204694 0.00047833661 0.00045413157 
 7040000    468.37755   -118.36457    1611.1284   -3274.0212   -1180.0141   -3698.0601 0.00048183863 0.00047847404 0.00045403761 
 7042000    474.88508   -116.70388   -3720.5058    -1196.965    887.09785   -797.02604 0.0004817493 0.00047860116 0.00045384593 
 7044000    480.59612   -116.28799    3254.9618   -1852.7303   -1329.6636   -901.97795 0.00048161139 0.00047860708 0.00045384615 
 7046000    488.45494   -117.60322    -2611.506    2696.5024   -933.32598   -3344.5518 0.00048150914 0.00047858425  0.000453748 
 7048000    520.31594   -115.80183    1946.4117   -5786.3161    6481.9897   -1386.3928  0.000481459 0.00047841055 0.00045363681 
 7050000    532.94743   -117.43753   -261.57214   -1017.3132   -3656.7617   -1753.7555 0.00048136372 0.00047838168 0.00045371735 
 7052000    501.94714   -118.71529   -3435.0981    907.28635    387.87079   -3086.1858 0.00048129307 0.00047808981  0.000453667 
 7054000    525.96202   -118.51542    3693.8236   -4242.1985   -3593.9356    1881.2302 0.00048186594 0.00047804037 0.00045368847 
 7056000     485.7855   -117.48582   -4984.7697    4415.5358    6181.6963    215.55244 0.00048169357 0.00047799178 0.0004536004 
 7058000    485.45379   -117.63527    2587.9775   -526.72448    691.67048   -3855.3296 0.0004815057 0.00047793912 0.00045351109 
 7060000    532.59193   -117.69441   -1290.1701   -1980.1287   -418.83062    -277.2346 0.00048136382 0.00047779875 0.00045356209 
 7062000    526.20748   -116.67643   -3021.7146      1661.09    2354.6247   -3306.0188 0.00048138235 0.00047780827 0.00045368421 
 7064000    470.79827    -118.6865     3440.591   -4024.3052    4643.1397    3682.1472 0.00048132137 0.0004777031 0.00045357342 
 7066000    503.99692   -117.19822   -4967.4014   -344.03975    2170.1993   -2114.2822 0.00048121038 0.00047792392 0.00045360462 
 7068000    432.23052   -116.85404    4097.1986   -4145.8457   -823.67108    3010.1956 0.00048108234 0.0004778195 0.0004540066 
 7070000     516.1052   -118.25665   -2182.3498   -4944.5946   -3421.7288    708.81015 0.00048098721 0.00047769892 0.00045377203 
 7072000    537.35325   -117.38123   -184.89706    301.01882    1752.4253    3599.5302 0.00048078863 0.00047761063 0.00045387037 
 7074000     504.9499   -116.15691    1316.2889   -331.01865    1214.9027   -122.84111 0.00048065997 0.00047749057 0.00045374228 
 7076000    515.88422   -118.08526   -5466.4643    5810.1893   -459.75092    1274.3273 0.00048057864 0.00047737328 0.0004537156 
 7078000    490.20264   -118.11692      2200.17    2533.2839    636.03502    2571.6965 0.00048045275 0.00047723466 0.00045342765 
 7080000    450.07017   -117.28166   -5254.2374   -214.05669    617.11199   -6.8450833 0.00048052022 0.00047712173 0.00045332279 
 7082000    458.30542   -116.97803    3531.3272   -1731.5247   -2617.2799   -3912.9682 0.00048070667 0.00047723809 0.00045313615 
 7084000    492.73128   -116.96922    158.04316    3546.8076    33.963938   -334.96349 0.00048050207 0.00047815883 0.00045351142 
 7086000    505.50062   -117.00551   -887.97484    474.94906   -817.86078      5028.73 0.00048047819 0.00047809729 0.00045346333 
 7088000     444.0353   -117.34987    3627.0834    395.73109   -5612.6367    1855.5648 0.00048028294 0.00047796143 0.00045337315 
 7090000    456.73923   -118.03503   -4152.6386    353.43463    3402.0121   -560.18416 0.00048018954 0.00047788101 0.00045316937 
 7092000    539.63514   -117.13277    774.09441    1978.2579   -960.89071    3866.0166 0.00048051128 0.00047771049 0.00045314146 
 7094000    486.87663   -117.26619   -2704.9081   -534.45748    2239.0659    1294.7067 0.00048057444 0.00047764943 0.00045313055 
 7096000    484.19174   -117.15372   -2149.9645   -2076.4252   -4715.8078    1776.9917 0.00048042951  0.000477541 0.00045293382 
 7098000    454.21326    -117.5339    556.31873   -2038.2265   -955.56473   -1696.3386 0.00048035639 0.00047738086 0.00045276538 
 7100000    485.46443   -116.27223   -3877.3912   -2867.8611    3917.8744    1105.5594 0.00048016752 0.00047724137 0.00045257551 
 7102000    461.71824   -117.25819    2617.7282   -4159.6944   -2740.0651    868.73827 0.00048007075 0.00047715622 0.00045248299 
 7104000    477.71823   -118.55315   -3512.0938   -1697.8573    3519.1993    5211.6892 0.00048044072 0.00047732325 0.00045244999 
 7106000    534.67685   -117.15729    1625.5172    1631.3394   -446.80622   -1675.5591 0.00048047928 0.00047718501 0.00045223899 
 7108000    477.75258   -117.22024    2265.7217    526.45194    2026.4784   -7.7602533 0.00048065798 0.00047751201 0.00045212949 
 7110000    464.40487   -117.83968   -4393.9231   -1436.7753    -549.8024   -1491.0226 0.00048078173 0.00047826904 0.00045200905 
 7112000    440.41893   -117.19367     3996.029   -1916.9874    1899.1885    179.91059 0.0004806165 0.0004780988 0.00045204205 
 7114000    519.43386   -117.88917   -4293.9942    2092.2998    2011.3413     572.2291 0.00048042488 0.00047794677 0.00045194311 
 7116000    489.78617   -117.86291   -338.48567   -2670.5555    1620.1544    1308.9748 0.00048031135 0.00047797931 0.00045183068 
 7118000    497.24692   -117.28586   -247.61863    1872.1268   -2171.0276   -4192.0462 0.0004801622 0.00047796815 0.00045179983 
 7120000    471.37656   -117.10122   -3953.1057    -2708.633   -245.09502    -1842.227 0.00048012635 0.00047786062 0.00045163531 
 7122000    452.39448   -117.75393    3486.4978   -1297.4558   -3721.0706    407.80802 0.00048002224 0.00047769622 0.00045150815 
 7124000    494.35933   -117.41942   -3935.1524    2087.3603   -2985.6421   -4364.6037 0.00047994168 0.00047750758 0.00045140721 
 7126000    516.33917   -118.27436    2680.5351    518.14403    3853.5149   -429.87783 0.00048026564 0.00047746791 0.00045128776 
 7128000    463.87707   -117.71594   -1185.6236   -1668.5767    883.08711   -4609.1688 0.00048021448 0.00047746628 0.00045116393 
 7130000    509.22071   -117.10062   -336.39444   -1492.3489    1988.5624    494.43916 0.00048010173 0.00047736861 0.00045111101 
 7132000    445.18705   -118.73791    2506.1252    1119.2202   -411.59116     2175.671 0.00048026588 0.00047725574 0.00045105641 
 7134000    499.20893   -118.10129   -7103.8004    35.037971   -449.27433   -6015.1197 0.00048026772 0.00047720646 0.00045097247 
 7136000    509.18834   -117.67481      3937.03   -1982.3257   -4056.8989   -1163.6332 0.00048027898 0.00047709753 0.00045093527 
 7138000    464.61936    -118.2607   -1654.2254    2325.4739    2383.3071   -3264.5393 0.00048024422 0.00047689595 0.00045075052 
 7140000    491.02213   -116.52619   -492.57828   -1479.9705   -3651.2772    329.47962 0.00048024584 0.00047679881  0.000450713 
 7142000    498.42724   -117.15473    2919.4046    1492.5286    2696.6228    4922.3426 0.00048046687 0.00047671655 0.0004515119 
 7144000    502.33264   -116.63759   -5653.0719   -1058.8208   -1289.9008    2030.2333 0.00048050424 0.00047659131 0.00045208858 
 7146000    522.94983   -117.38602    2393.2473   -1949.6542   -2979.8405    1370.2051 0.00048027334 0.00047654059 0.00045271384 
 7148000    467.34275    -117.3303   -2088.6208   -2356.5782    368.20903    1780.6725 0.0004803536 0.00047667469 0.00045320642 
 7150000    501.74201   -117.67952     848.2323   -1047.9863   -4705.4724    1987.2295 0.00048013438 0.00047664834  0.000453163 
 7152000    490.19014   -116.89073    1848.0276    4473.4565    704.88557    1130.0817 0.00048004763 0.00047664542 0.00045327637 
 7154000    482.67308   -117.27891   -1737.0778   -3816.5584    2494.4697    689.74705 0.00048006279 0.00047647048 0.00045315043 
 7156000    495.70653    -118.2383    3541.2813   -1802.3388   -2224.3143   -6763.5553 0.00048013893 0.00047642109 0.00045304877 
 7158000     456.2098   -117.95807   -3992.4164   -2071.8536    3906.2568    775.77792 0.00048066758 0.00047638273 0.00045304008 
 7160000    498.76666   -117.62523    970.24961    3758.9969    1024.0408   -3212.0832 0.00048071641 0.00047633954 0.00045391477 
 7162000     464.9539   -116.83061   -1624.7031   -548.68773    238.14492   -3053.0142 0.00048066375 0.00047627538 0.00045403192 
 7164000    529.84228    -118.3396   -2933.6503    1160.3013    3649.8116   -1826.4883 0.00048077499 0.00047618232 0.00045390886 
 7166000    551.19793   -117.58397    2237.4112   -5196.4667   -6708.0864    4908.7671 0.00048062408 0.00047605195 0.0004539672 
 7168000    510.97119   -117.73585   -2720.3481    553.02839    6002.5348   -423.12803 0.00048053792 0.00047601049 0.00045403191 
 7170000    522.35776   -117.85272    2803.6527    1866.3584    729.22255    2462.7513 0.00048043701 0.00047590812 0.00045412146 
 7172000    534.15222   -116.37367   -1823.8842   -1931.4557   -3430.2987   -4379.2961 0.00048030987 0.00047566821 0.00045415282 
 7174000      526.491   -118.16529    -718.2834   -3195.0303    3334.7282   -251.19763 0.00048018804 0.00047566888 0.00045395001 
 7176000    523.97678    -117.0111   -63.517889     1042.539   -3938.6946    77.010337 0.0004800737 0.00047545241 0.00045381865 
 7178000    496.38348   -117.17506   -2438.9828   -3230.8336   -1920.3671    562.71293 0.00047999906 0.0004753075 0.00045377335 
 7180000    479.28803   -117.52166    3132.1262   -172.51893    3782.4147    288.81268 0.00047995463 0.00047516292 0.00045370354 
 7182000    470.30163   -117.30496   -1442.4718    3020.4125    1497.6147    2144.0927 0.00048016548 0.00047495586 0.00045384754 
 7184000    474.72215   -117.93836    2711.9767   -1682.5575    1854.1526    4712.4925 0.00048000174 0.00047490353 0.00045399118 
 7186000     461.5157   -117.68365   -1372.5668   -5781.4938   -5876.9844   -3130.5391 0.00047993342 0.00047524691 0.00045390391 
 7188000     590.3125   -118.13629    -3194.347    3308.3462    1256.0704    1931.0007 0.00047994289 0.00047508028 0.00045384373 
 7190000    559.56367   -118.09719     2.193344    2532.5337   -4169.0486   -248.25528 0.00047984289 0.00047498701 0.00045391013 
 7192000    487.73899   -116.94699   -5815.1588   -3320.7643   -445.28115    391.43464 0.00047995084 0.00047486725 0.00045412468 
 7194000    474.78642   -117.45248    1591.0358   -1517.9673   -297.75016   -2193.0005 0.00048017663 0.00047472666 0.00045422611 
 7196000    537.23956   -118.20539   -1501.2528   -5130.6362    816.27962   -2367.1088 0.00048065588 0.00047461346 0.00045429848 
 7198000    515.87072   -117.38723    1930.2372    3809.1459   -3497.0222   -5423.5283 0.00048063832 0.00047465119 0.00045418379 
 7200000    541.44035   -118.10272    1980.5196    2479.8043    3494.8909    1578.3232 0.00048057198 0.00047450026 0.00045441407 
 7202000    534.69524   -117.78734   -5330.8893   -3671.1733   -1403.1233   -2189.4384 0.00048043538 0.00047439066 0.00045480782 
 7204000    512.28319   -118.44156    1322.9334   -243.03026   -2880.4578   -1549.6761 0.00048041206 0.00047428742 0.00045477731 
 7206000    505.03025   -116.46156   -4663.2222    -135.3625    2485.2183   -4346.6582 0.00048035894 0.00047427399 0.00045466373 
 7208000    484.71038   -118.07947    5.7696365   -3885.1749    -819.0973    1796.0435 0.00048068437 0.00047443001 0.00045476704 
 7210000    492.00441   -117.61855    2133.6825     2269.287   -2497.8871    4098.9331 0.00048073464 0.00047437244 0.00045486929 
 7212000    481.84934     -117.273   -1417.4664   -3774.2314    1460.4723   -2312.8049 0.00048072486 0.00047421259 0.00045515389 
 7214000    463.67872   -118.32407     2085.059   -1117.1846     -4596.99      5778.49 0.0004806957 0.00047409051 0.00045495125 
 7216000    586.50903   -117.55426   -3967.1926    3008.3993   -2082.9052    845.35672 0.00048089623 0.00047396857 0.00045508329 
 7218000    505.69368   -117.95245   -492.91823   -1472.1042    1166.5857    1497.9588 0.00048071447 0.00047380607 0.00045484409 
 7220000     472.4729   -117.38508    532.59818    797.42992    104.70177   -1761.2924 0.0004806696 0.0004737949 0.00045474058 
 7222000    499.14427   -117.32369   -1055.5933    61.258839    2200.8031    1740.8845 0.00048060441 0.00047364599 0.00045494956 
 7224000    508.19349   -118.71652    3142.4722    2839.4421    414.72859    6917.1021 0.00048051311 0.00047350238 0.00045482282 
 7226000    507.70937   -116.25141   -392.58844   -2520.2307    5239.0212   -3075.5297 0.00048053184 0.00047377019 0.00045469656 
 7228000    515.76675   -117.68344    576.51721    1352.8482    2676.8782    4072.8585 0.00048041551 0.00047368674 0.00045457318 
 7230000    516.84444    -118.3563   -2845.2509    2236.4783    2367.2187   -1108.9527 0.00048039151 0.00047380735 0.00045461205 
 7232000    541.85352   -117.38816   -4592.4651    2113.9727   -2270.6957   -2399.5329 0.00048054128 0.00047379176 0.00045481498 
 7234000    471.61118    -117.0972    349.94449    2851.7635    807.46013   -3003.7536 0.00048032469 0.0004737784 0.00045462755 
 7236000    476.05978   -117.68887   -1990.7071   -2892.7987   -2721.4859    2906.5129  0.000480139 0.00047375242 0.00045452787 
 7238000    451.11186   -115.62268    3633.3435   -1327.5773    4775.5799   -3166.5246 0.00048019903 0.00047372319 0.00045448659 
 7240000    529.48452   -117.13961    232.18472   -2900.6795    556.77774    1348.3372 0.0004800396 0.00047427903 0.00045441952 
 7242000    503.28033    -118.7462    994.55089   -2240.6717    899.50233    1444.0734 0.00048006959 0.00047414092 0.0004543617 
 7244000    464.00088   -116.80673    1224.5842    2599.8621   -472.83224    2478.5415 0.00048007535 0.00047413882 0.00045421352 
 7246000    494.48311   -118.66571   -4148.2149    1054.5024   -2615.1179    1592.2935 0.00048002691 0.00047409206 0.00045416254 
 7248000    527.54405   -117.15028    1287.7309   -1482.5432    320.37074   -519.40585 0.00047995411 0.00047403739 0.00045423236 
 7250000    484.42136   -117.14903   -3185.7557   -2543.0929     376.0393    569.50787 0.00047983149 0.00047410546 0.0004541342 
 7252000    441.58172   -117.20163   -825.88341    3273.0629   -537.74703    2567.2426 0.0004796767 0.00047398023 0.00045415899 
 7254000    503.09376   -117.65344   -45.160124   -893.17599    5277.9308   -712.07043 0.00047990046 0.00047386155 0.00045408475 
 7256000    522.77815   -118.07251   -3347.2742     3810.068   -1326.0573   -1514.8104 0.00047970448 0.00047392278 0.00045399282 
 7258000    502.65104   -118.03094    2595.9432   -3221.3991   -842.95661    3799.2202 0.0004797879 0.00047417365 0.00045386059 
 7260000    575.23117   -117.73398   -4079.0353   -3038.8338    198.60931   -5464.5302 0.00047962128 0.00047404999 0.00045473936 
 7262000    544.14862   -116.72147    1762.2209    4422.4651   -2489.7781    869.62984 0.00047986882 0.00047394452 0.00045521619 
 7264000    483.74689   -117.05529      1507.64     865.8553    240.69403    -354.8643 0.00047975154 0.00047385403 0.00045523961 
 7266000    543.14906    -117.1477   -2365.2971    447.19774   -274.76676    10.980789 0.00047972783 0.00047373127 0.00045580717 
 7268000    513.71647   -115.79783    4721.3242   -1652.7017    2911.2039    264.13323 0.00048040996 0.00047373395 0.0004557339 
 7270000    485.94286   -117.03615   -3543.8409    1254.3864     16.42912    3053.9257 0.00048073001 0.00047357063 0.00045570525 
 7272000    495.93212   -117.82432   -683.33936    1103.5129   -2711.7119    1682.9353 0.00048067397 0.00047358254 0.00045553338 
 7274000    464.86809   -117.06358   -3120.3064   -2718.9348   -1259.4011    940.88383 0.00048062894 0.00047355351 0.00045546877 
 7276000    449.42235   -117.96997   -3894.1649    1339.6149   -929.50917    4940.0412 0.00048051764 0.00047382868 0.00045536465 
 7278000    486.26225   -116.68139    1853.2248   -4934.8371   -2592.8643   -4917.5358 0.00048043216 0.00047408147 0.00045529795 
 7280000    512.25991   -118.35799   -4122.4503   -701.21035   -2518.3465   -428.55521 0.00048041916 0.00047401385 0.00045545278 
 7282000    496.13108   -117.77111    3113.5865   -563.77888    1088.0563   -3521.7129 0.00048029783 0.0004740109 0.00045634274 
 7284000    497.95714   -118.07786   -486.26882    767.13235    3635.6988    132.56385 0.00048020892 0.00047417755 0.00045621582 
 7286000    451.22131   -118.34211   -264.76003   -2342.5083    1344.2538   -2622.9029 0.00048009302 0.00047403028 0.00045636735 
 7288000    472.84708   -117.70585    2216.4122   -6206.2157    3318.9379   -1577.0154 0.0004800091 0.00047398148 0.00045661206 
 7290000    462.83172   -117.74958   -3843.9725     1401.108   -401.21568   -1736.6488 0.00048020685 0.0004741992 0.0004564765 
 7292000    519.73765   -116.52849    1909.0562     -1311.64   -3444.6735   -248.90578 0.00048009341 0.00047412432 0.00045660115 
 7294000    490.92607   -117.07761   -4826.5975    1578.4571   -3196.2572   -5236.3387 0.0004799038 0.0004742103 0.00045667159 
 7296000    472.67105   -118.91036   -1175.3556   -2119.9986   -914.81395    795.00278 0.00047976652 0.00047409735 0.00045660953 
 7298000    481.55695   -119.00383   -241.26478   -915.74619   -1032.4283   -1529.7866 0.00047976417 0.00047409889 0.00045643766 
 7300000    472.51176    -117.5123   -4741.6985    1335.5374   -1711.4083    1626.3559 0.00047964942 0.00047411424 0.00045646638 
 7302000    490.26465   -117.01607    3657.6497    2575.3558   -2872.0866    2253.0123 0.00047951268 0.00047407915 0.00045697301 
 7304000    444.87908    -118.3833   -4447.0234   -251.37846   -1924.3459   -1143.9701 0.00047932903 0.00047393516 0.00045690636 
 7306000     482.6089   -118.32707    3073.0152   -5239.8433     2374.748    1938.4016 0.00047918784 0.00047414868 0.00045770533 
 7308000    499.09271   -118.57111    1016.5698   -4548.3139   -820.01123      237.344 0.00047907027 0.00047469921 0.00045773561 
 7310000    483.03118   -117.22371   -1971.5475   -289.82893    2177.8235    2306.6367 0.0004789993 0.00047449471 0.0004578406 
 7312000     475.1756   -117.83112     3980.398    1511.8047   -936.69882    1836.2381 0.00047878946 0.00047437217 0.00045773771 
 7314000    473.83998   -116.93519   -6272.2048   -3024.5351   -741.04116   -5697.8255 0.00047875443 0.00047423608 0.00045758957 
 7316000    518.17781    -118.4763    681.64968    -3359.792    3847.6263   -565.03746 0.0004786772 0.0004743795 0.00045755905 
 7318000    455.41323   -116.83036   -5197.8184   -607.10342   -92.090347     1275.783 0.00047855086 0.00047427536 0.00045747409 
 7320000    476.41056   -117.22298   -2098.6942    181.23982   -3659.2861     252.6546 0.00047875011 0.00047434543 0.00045736926 
 7322000    547.49512   -117.43826    3890.4147   -2522.9083   -813.47588    670.63336 0.00047887395 0.00047440193 0.00045756318 
 7324000    572.39974   -117.15006    -3402.937    -2387.024    108.91831    4534.1973 0.00047868051 0.00047415085 0.00045741429 
 7326000     616.3506   -117.89283    6404.0787    214.52886    714.12115    769.50481 0.00047855538 0.00047438706 0.00045729432 
 7328000    528.35074   -116.92128   -1579.7131   -1390.5597    2010.0327    906.95253 0.00047853275 0.00047436565 0.00045717072 
 7330000    519.08548   -117.53021   -136.80874    3842.3616    -1765.278    2245.1929 0.00047846465 0.00047425943 0.00045701042 
 7332000    507.27008   -117.12337   -181.42372   -489.71871    730.36351    861.59371 0.00047848614 0.00047416474 0.00045689927 
 7334000    531.54293   -117.63244     -5670.39   -1568.4229   -5808.4628    472.61748 0.00047843181 0.00047425674 0.00045718023 
 7336000    496.51448   -118.22737     1783.149    187.57549    1269.4963   -790.82702 0.00047834982 0.00047421353 0.00045711012 
 7338000    534.40994   -118.32886   -3827.8213   -300.55711    3449.0081    2494.5386 0.00047831437 0.00047439743 0.0004569314 
 7340000    545.29913   -116.78863    2257.7167    -3297.252     4922.275    5872.7866 0.00047816169 0.00047436901 0.0004568558 
 7342000    497.78941   -118.10309   -1460.4708    1889.9028     2998.225    2942.3168 0.00047813103 0.00047425918 0.00045671123 
 7344000    458.29821    -118.7523   -4350.9162    -2983.098    751.54964   -4744.6749 0.00047801341 0.00047426448 0.00045667513 
 7346000    447.09721    -117.7807    1873.5692   -24.927537   -4724.2436   -583.59036 0.00047782754 0.00047404815 0.0004573312 
 7348000     476.4738   -118.05498   -5314.7549      5398.26    413.36279   -2799.6985 0.00047762917 0.00047391278 0.00045826483 
 7350000    451.39739    -118.1466    3200.8566    1295.5535    2279.6929    1990.0273 0.00047756217 0.00047386187 0.0004581663 
 7352000    485.55723   -117.21598     93.91519     2827.703   -4018.4555    1893.1375 0.00047799987 0.00047383874 0.00045816361 
 7354000     511.2763   -117.67932    247.36879    3347.2635   -1730.2947     1573.745 0.0004778301 0.00047389223 0.0004582688 
 7356000    477.23759   -117.37369    2950.6725    52.364877    132.05094   -97.816521 0.00047781216 0.00047414803 0.00045922653 
 7358000    494.03258   -116.92632   -4507.7708   -316.06584   -2755.1071    507.25582 0.00047786294 0.0004740265 0.00045925957 
 7360000    522.56332   -117.59063    552.59932    4703.4552    1758.7848    1471.7765 0.00047778128 0.00047389445 0.00045923545 
 7362000    471.57975   -118.12522   -3108.2821   -3374.5001    939.87104    3171.1828 0.00047764928 0.00047383543 0.00045910784 
 7364000    605.75346   -117.30741   -1555.4311    2845.2198    2277.4532     2151.536 0.00047753599 0.00047378827 0.00045915309 
 7366000    476.27623   -118.06194    1994.2009   -4376.4256    384.40579    513.66066  0.000477561 0.00047364869 0.00045879137 
 7368000    518.77504   -117.45192   -3278.2756    -834.0054   -4570.3301      1018.57 0.00047739346 0.00047348185 0.00045888368 
 7370000    498.37725   -116.72124      5101.91    4019.1933    714.10584   -2968.9338 0.00047729574 0.00047375974 0.00045873009 
 7372000    480.75001   -116.98254   -4070.2664   -2394.8193    3465.8421   -1975.8015 0.00047715414 0.00047383508 0.00045863982 
 7374000    484.80846   -117.23346    424.55325    646.21281    -3464.422   -4507.7931 0.00047702943 0.00047405242 0.00045863192 
 7376000    444.91109   -116.80994    -128.5815    293.58549    3100.4718    75.538404 0.00047690797 0.0004739222 0.00045914331 
 7378000    481.70778    -118.1758   -4687.0597    18.033677   -2916.9986    2817.7386 0.00047684381 0.00047380933 0.00045964952 
 7380000    477.60547   -117.40283    2933.7098    496.28101    1532.1429   -3287.3505 0.00047675862 0.00047376128 0.00045981374 
 7382000    477.05409   -117.01085   -3674.3226    1313.4612   -1037.4014    5170.4136 0.00047661128 0.00047368439 0.00045983107 
 7384000     521.1913   -117.48679    2329.8554    3262.2327    1372.8159   -153.34106 0.00047649478 0.00047359645 0.00045962991 
 7386000    449.04154   -117.82493   -745.87991    1109.2792   -6366.9924   -1194.6314 0.00047645156 0.00047362405 0.0004595349 
 7388000    526.73011    -116.7062   -2250.3935    4484.5067    3742.7742    3380.4539 0.00047629898 0.00047350279 0.00045962988 
 7390000    450.97469   -117.42061    2351.7676   -986.19322    2123.1484    1924.9152 0.00047645316 0.00047333833  0.000459757 
 7392000    482.66138   -117.45981   -4998.0892   -1117.4728   -276.04208    2846.7761 0.00047682598 0.00047321749 0.00045983272 
 7394000    501.20027   -117.42813    2459.5426    2375.2853   -1231.1641     2000.021 0.00047681072 0.00047317692 0.0004599799 
 7396000    543.33593   -117.67532   -2480.3389     3015.885    2673.5259    4002.2556 0.00047666779 0.00047312264 0.00046018576 
 7398000     484.6955   -117.52888   -1907.5237     1279.319   -3301.1358    214.14521 0.00047669543 0.00047299884 0.00046018865 
 7400000    512.65388   -118.05867    2228.6613    2598.3575     1600.654    1960.3545 0.00047664398 0.00047289782 0.00046060294 
 7402000      458.562   -118.17571   -6842.0952    1873.2303   -432.00514   -512.38821 0.00047659372 0.00047274243 0.00046075907 
 7404000    469.90103   -116.95091     3539.431    -3091.003    4650.9828    99.116084 0.00047648882 0.0004726461 0.00046065972 
 7406000    491.72646   -117.23076   -3620.0066    5022.4513    3527.9019     2341.399 0.00047640422 0.00047249366 0.00046062847 
 7408000    497.86511   -117.43816    749.72925    4644.7773   -3731.8705    278.68559 0.00047632565 0.00047284772 0.00046080478 
 7410000    514.47348   -116.92973    3010.6849   -750.62345    670.92824    4264.6027 0.00047626155 0.0004730019 0.00046069745 
 7412000    518.70733   -117.30386   -3457.2413    -934.4877    1271.9437    2773.5716 0.00047624564 0.00047286861 0.00046082207 
 7414000    487.66112   -118.30157    4480.5818   -566.06449    273.62726   -1248.1725 0.00047626057 0.00047277209 0.00046128666 
 7416000    450.94305    -117.7567   -5285.9424    873.97506   -8392.3548   -1381.5913 0.00047607567 0.00047265504 0.0004612817 
 7418000    496.27361   -115.61602    527.55995   -1682.0256    1567.4286    -2215.004 0.00047609753 0.00047258763 0.00046120992 
 7420000    467.33543   -117.17114   -2440.6043   -3637.4331   -1919.5645    3576.1393 0.00047641353 0.0004726824 0.00046106421 
 7422000    463.51744   -117.92631   -3145.9828    1972.9897   -715.88202   -1716.0196 0.00047622946 0.00047282626 0.00046106556 
 7424000    484.85087   -117.64694    4219.0743    1824.6885   -963.43864     467.7919 0.00047608731 0.00047266469 0.00046107236 
 7426000     525.0182   -116.83655   -4146.4875    620.33989   -5091.3095    3778.0279 0.00047602704 0.00047301947 0.00046128528 
 7428000    472.26425     -117.138    3029.5336     1105.813   -2550.4112    3131.3778 0.00047625775 0.00047296288 0.00046131874 
 7430000    457.54852   -117.85242   -2181.6207    2540.9093   -1288.3056    837.37047 0.00047601118 0.00047282923 0.00046138503 
 7432000    534.42723   -116.59525   -1400.9502   -629.23886   -2713.6616   -233.87583 0.00047589523 0.00047267672 0.00046154059 
 7434000    498.79754    -118.8055    3410.4754   -2315.4967   -726.57365   -6563.4782 0.00047581078 0.00047257309 0.00046137708 
 7436000    496.56961   -117.03577   -4241.4564    2126.5772   -493.15736   -184.23018 0.00047571453 0.0004724878 0.0004614492 
 7438000    453.20438   -117.31027    3406.7798    2243.0162   -685.72397    3528.8215 0.00047571161 0.00047231179 0.00046127208 
 7440000    463.45541   -118.34443   -4107.0119   -2098.3593    4171.8265   -3194.7057 0.00047573075 0.00047248665 0.00046113689 
 7442000    539.77999   -117.90667   -1267.5141   -1189.4796    33.915756    497.71841 0.00047595333 0.00047238476 0.00046128411 
 7444000    433.46682   -117.44812   -932.85703    2054.4472    633.80339    2677.0625 0.00047601166 0.00047225433 0.00046131353 
 7446000    481.26655    -118.5304    -4109.585   -4385.1653    382.86828   -6125.9601 0.00047598438 0.00047210893 0.00046126298 
 7448000    511.08161   -116.49665    4771.1977    1861.5429    2157.7242   -188.54956 0.00047595421 0.00047229581 0.0004612325 
 7450000    481.36351    -118.3353   -1695.6348     2838.533    2849.2899    1525.0873 0.00047607289 0.00047219142 0.00046117001 
 7452000    483.21474   -118.57609    2363.2139    3433.0897   -572.45549   -690.93828 0.00047598355 0.00047203455 0.00046109899 
 7454000    515.47583   -116.62793    997.40949    1394.5428    2280.2256    2445.9612 0.00047587331 0.0004720487 0.00046136107 
 7456000    525.23039   -117.05448   -4089.8553    4612.8364    47.891562    1102.7568 0.00047579515 0.0004721948 0.00046104562 
 7458000    511.04712   -116.74697     2761.658    2588.6879     353.7708   -5611.4285 0.00047568782 0.00047202231 0.00046095243 
 7460000    489.49082   -117.53143   -5994.8268   -1363.5701    2099.0748   -4766.4988 0.00047559115 0.00047198557 0.00046089435 
 7462000    468.63037   -118.28309    867.70469   -329.46911   -1143.4203    3605.0395 0.00047546642 0.00047189381 0.0004607216 
 7464000     487.7679    -117.3143   -2729.7385   -5826.2852   -2892.7964    600.27764 0.00047526937 0.00047177111 0.00046056921 
 7466000    483.01301   -117.04079   -1722.0941   -2019.4859   -6473.6979     2795.984 0.00047514389 0.0004717673 0.00046046387 
 7468000    542.24596   -117.29442    1712.6325    2165.6617    4220.3638    2469.4301 0.00047518381 0.00047190779 0.00046042412 
 7470000    521.27215   -118.52636   -5197.2872    19.070944   -6164.6867    3112.5601 0.0004750228 0.00047185834 0.00046030362 
 7472000    512.17383   -117.54544    4009.0611   -1390.6022   -2169.2694   -2014.8721 0.00047481643 0.0004717442 0.00046014984 
 7474000    514.18835   -117.98732   -2282.8459    375.81338   -6200.0676     -10.5472 0.00047463787 0.00047230498 0.00045998672 
 7476000    473.38828   -118.55222    624.33869   -112.77284    3059.6088   -2010.5721 0.00047453511 0.00047208278 0.00046003926 
 7478000    500.20557   -118.19409    1941.6725   -721.53591    744.10352    197.74675 0.00047444919 0.0004719922 0.0004598779 
 7480000    534.33208   -117.62426   -4885.6045   -1800.2329   -1787.0978   -3748.9514 0.00047429592 0.0004719882 0.00046015271 
 7482000    548.61026   -118.25895    1094.8908   -4387.4829    1977.4159    2733.4709 0.00047417767 0.00047196486 0.0004600782 
 7484000    514.00456    -117.5808    -3678.917    -2426.804    -1484.429    23.310931 0.00047439901 0.00047194548 0.00045995122 
 7486000    542.14134   -116.86783   -865.97877   -2630.8974   -4188.5416    180.61854 0.00047419822 0.00047185656 0.00045995222 
 7488000    527.26732   -117.79879   -1177.2144    1946.5847   -148.95265   -1406.7785 0.0004745248 0.00047184339 0.00045981246 
 7490000     495.4793   -118.22214   -1568.9434   -262.39932    2014.7966    1170.3112 0.00047480765 0.00047163258   0.00045989 
 7492000    499.16517    -117.4551    3679.1448    470.67386   -4086.9169    496.05829 0.00047483562 0.00047155264 0.00045975358 
 7494000    554.02089   -117.00975   -2727.5717   -392.42201    3157.4953    1925.7872 0.00047476042 0.00047143256 0.00045964603 
 7496000    512.68058   -118.10186    2275.0816    2911.2662    1229.8726   -3838.4298 0.00047475032 0.00047125976 0.00045950723 
 7498000    523.56613   -117.81183   -3532.8529    392.06074     3479.577    180.31353 0.00047464691 0.00047111786 0.0004594327 
 7500000    503.00658   -118.04427   -1498.1082    4281.4943    1355.2885   -1277.4845 0.00047480547 0.00047134492 0.00045937674 
 7502000    568.07805   -117.68644    3569.8749   -2256.8066   -3654.1095    2561.4985 0.00047480375 0.00047125453 0.00045929627 
 7504000    497.78331   -118.31062    -4500.311    4444.3614     1745.453   -4377.5408 0.00047508114 0.00047148712 0.00045924607 
 7506000    480.92734    -118.0542    3750.7105    1066.8092    -2205.465    1675.5608 0.00047485947 0.00047169955 0.0004592226 
 7508000    497.05749   -117.50803   -4505.5528   -2325.3857   -1394.3737    1877.4145 0.00047486752 0.00047160068 0.00045919388 
 7510000    473.51845   -117.13803   -1025.5625    -566.1807    1707.3384    2604.0595 0.00047522503 0.00047155369 0.00045913842 
 7512000    520.74679   -117.56099   -1830.4596    3341.0614    454.82907   -2127.0404 0.00047540627 0.00047145203 0.00045903264 
 7514000    536.16665   -116.46335   -4232.3975    2704.8272   -54.154564   -1986.5136 0.00047523727 0.00047156719 0.0004591105 
 7516000    469.36895    -117.4901    4151.2967    5231.2569     2327.569    100.69882 0.00047532022 0.00047195574 0.00045886732 
 7518000    474.51217   -117.89779   -4036.0268    1370.6704   -1120.6189   -577.39398 0.00047525674 0.0004718002 0.00045894066 
 7520000    483.86285   -117.74747    4289.6362   -1212.1002   -2227.3785    578.37432 0.00047523134 0.00047179281 0.00045873813 
 7522000    534.93246   -118.09703   -1506.5765    6911.1964   -693.97175    4022.7634 0.00047547721 0.00047187795 0.00045861653 
 7524000    466.56009    -117.8665   -4488.7339    -596.1883   -2689.1411    -242.5621 0.00047579906 0.00047177878 0.00045851137 
 7526000    465.51817   -117.61685    3025.2054    1004.9274    506.22488    916.74085 0.00047573175 0.00047173644 0.0004583741 
 7528000    504.00295   -115.85471   -7677.1682    1064.7471    1624.3248   -3324.2781 0.00047588274 0.00047187844 0.00045863232 
 7530000    500.25451   -117.77592    4320.8152    -3561.255   -2634.4492   -5203.8167 0.00047581495 0.00047185787 0.00045858569 
 7532000    500.24314   -117.75823   -1118.0093   -2190.1671    3087.5617    2892.7332 0.00047665154 0.00047201482 0.00045850309 
 7534000    521.58856   -118.52943   -450.00096   -3917.3125   -563.80646   -1501.1265 0.00047644296 0.00047187434 0.00045842121 
 7536000    504.68395   -117.83147    3683.2465    1568.6377    4997.5959   -2596.6958 0.00047631575 0.00047176402 0.00045831003 
 7538000    501.15783   -117.30545   -6366.5561   -6980.8441     2141.486    245.84354 0.00047643196 0.0004716259 0.00045819941 
 7540000     493.3678   -118.09595     2895.787    710.52554     3594.534   -4149.1031 0.00047666908 0.00047163647 0.00045812188 
 7542000    449.88836   -116.76463   -5284.8631    2317.8523   -783.96814   -994.62349 0.00047659316 0.00047148568 0.00045796402 
 7544000    431.53514   -117.33456     1606.299   -5847.1193    158.81015    2539.0663 0.00047655472 0.00047137732 0.00045790979 
 7546000    489.49172   -117.55688    1822.0098   -1217.4367   -2260.6393   -881.99434 0.00047655166 0.00047124483 0.00045783381 
 7548000    434.89593   -118.33679   -3441.9091   -1147.4333    2282.9938    473.73868 0.00047646033 0.00047250174 0.00045769921 
 7550000    534.02789   -117.63101    6444.2991   -3735.6505     2977.746   -423.23058  0.000476393 0.00047310635 0.00045749778 
 7552000    519.28855   -118.01765   -7808.1282    3538.5213    1995.8693    7384.1097 0.0004763496 0.00047307464 0.00045749607 
 7554000    516.36957   -118.29219    1023.9321    1257.7888    1588.0245    865.88393 0.00047629588 0.0004733693 0.00045730117 
 7556000    517.72351   -117.33055   -1327.4668   -201.13669    6032.4772   -3003.4487 0.00047608705 0.00047345683 0.00045737249 
 7558000    548.32367   -118.02797   -3914.8757   -660.54962   -1680.1861   -642.17038 0.00047593107 0.00047360651 0.00045728672 
 7560000     463.0775   -116.87708    6224.9111    -2960.268    5201.4672    -1251.901 0.00047587286 0.00047344787 0.00045715686 
 7562000    490.71069   -118.32382   -4843.7586    2683.0434   -925.29514    3404.8021 0.00047582104 0.00047374834 0.00045707067 
 7564000    486.32893   -117.50925    4103.0081   -47.238809    -318.1401    664.58193 0.00047593308 0.00047357459 0.0004571366 
 7566000    521.59046   -117.73744   -3602.9752   -63.869093    868.30225   -1215.3855 0.00047600472 0.00047347575 0.00045718923 
 7568000    504.13937   -117.46845    -2042.807   -1360.3993   -690.18533   -1230.5424 0.00047590659 0.00047336147 0.00045711206 
 7570000    556.83852   -116.90963    3514.5956   -2412.0177    523.52491    197.50269 0.00047583258 0.00047330812 0.00045689032 
 7572000    433.04774   -118.18871   -6527.8003   -774.54634   -2337.5115    2917.5917 0.00047577202 0.00047316362 0.00045680626 
 7574000     512.0368    -117.7738    7122.7152    3459.9831    -2738.341   -4142.3812 0.00047576947 0.00047325443 0.00045680801 
 7576000    530.03472   -117.99647   -4732.3698   -450.64103   -2389.7088    4403.7175 0.00047556287 0.00047336702 0.00045668592 
 7578000    577.25584   -117.66447    935.52301   -1756.1173   -358.04751   -3307.6977 0.00047557855 0.00047356451 0.00045650926 
 7580000    470.55498   -116.61223    1865.1907   -2629.8719   -1076.2169     3421.838 0.00047558047 0.00047353448 0.00045640893 
 7582000    481.66597   -117.64378   -8830.2365    3030.9253    1029.1843   -6819.8463 0.00047541622 0.00047350077 0.0004564369 
 7584000    501.67052   -117.09718     2579.786    2062.8005   -816.62783    6165.5343 0.00047532965 0.00047369718 0.00045632385 
 7586000    533.68418   -116.76645    -5498.982    4160.0944   -1347.8232   -2155.1587 0.00047519147 0.00047387344 0.00045638171 
 7588000     485.5782   -117.63821     4004.975    697.64492   -2245.0906   -3075.3434 0.00047525035 0.00047391496 0.00045687524 
 7590000    522.04947   -116.67413    4844.6917    6343.3401   -581.47609   -3795.7569 0.00047512116 0.00047393111 0.00045690484 
 7592000    449.44681   -118.07066   -3029.4589   -126.71954   -906.57218   -1770.5666 0.00047505993 0.00047426221 0.00045705592 
 7594000    541.50911   -116.88124    5410.2077   -5485.3704    3601.8121    3610.3725 0.00047504044 0.00047412126 0.00045716585 
 7596000    479.10962   -118.05899   -9417.0135    1773.8465    1567.8565   -2648.8825 0.00047494263 0.00047396667 0.00045715803 
 7598000     524.2206   -117.83759    2588.0599   -642.79715    1249.8531   -3217.2611 0.0004749239 0.00047397349 0.00045703144 
 7600000    517.85108   -118.48639   -4354.5204    4839.0905   -272.26412    3327.3621 0.00047476371 0.00047386703 0.00045692275 
 7602000     515.9291   -117.24393    -1439.333   -14.709364   -1401.3912   -1485.1622 0.00047459884 0.00047379432 0.00045684516 
 7604000    531.81163   -117.23382    7243.3225    1902.8824   -4660.4834    2938.8058 0.00047456655 0.00047367614 0.00045728886 
 7606000    501.78179   -117.18754   -7544.9109    2316.8207    1452.7285   -982.35401 0.00047451755 0.00047391993 0.00045725278 
 7608000    467.32711   -116.89527    6329.8512    2625.1711    2684.5347    2835.9438 0.0004746672 0.00047456867 0.00045713289 
 7610000    487.15077   -117.41348   -5922.5104   -3460.7141     1223.776    1759.2999 0.00047472586  0.000475647 0.00045711562 
 7612000    536.74534   -116.29156    -804.9956   -442.88148   -3814.8895    4079.8142 0.00047468811 0.00047530345 0.0004569945 
 7614000    538.07339   -117.17073    2684.2216   -2074.4458    115.63261     2757.952 0.00047474985 0.00047509415 0.00045694447 
 7616000    486.18395   -117.05246   -5363.0482   -5008.6024    2950.2903   -378.52292 0.0004745544 0.00047518141 0.00045685862 
 7618000    559.66689   -117.76879    8058.7835    2265.7354    -2397.593   -1649.4914 0.00047458417 0.00047556245 0.00045707216 
 7620000    474.88231   -117.56148   -8554.1467    856.60418   -1611.8522    -4703.661 0.00047445112 0.00047563083 0.00045703316 
 7622000    542.79868   -117.48888    3601.5466    2871.4028     2599.393   -3768.0959 0.00047437671 0.00047604993 0.0004569141 
 7624000    519.51749   -117.32222   -2264.3592   -5879.9339     1606.013    3692.3458 0.00047444928 0.00047591164 0.00045677197 
 7626000    522.05554   -118.50864   -5849.8266     1804.686    1074.4075   -2593.6209 0.00047432879 0.0004758518 0.00045671445 
 7628000    466.47378   -117.16981    5773.7579   -1478.1705    -1142.969    2060.5985 0.00047415756 0.00047596317 0.00045664583 
 7630000    489.52818    -117.0856   -7181.8657   -2145.3818    1084.5473   -393.44813 0.0004740858 0.00047589655 0.00045700198 
 7632000    479.51943   -118.01585    8585.0268    7917.8268   -844.60624   -1612.5875  0.000474761 0.00047602243 0.0004568502 
 7634000    492.34014   -117.38195   -2106.7908   -4290.8703    2285.2235    6776.9595 0.00047472443 0.00047654922 0.00045701677 
 7636000    493.94927   -117.77561   -921.09779   -381.11896    262.13526   -1248.8185 0.00047481252 0.0004766885 0.00045704924 
 7638000    482.68633   -117.94432    1350.4004    569.58617   -600.83504    3098.5055 0.0004745201 0.00047656263 0.00045693554 
 7640000    446.94645   -117.34647    -9367.729    4540.0373    4468.9827   -6416.6157 0.00047436657 0.00047650148 0.00045688962 
 7642000    530.10671   -117.48261    2274.6569     1206.324    2213.0232    1591.3396 0.00047432609 0.0004763789 0.00045683476 
 7644000    528.17667   -117.11368     -5834.97   -3061.4032    2427.3856    295.93275 0.00047530365 0.00047620532 0.00045671086 
 7646000    593.68268   -116.55853    4095.9097    2826.6766   -2403.7091    4728.1593 0.00047504665 0.00047635531 0.00045664752 
 7648000    540.75754    -117.1938    1866.6039   -2354.6646    801.73121   -3129.8239 0.00047503565 0.00047667899 0.00045669289 
 7650000    553.45472   -117.86512   -918.79989    1688.8923   -4876.3209    915.55928 0.00047526184 0.00047718387 0.00045665309 
 7652000    518.54165   -117.95819    4131.9216    2447.6462   -1446.2874   -747.14937 0.00047526674 0.00047706237 0.00045662833 
 7654000    510.79847   -118.13529   -4838.2394    2825.0853   -9598.9178    3201.3056 0.00047507176 0.0004770526 0.00045642575 
 7656000    527.95352   -117.81406    1242.7026   -3082.7269   -1222.5958    528.11515 0.0004749278 0.00047705809 0.00045664704 
 7658000    507.64704   -118.02594   -2116.7358   -64.501369   -337.55049    311.54543 0.00047492783 0.00047701166 0.00045654848 
 7660000    500.91355   -117.43238   -557.22284    174.89372   -936.33187    3627.7099 0.00047472917 0.0004769308 0.00045641398 
 7662000    462.94749   -117.42665    3258.7356    2788.1088   -1728.3084     75.58816 0.00047457716 0.00047682591 0.00045711831 
 7664000    518.22457   -117.41508   -5172.1588    2660.0565   -1432.8347    -359.2983 0.00047447989 0.00047674944 0.00045686338 
 7666000    620.28276   -116.59162    1194.9845    4447.8683    184.01228   -1040.3607 0.00047438266 0.00047667193 0.00045694564 
 7668000    487.71787   -116.95386    -5865.885    3982.9938   -1539.6884    8078.0165 0.00047439423 0.00047699681 0.00045680769 
 7670000    499.92004   -117.30065   -854.60439    2742.1278    3017.5177   -4664.1855 0.00047437542 0.00047713837 0.00045674064 
 7672000    494.71288   -118.30527    1504.3609    2105.5823   -1070.1593     2630.101 0.00047450185 0.00047700079 0.00045678084 
 7674000    514.94142   -117.20968   -924.42889   -3624.9983    1547.2918   -1469.1951 0.0004750442 0.00047690056 0.00045693618 
 7676000    501.21262   -117.74152       5742.1    1573.8995    2326.2552   -3293.2498 0.00047531451 0.00047679134 0.0004567935 
 7678000    470.41338   -116.91778   -1896.1715   -3477.4607   -4146.7388   -2889.6791 0.00047543832 0.00047658716 0.00045693245 
 7680000     489.5509    -117.8999    823.08545     -1078.53    1770.8505   -2192.5839 0.00047560972 0.00047643593 0.00045684798 
 7682000    529.51825    -118.2446   -3287.9005   -3877.4418   -4148.8128   -4099.2459 0.00047546884 0.00047635203 0.00045673802 
 7684000    476.76064   -117.73835   -5752.0337    4155.9349    165.94841    2503.8192 0.0004753742 0.00047622539 0.00045663764 
 7686000    519.92447   -117.74938    2217.3669   -1042.7385     3162.913   -1963.5178 0.00047527319 0.00047611516 0.00045655408 
 7688000    472.09381   -116.60744   -4855.7127   -1345.1171   -396.94509   -3093.5408 0.00047513438 0.00047599817 0.00045657548 
 7690000    512.14296   -117.40519    3007.3961   -666.43206    2223.5268     1847.481 0.00047501182 0.0004758933 0.00045658328 
 7692000    526.91794   -117.19479   -91.515522   -3588.6481    7166.5001   -5009.4368 0.00047486886 0.00047587152 0.00045661602 
 7694000    467.63553   -117.45897   -571.36073    1293.2414    1889.3542    1709.4772 0.00047481785 0.00047601029 0.00045658684 
 7696000    509.16859   -118.16179    2081.1966    -3158.147   -1914.6776     5409.699 0.00047465699 0.00047594169 0.00045648072 
 7698000    444.82194   -118.34715   -4974.7389   -191.75538   -1958.7351    -2221.012 0.00047456232 0.0004757869 0.00045643098 
 7700000    490.24744    -117.8932    3384.7459   -1102.3519   -1718.8788    1145.4962 0.00047453252 0.0004757311 0.00045644779 
 7702000    468.64267   -118.01155   -3723.4977   -1628.0123    1268.3031    1325.1743 0.00047436529 0.00047581943 0.00045638651 
 7704000    519.69973   -115.99722    1866.9095   -1902.0445   -3269.6793   -29.650109 0.00047423041 0.00047584665 0.00045629673 
 7706000    496.82251   -117.57732   -54.315726   -4597.2873   -438.17652    1920.2782 0.00047408618 0.00047581939 0.00045710108 
 7708000    509.52016   -117.07448   -5145.8935   -533.37939   -2131.9662    710.41114 0.00047412604 0.00047569435 0.00045784583 
 7710000    537.95467   -117.21913    3639.6592    2551.0352    -3692.716    1021.1586 0.00047430354 0.00047558763 0.00045782603 
 7712000    540.13118   -118.34909   -6198.4084    2079.0086    903.98743   -1604.0744 0.00047438204 0.00047549504 0.00045771241 
 7714000    529.74124   -118.92472    2950.7817   -1681.6125    3174.5653    31.701206 0.00047428476 0.00047535479 0.00045767433 
 7716000      460.137   -116.19231    853.48795    1040.2238   -843.60434    511.44033 0.00047423927 0.00047534106 0.00045755922 
 7718000    463.84916   -117.59325    76.120728   -2201.8403    3930.4991   -216.71298 0.0004741391 0.00047530694 0.00045745244 
 7720000    478.26306   -117.76519    4722.5265    130.55412    2091.1554     2287.808 0.00047406285 0.00047527577 0.00045729704 
 7722000    526.37423   -117.98637   -4221.0169    -6023.574   -3484.8352    2898.4837 0.0004740664 0.0004753894 0.00045718694 
 7724000    507.50145   -116.40563    2816.0854    720.30393    143.52162   -128.69189 0.00047458013 0.00047518629 0.00045713174 
 7726000    443.12834   -117.98285   -5346.5196   -1894.6301   -900.56665    1404.5052 0.00047460499 0.00047503997 0.00045719471 
 7728000    492.11792   -118.01998    -2414.135   -5743.5661    5818.4358    1443.8546 0.00047441394 0.00047515492 0.00045719355 
 7730000    515.15907   -117.73063   -779.40158    312.44097    -2064.207   -2024.2002 0.00047426077 0.00047533392 0.00045718255 
 7732000    500.94678   -115.89018   -4676.9243    63.738971    -3565.521    20.467344 0.00047412614 0.00047536089 0.00045702571 
 7734000    482.73912   -117.41257    4813.3537    -1015.811     3729.565    1217.0616 0.00047395885 0.00047529792 0.00045687085 
 7736000    511.07216   -116.56479   -2473.0585     340.6421   -2146.6343    3107.0703 0.00047382386 0.00047543905 0.00045673672 
 7738000    477.61269   -117.41799    2935.5359    1588.0558    -2151.529   -1413.7874 0.00047364656 0.00047530577 0.00045671511 
 7740000    484.10722   -117.92817    1134.2894    1978.3575     2160.862   -1775.5544 0.00047376962 0.0004753962  0.000456558 
 7742000    511.64837   -118.26598   -3691.6377    3492.6859   -2453.7378   -252.26415 0.00047368039 0.00047628419 0.00045658938 
 7744000    533.35073   -116.38139     4813.365   -292.42389    1836.3779    1341.6525 0.00047342994 0.00047619612 0.00045648786 
 7746000    531.47641   -116.05554   -3340.1363    2747.4909    4458.7433   -959.04775  0.000473275 0.00047623326 0.00045639855 
 7748000    491.54401   -117.23116    3323.1002    2011.4463    -142.4488    1508.7882 0.0004733183 0.00047646724 0.00045638761 
 7750000    499.74467   -116.85919   -3136.5175    1897.0867    4190.2056   -463.24248 0.00047340323 0.00047627434 0.00045702767 
 7752000    589.35056   -116.93377   -2006.8227   -304.67501   -361.22582   -2487.2558 0.00047341429 0.00047630405 0.00045681891 
 7754000    518.12207   -118.75785    2485.2808    -1016.633   -3397.5919    -94.44845 0.00047340872 0.00047612211 0.00045676571 
 7756000    549.07135   -117.54067   -6546.9915    290.76215    1291.0793    2104.9241 0.00047319026 0.00047596852 0.00045664242 
 7758000    476.88712   -118.11741    2877.5377   -4502.1811    604.14136    2341.4133 0.00047318606 0.00047585441 0.00045651373 
 7760000    521.51542   -117.93491   -4957.0618     3634.659   -4125.8214    6486.1616 0.0004735012 0.00047571602 0.00045701296 
 7762000    442.16387   -117.09182   -1063.0303     1422.681    781.80057    40.203159 0.00047329643 0.00047575346 0.00045709681 
 7764000    504.81659   -116.44344    3558.3331   -4294.7824   -9026.7232   -6111.9135 0.00047320928 0.00047572361 0.0004573128 
 7766000     455.8772   -117.04067   -2840.7951    2249.8445   -1978.9806    1334.9888 0.00047311257 0.00047584978 0.00045760005 
 7768000    525.73948   -117.06046    6825.7503   -3729.7155   -533.92647   -352.16219 0.00047307108 0.0004757175 0.0004575362 
 7770000    549.82446   -118.55994   -2777.9116     509.0371   -1042.9253   -2894.5013 0.00047296492 0.00047578142 0.00045750976 
 7772000    542.00797   -117.88309    565.39501    1521.0173    985.74931    103.03616 0.0004726808 0.00047567732 0.00045744411 
 7774000    487.89144   -117.92252   -2006.1592   -3072.9207    581.92075   -4576.9078 0.00047254567 0.00047572442 0.00045746633 
 7776000    480.37604   -118.11562   -5184.4843   -1172.8938   -4509.4333   -3422.4739 0.00047253553 0.00047559737 0.00045734853 
 7778000    510.39392   -116.65649    3624.3528   -3117.9465    2228.7794     2136.039 0.0004725643 0.00047544947 0.00045722374 
 7780000    450.09819   -117.60215   -4974.1164    2153.6865    2426.9031    2151.5047 0.0004725001 0.0004753581 0.00045715522 
 7782000    504.36432   -117.77236    3886.2208   -3987.1839    1149.1136   -63.115045 0.00047256345 0.00047523393 0.00045711576 
 7784000     591.4018   -117.55452    -1196.202    1439.3101    -1680.487   -4368.1958 0.0004724485 0.00047510482 0.00045719259 
 7786000     515.9603   -117.87996      -3824.7    -1632.799   -3686.0179     3131.315 0.00047235231 0.00047498452 0.0004571475 
 7788000    466.76096   -116.89151    3857.4479    446.41053   -2121.4015   -916.50982 0.0004722062 0.00047484818  0.000457088 
 7790000    504.71493   -117.18723   -7821.3797   -3632.6617    2751.0738    3070.2202 0.00047223688 0.00047480071 0.00045701701 
 7792000    547.22687   -118.16256    1267.6311   -975.47169    -2170.413   -1302.5114 0.00047227415 0.00047489084 0.00045692605 
 7794000    463.74396   -118.54236   -1125.8844   -4354.5004    -969.1013    4215.8856 0.00047217474 0.00047529867 0.00045689059 
 7796000    555.93023   -116.92458   -2452.9291    6145.8057    -5302.172    3977.0528 0.00047219865 0.00047519571 0.00045682524 
 7798000    528.94417   -116.51135    4504.0584   -1210.7437     1756.528   -309.21434 0.00047219566 0.00047535821 0.00045665394 
 7800000    496.64006   -117.09774   -3937.5722    1578.6306   -1086.9986   -1551.1116 0.0004721012 0.00047530311 0.00045653992 
 7802000     455.9072   -117.72932    2647.7103    1338.5685     1142.332    -3273.603 0.00047202051 0.00047528355 0.00045651275 
 7804000    481.98178   -117.99655   -4333.1652    2729.4887    1869.6483    1002.8012 0.00047209849 0.00047553351 0.00045642725 
 7806000    496.44394   -116.96814   -347.03807   -688.44712   -2847.1664    2840.3758 0.0004719281 0.00047566415 0.00045641809 
 7808000    480.99618   -117.42046    57.345156   -2209.0193    -1787.837   -483.20834 0.00047190126 0.00047592001 0.00045632883 
 7810000    511.21238   -117.58129   -4485.0678   -1519.4518    977.90604   -1932.2491 0.00047199325 0.00047579989 0.00045629196 
 7812000    512.59253   -117.47571    6041.5999    1997.4071    -858.0706   -2760.1589 0.00047208086 0.0004756983 0.0004561129 
 7814000    473.41131   -116.11475   -4605.5745    9851.9706   -206.28276   -384.04127 0.00047202626 0.00047566043 0.00045643944 
 7816000    524.23219   -115.93002    2863.3035   -778.22654    573.82679    679.57887 0.00047187231 0.00047560562 0.0004564215 
 7818000    535.50931   -117.82044    91.116888    4332.8656    3132.9789    1194.2828 0.00047186148 0.00047575379 0.00045624907 
 7820000    436.43723   -117.02022   -5103.7833    4496.4008    1167.9658   -1688.1198 0.00047176569 0.00047587991 0.00045615719 
 7822000    508.11545   -117.95133    3425.2057    1907.0315    3185.1776    3480.9893 0.0004717882 0.00047570855 0.00045599417 
 7824000    509.24714   -117.13457   -3352.1494   -3845.2658    1010.1284    1509.9449 0.00047198296 0.00047564449 0.0004560979 
 7826000    486.07816   -117.94036    1838.5097    3177.6758    1899.2315   -159.94626 0.00047209979 0.00047560942 0.00045593612 
 7828000    501.15357   -116.94795    652.71292    -5453.563   -227.46213     53.10573 0.00047194269 0.00047552918 0.00045586022 
 7830000    555.25366   -117.34311   -1990.3177    1915.2083   -1166.5874   -3382.6557 0.00047187623 0.00047542366 0.00045575094 
 7832000    544.09056   -118.04467    2796.2373   -1847.2407    406.33146    1060.1076 0.00047175139 0.00047518917 0.00045565827 
 7834000    535.63782   -117.86105   -4794.4515     4199.972   -2208.7294   -2777.1163 0.00047166408 0.00047504608 0.00045624342 
 7836000    478.29657   -116.94748    2592.8323   -6524.5605     494.1456    1040.2762 0.00047187243 0.00047492807 0.00045603425 
 7838000    496.26398   -117.52853   -3549.7682   -1020.1725    1964.9831   -2886.6047 0.00047192065 0.00047495266 0.0004559021 
 7840000    510.00045   -117.75872   -3273.8257   -4068.8379    1581.4895     687.9672 0.00047180606 0.00047508586 0.00045573534 
 7842000    417.17549   -116.27592    3381.1093    3840.2822   -1720.6158   -4309.1587 0.00047171212 0.00047519083 0.00045576248 
 7844000    511.72113   -116.94022   -5268.9546   -194.85748    2796.8281   -3459.8562 0.00047178834 0.00047534072 0.00045568046 
 7846000    508.29168   -117.68465    5946.7496   -2234.7238   -1348.8268    322.26242 0.00047164904 0.0004753064 0.00045554687 
 7848000    487.53468   -118.25097   -3442.2919   -701.28839     717.3543    3540.9376  0.000471654 0.00047548649 0.00045548868 
 7850000    553.40402   -118.24646    -392.2449    -1647.412    1368.2289    2103.5978 0.00047168405 0.00047537234 0.00045541295 
 7852000    504.82166   -118.57366    276.12762    -2132.381    2613.0672   -3299.7885 0.00047144215 0.00047525141 0.00045533348 
 7854000    466.94036   -115.41203   -5323.0598   -2695.0247    5100.6681   -944.97965 0.00047170856 0.00047511442 0.00045537729 
 7856000    490.01855   -117.76161    2450.0873    319.27601    6422.8644    227.37384 0.00047162355 0.00047502152 0.00045528648 
 7858000    524.02516   -116.69521   -4760.6567   -2416.8897    242.58373   -6997.2495 0.00047152755 0.00047497512 0.00045522777 
 7860000    518.21813   -117.93878    3748.4416   -1969.8764   -3504.8935   -1281.2088 0.00047139939 0.00047501179 0.00045532341 
 7862000    515.16445   -118.93596    -464.6022    -717.1409   -3143.2218    5310.0854 0.0004715121 0.00047476829 0.00045555067 
 7864000     479.8935   -116.26276   -5492.5537   -2800.6738     -293.846   -2268.1007 0.00047142506 0.00047476262 0.00045552269 
 7866000    497.14565   -116.63389    5223.2801   -815.03412    1981.7496    3125.9856 0.00047122739 0.00047472329 0.00045545933 
 7868000    517.87832    -117.2086   -7945.9692   -2594.0385    1684.0632   -2278.1684 0.00047116649 0.00047465648 0.00045536818 
 7870000    502.15923    -118.0519    4088.9015   -1115.9139    562.68415   -595.47837 0.00047109596 0.00047457911 0.00045528204 
 7872000    496.81722   -117.19341     2242.666   -6245.5693    220.16126    993.77661 0.00047105204 0.00047508889 0.00045522721 
 7874000    451.75042   -116.51097   -2374.1841   -1140.5528   -7530.2733   -3009.7479 0.00047098857 0.00047498196 0.0004550894 
 7876000    483.92923   -117.36658    4637.6905   -3264.5602    129.70871   -858.82205 0.00047105633 0.00047526722 0.00045495849 
 7878000    502.93323   -117.71239   -6517.1411   -1015.1536     3188.105    1500.5226 0.00047128593 0.00047508236 0.00045483765 
 7880000    504.47813   -117.33079    1508.0499   -2005.7714   -358.32155    273.17916 0.00047178775 0.00047495165 0.00045471341 
 7882000    448.18802   -117.10703   -4517.6795    -1636.183    1176.7976    2522.3967 0.00047242132 0.00047523779 0.00045469313 
 7884000    497.74743   -117.49962    -269.4788   -653.80636   -2033.2481   -2117.7024 0.00047252915 0.00047537376 0.00045451301 
 7886000    497.94874   -116.96954    3847.3979    1929.4508    4969.4569    3090.0937 0.00047269503 0.00047523953 0.00045445846 
 7888000    528.62461   -118.00642   -4508.0555   -6593.8257   -1072.9273   -1823.7803 0.00047269363 0.00047520156 0.00045435664 
 7890000    525.24917   -117.79488    5936.9393   -852.51626    5448.8503   -1847.8224 0.00047257504 0.00047509764 0.00045427287 
 7892000    504.80354   -118.34303   -6298.8403   -1198.8833    434.56065   -1533.5399 0.0004724529 0.00047515226 0.00045455805 
 7894000    491.43836   -117.83789   -940.03623   -901.16079    3460.1514    1980.6193 0.00047234927 0.00047505099 0.00045482129 
 7896000    462.70906   -118.36622    1518.2071   -325.14284   -843.75833   -3099.6716 0.00047241163 0.00047525739 0.00045478951 
 7898000    470.23804     -117.153   -6081.2635    1206.0674   -2659.5594     3725.779 0.00047212867 0.00047516173 0.00045464534 
 7900000    471.53333   -117.51523    6214.9437    3048.6553      3863.23   -3620.1358 0.0004721036 0.00047507365 0.00045457455 
 7902000    490.46166   -118.83253   -5597.5351    2711.8232    -1449.703    -122.5278 0.00047208171 0.00047498739 0.00045450372 
 7904000    516.25553   -116.32806    2699.5791    861.23619   -682.92049    489.66087 0.00047262177 0.00047491015 0.00045447081 
 7906000    482.73728   -117.92522   -2081.6849   -2219.0864    4235.5953    1316.3796 0.00047271996 0.00047481233 0.00045439444 
 7908000    477.76649   -116.49421   -4144.3807    462.12396    -3503.138     1681.231 0.00047291257 0.00047476955 0.00045436123 
 7910000    519.02013   -118.39462    4874.4963   -1465.2619    3033.1851    3046.5286 0.00047285297 0.0004749502 0.0004546749 
 7912000    478.88642   -118.12613   -7414.7179   -229.96657     3738.453   -4630.7461 0.00047282917 0.00047493286 0.0004548483 
 7914000     509.2289   -116.94027    6014.4419    806.36255   -7510.7063    5798.7638 0.00047275175 0.00047492401 0.00045514894 
 7916000    495.58835   -117.39627    -2771.324   -2612.2378   -3379.1975    2771.5158 0.0004726947 0.00047488432 0.0004550081 
 7918000    529.15212   -115.93316   -1652.5308   -1667.0636    696.54234    1780.5898 0.00047275252 0.00047484466 0.00045484345 
 7920000    474.41964   -116.88471    4628.6629    5120.7866    108.00755   -2397.5899 0.00047267777 0.0004750884 0.00045503942 
 7922000    537.22615   -117.78311   -8139.3441    4518.5308   -1986.9135   -1857.4599 0.00047259356 0.00047513093 0.00045498635 
 7924000    527.19814   -117.37936    4507.5743   -372.33294    2654.6841    1196.5724 0.00047251351 0.00047528004 0.00045513597 
 7926000    552.94788    -117.7933   -5047.5428    1035.7903    2535.4608    3189.5901 0.00047243186 0.0004753761 0.00045501157 
 7928000    495.34403   -117.53766    -545.7972   -2191.1886   -163.61045    1887.1385 0.00047233774 0.00047518622 0.00045483683 
 7930000    478.11523   -116.08198    3321.5519   -1560.0658    -2557.188    6933.8488 0.00047236687 0.00047508566 0.00045492122 
 7932000    461.33704   -117.49051   -2442.9537   -368.14169   -733.52832    2847.6083 0.00047252887 0.00047497628 0.00045490723 
 7934000    507.84907    -117.2487    6021.2041    2846.8531   -609.50115    2750.8058 0.00047280902 0.00047484553 0.00045483466 
 7936000     572.6912   -117.26739   -4448.4735    4300.5592    3120.5058    60.398007 0.00047277874 0.00047471831 0.00045489216 
 7938000     491.3805   -117.31412     2137.328   -1587.7454   -1925.2088   -2532.4033 0.00047262913 0.00047463351 0.00045483419 
 7940000    486.78421   -118.00194   -3546.3492   -2184.1446    2.0016408    547.29004 0.00047239684 0.00047491678 0.00045476458 
 7942000    511.22533   -116.94954   -5065.9937    2298.2403   -5517.1627   -2924.4585 0.00047309172 0.00047484208 0.00045515093 
 7944000     472.7964   -118.03655    4498.3355    -4114.531    147.09478    722.52971 0.00047296058 0.00047487018 0.00045513027 
 7946000    469.21258   -117.94787   -6415.4833    153.24089    4011.8676    2999.2577 0.00047295417 0.00047507906 0.00045529303 
 7948000    538.09278   -116.99422     4827.264   -4489.5864    1863.9077    3723.3754 0.00047297176 0.00047483366 0.00045518699 
 7950000    509.40215   -117.42754   -335.89123   -2237.3341   -1015.7072   -1164.4947 0.00047279038 0.00047472053 0.00045508729 
 7952000    436.64074   -117.10874   -3401.9876    496.86685   -181.42152    1367.3435 0.00047271593 0.00047458881 0.00045500198 
 7954000    501.14562   -116.82914    2508.7273   -1240.6948   -2295.4231   -1478.3912 0.00047256929 0.0004745395 0.00045495853 
 7956000    479.21237   -117.92083   -6105.0557   -207.27161    -1342.017     6831.455 0.00047244866 0.00047444867 0.00045485193 
 7958000    526.04177   -118.32998     2684.458   -1686.7597    2194.1152   -2620.9661 0.00047234343 0.00047439484 0.00045499535 
 7960000    487.59272   -117.64569   -3127.8936    1529.8814   -1004.3528    2182.3585 0.00047216059 0.00047441819 0.00045519794 
 7962000    443.32098   -117.39303    1771.9963    1003.8816   -1835.3273    444.07527 0.00047206233 0.00047423661 0.00045500516 
 7964000    492.02578   -117.85507     2584.674    2578.4729    5166.7238    1514.1839 0.00047196362 0.00047417801 0.00045487212 
 7966000    508.99102     -117.095   -3887.9368    111.45237   -725.85381     2084.188 0.00047187244 0.00047422007 0.00045474871 
 7968000    566.39525   -117.53396    3223.0302    -2415.547    2805.7578   -3050.0224 0.00047179362 0.0004746968 0.00045478572 
 7970000    509.54653   -117.27244   -5825.9426   -3526.6965    6087.5701    8554.4618 0.00047179653 0.00047575727 0.00045483503 
 7972000    553.24093   -117.37535    1009.1293    1855.2449   -810.25826   -3384.8883 0.0004717251 0.00047596898 0.00045484662 
 7974000    443.01127   -117.73781    -362.1288   -1823.6938    916.08316    2315.5846 0.00047173696 0.00047596443 0.00045493141 
 7976000    492.10947   -117.56339   -3087.5163   -4182.8344   -2173.1605    444.32866 0.0004715823 0.00047599074 0.00045474172 
 7978000    510.07852   -117.92436    3809.1327   -2365.9466    4765.0097   -1102.0848 0.00047147443 0.00047595592 0.00045482686 
 7980000    469.07299   -117.19349   -5076.5373    1682.9042    -836.7746    3320.9169 0.00047165964 0.00047601655 0.00045495173 
 7982000    447.48534   -117.17451    1675.4805    772.36669   -4997.1651    -4963.739 0.00047178975 0.00047588952 0.00045494232 
 7984000    520.31298   -115.84235   -2450.7884   -1041.1765    2857.2258    4422.9257 0.0004718238 0.00047589435 0.00045491588 
 7986000    487.65313   -117.45408   -678.45966   -744.02114   -3101.4038   -950.85516 0.00047166717 0.00047581933 0.00045495351 
 7988000    545.26389   -117.91421    4105.7389   -4012.5777   -917.70008    583.42779 0.00047157856 0.00047566293 0.00045482082 
 7990000    520.89728   -117.36417   -6164.3235   -1337.5601    4393.0106    4995.9847 0.00047150257 0.00047553724 0.00045471303 
 7992000      484.129    -117.5212    4657.3859    1479.5548    2731.0208    3086.9351 0.00047188537 0.00047600826 0.00045460188 
 7994000    462.85678   -118.25766   -5316.1121    933.44483   -4061.5952   -4835.8743 0.00047188445 0.00047586298 0.00045443103 
 7996000    540.96927   -118.87964   -1478.3829    1717.9933    1704.1039    1185.3208 0.00047179884 0.00047576012 0.00045425413 
 7998000    515.85653   -117.22658    2094.9217   -3925.6338   -2207.5863   -315.66718 0.00047165619 0.00047561922 0.00045411934 
 8000000    470.03798   -117.14249   -7364.3527    2246.7241   -4600.8911   -4211.7307 0.00047154699 0.00047559204 0.00045402364 
Loop time of 7261.93 on 1 procs for 8000000 steps with 160 atoms

Performance: 95.181 ns/day, 0.252 hours/ns, 1101.636 timesteps/s
98.5% CPU use with 1 MPI tasks x no OpenMP threads

MPI task timing breakdown:
Section |  min time  |  avg time  |  max time  |%varavg| %total
---------------------------------------------------------------
Pair    | 5691.3     | 5691.3     | 5691.3     |   0.0 | 78.37
Bond    | 48.488     | 48.488     | 48.488     |   0.0 |  0.67
Kspace  | 1175.8     | 1175.8     | 1175.8     |   0.0 | 16.19
Neigh   | 126.34     | 126.34     | 126.34     |   0.0 |  1.74
Comm    | 124.48     | 124.48     | 124.48     |   0.0 |  1.71
Output  | 6.9827     | 6.9827     | 6.9827     |   0.0 |  0.10
Modify  | 60.112     | 60.112     | 60.112     |   0.0 |  0.83
Other   |            | 28.42      |            |       |  0.39

Nlocal:    160 ave 160 max 160 min
Histogram: 1 0 0 0 0 0 0 0 0 0
Nghost:    2978 ave 2978 max 2978 min
Histogram: 1 0 0 0 0 0 0 0 0 0
Neighs:    32250 ave 32250 max 32250 min
Histogram: 1 0 0 0 0 0 0 0 0 0

Total # of neighbors = 32250
Ave neighs/atom = 201.562
Ave special neighs/atom = 1.5
Neighbor list builds = 114563
Dangerous builds = 0
variable     ndens equal count(all)/vol
print        "average viscosity: $v [Pa.s] @ $T K, ${ndens} /A^3"
average viscosity: 0.000467054222984439 [Pa.s] @ 500 K, 0.0120475921115711 /A^3
Total wall time: 2:05:30
