LAMMPS (22 Aug 2018)
##
dimension 3
boundary p p p
atom_style full
units metal
#kspace_style pppm/cg 1.0e-4
#kspace_modify pressure/scalar no
dielectric 2.0
bond_style harmonic
angle_style harmonic

neighbor 2.0 bin
neigh_modify delay 0 every 1 check yes page 500000 one 50000

region box1 block -40.0 40.0 -40.0 40.0 -40.0 40.0
create_box 4 box1 bond/types 2 extra/bond/per/atom 2 angle/types 1 extra/angle/per/atom 1 extra/special/per/atom 10
Created orthogonal box = (-40 -40 -40) to (40 40 40)
  1 by 1 by 1 MPI processor grid

molecule cat_ion cation_mol.txt
Read molecule cat_ion:
  3 atoms with max type 4
  2 bonds with max type 2
  1 angles with max type 1
  0 dihedrals with max type 0
  0 impropers with max type 0

mass    1  86.8 #anion
mass    2  67.0 #ring
mass    3  15.0 #methyl
mass    4  29.0 #ethyl

create_atoms 1 random 100 1340 box1
Created 100 atoms
  Time spent = 0.00110412 secs
create_atoms 0 random 100 2345 box1 mol cat_ion 1234
Created 300 atoms
  Time spent = 0.000100136 secs
#create_atoms 1 single  10.0 0.0 0.0
#create_atoms 0 single 0.0 0.0 0.0 mol cat_ion 1234
group anion type 1
100 atoms in group anion
group ring type 2
100 atoms in group ring
group methyl type 3
100 atoms in group methyl
group ethyl type 4
100 atoms in group ethyl

bond_coeff 1 207.729 2.689748837
bond_coeff 2 207.729 3.04931147
angle_coeff 1 207.729 144.1868904


## -- INTERATOMIC POTENTIALS -- #
pair_style nm/cut 30.0
################### properties to change
## values from easy begin

pair_coeff 1 1 2.55775855 5.77468231 10.177908113392 12.0000
pair_coeff 1 2 3.34765931 6.26892741 10.177908113392 12.0000
pair_coeff 1 3 2.00556578 4.28154794 10.177908113392 12.0000
pair_coeff 1 4 2.80927754 6.79832446 10.177908113392 12.0000
pair_coeff 2 2 4.38150147 6.80547410 10.177908113392 12.0000
pair_coeff 2 3 2.62493539 4.64799825 10.177908113392 12.0000
pair_coeff 2 4 3.67685374 7.38018133 10.177908113392 12.0000
pair_coeff 3 3 1.57258553 3.17448680 10.177908113392 12.0000
pair_coeff 3 4 2.20278450 5.04051142 10.177908113392 12.0000
pair_coeff 4 4 3.08552981 8.00342131 10.177908113392 12.0000

## values from easy end


#create_bonds single/bond 1 2 3
#create_bonds single/bond 2 2 4
#create_bonds single/angle 1 3 2 4

set type 1 charge -1.0
  100 settings made for charge
#set type 2 charge  0.408675
#set type 3 charge  0.317505
#set type 4 charge  0.273820

########################################

write_data solid.data pair ij
Neighbor list info ...
  update every 1 steps, delay 0 steps, check yes
  max neighbors/atom: 50000, page size: 500000
  master list distance cutoff = 32
  ghost atom cutoff = 32
  binsize = 16, bins = 5 5 5
  1 neighbor lists, perpetual/occasional/extra = 1 0 0
  (1) pair nm/cut, perpetual
      attributes: half, newton on
      pair build: half/bin/newton
      stencil: half/bin/3d/newton
      bin: standard

thermo_style	custom step temp pe ke ebond press density

##################################
variable    T equal 500
variable    V equal vol
variable    dt equal 0.00005
variable    p equal 400     # correlation length
variable    s equal 5       # sample interval
variable    d equal $p*$s   # dump interval
variable    d equal 400*$s   
variable    d equal 400*5   

# convert from LAMMPS real units to SI

variable    kB equal 1.3806504e-23    # [J/K/** Boltzmann
variable    bar2Pa equal 100000.0
variable    A2m equal 1.0e-10
variable    ps2s equal 1.0e-12
variable    convert equal ${bar2Pa}*${bar2Pa}*${ps2s}*${A2m}*${A2m}*${A2m}
variable    convert equal 100000*${bar2Pa}*${ps2s}*${A2m}*${A2m}*${A2m}
variable    convert equal 100000*100000*${ps2s}*${A2m}*${A2m}*${A2m}
variable    convert equal 100000*100000*1e-12*${A2m}*${A2m}*${A2m}
variable    convert equal 100000*100000*1e-12*1e-10*${A2m}*${A2m}
variable    convert equal 100000*100000*1e-12*1e-10*1e-10*${A2m}
variable    convert equal 100000*100000*1e-12*1e-10*1e-10*1e-10
timestep    ${dt}
timestep    5e-05
variable    tdamp equal ${dt}*10.
variable    tdamp equal 5e-05*10.
variable    pdamp equal ${dt}*100.
variable    pdamp equal 5e-05*100.
thermo      $d
thermo      2000

variable    ILdens equal density
variable    ILstep equal step
variable    ILtime equal time*1.0e-12 #from ps to s
variable    ILtemp equal temp
variable    ILpe equal pe
variable    ILke equal ke
variable    ILpr equal press

##################################
fix         333 all print 2000 "${ILstep} ${ILtime} ${ILdens} ${ILtemp} ${ILpr} ${ILpe} ${ILke}" file density.dat screen no
dump        1 all dcd $d minim.dcd
dump        1 all dcd 2000 minim.dcd
dump        2 all custom $d dump.atom id mass type x y z
dump        2 all custom 2000 dump.atom id mass type x y z

##################################
##################################
#  Minimize initial
##################################

velocity     all create $T 987654321 mom yes rot yes dist gaussian
velocity     all create 500 987654321 mom yes rot yes dist gaussian
minimize 1.e-4 1.0e-6 1000 10000
Per MPI rank memory allocation (min/avg/max) = 11.18 | 11.18 | 11.18 Mbytes
Step Temp PotEng KinEng E_bond Press Density 
       0          500 3.7805329e+11    25.787399    1.4574399 4.7573404e+12  0.064151289 
    1000          500   -3469.2111    25.787399    2.9172703   -769.50977  0.064151289 
Loop time of 9.64513 on 1 procs for 1000 steps with 400 atoms

100.0% CPU use with 1 MPI tasks x no OpenMP threads

Minimization stats:
  Stopping criterion = max iterations
  Energy initial, next-to-last, final = 
          378053291431     -3467.69775091     -3469.21110809
  Force two-norm initial, final = 6.56861e+12 44.2015
  Force max component initial, final = 2.90062e+12 13.8323
  Final line search alpha, max atom move = 0.00233662 0.0323208
  Iterations, force evaluations = 1000 1724

MPI task timing breakdown:
Section |  min time  |  avg time  |  max time  |%varavg| %total
---------------------------------------------------------------
Pair    | 9.5417     | 9.5417     | 9.5417     |   0.0 | 98.93
Bond    | 0.023576   | 0.023576   | 0.023576   |   0.0 |  0.24
Neigh   | 0.046284   | 0.046284   | 0.046284   |   0.0 |  0.48
Comm    | 0.017609   | 0.017609   | 0.017609   |   0.0 |  0.18
Output  | 2.408e-05  | 2.408e-05  | 2.408e-05  |   0.0 |  0.00
Modify  | 0          | 0          | 0          |   0.0 |  0.00
Other   |            | 0.0159     |            |       |  0.16

Nlocal:    400 ave 400 max 400 min
Histogram: 1 0 0 0 0 0 0 0 0 0
Nghost:    1836 ave 1836 max 1836 min
Histogram: 1 0 0 0 0 0 0 0 0 0
Neighs:    20203 ave 20203 max 20203 min
Histogram: 1 0 0 0 0 0 0 0 0 0

Total # of neighbors = 20203
Ave neighs/atom = 50.5075
Ave special neighs/atom = 1.5
Neighbor list builds = 64
Dangerous builds = 0

reset_timestep 0
fix 1 all npt temp $T $T ${tdamp} iso 1.0 1.0 ${pdamp}
fix 1 all npt temp 500 $T ${tdamp} iso 1.0 1.0 ${pdamp}
fix 1 all npt temp 500 500 ${tdamp} iso 1.0 1.0 ${pdamp}
fix 1 all npt temp 500 500 0.0005 iso 1.0 1.0 ${pdamp}
fix 1 all npt temp 500 500 0.0005 iso 1.0 1.0 0.005
run             200000
Per MPI rank memory allocation (min/avg/max) = 10.05 | 10.05 | 10.05 Mbytes
Step Temp PotEng KinEng E_bond Press Density 
       0          500   -3469.2111    25.787399    2.9172703   -769.50977  0.064151289 
    2000    478.42358   -3509.6737      24.6746    3.8386348    445.28929  0.068985093 
    4000    515.16684   -3567.3892    26.569625    2.3696847   -481.35616  0.074359459 
    6000    494.47356   -3634.0428    25.502374    1.9457001   -905.91504  0.078855503 
    8000    498.47723   -3693.3311    25.708862    2.1579772   -424.42805  0.084497521 
   10000    520.75414   -3758.7725    26.857789    3.2845428    1229.2084  0.091572372 
   12000    499.73312   -3844.7049    25.773635     2.892263    863.00888   0.10115404 
   14000    504.70452   -3922.2881    26.030033     2.107565   -653.65697   0.10949659 
   16000    493.12036   -4001.4111    25.432583    1.9629956   -1527.7056   0.11947417 
   18000    485.63556    -4096.443    25.046556    2.5917347    455.46429   0.13274628 
   20000    467.96166    -4187.706    24.135028    3.1035234    1311.1576   0.14938192 
   22000    518.62923   -4290.3934    26.748198    2.3227324   -2106.8354   0.16416476 
   24000    500.57093   -4411.3426    25.816844    2.6787569   -1098.4486   0.18156299 
   26000    475.27709   -4548.7933     24.51232    2.5444209   -3650.8076   0.20153738 
   28000    479.04237   -4663.3997    24.706514    3.3615067    727.65084   0.22269965 
   30000    491.70819   -4796.0749     25.35975    3.0762786   -274.70787   0.24384709 
   32000    515.75884   -4937.2245    26.600158    3.7168424    1337.6952   0.26655843 
   34000    477.76614   -5098.2466    24.640692    3.5987476    298.10406   0.28914669 
   36000    520.93545   -5250.4504    26.867141    4.3738746    3728.3439   0.31154358 
   38000    501.67165   -5398.2746    25.873614    4.1294163    1664.0997   0.33271523 
   40000    514.14994   -5550.0753    26.517179    4.7890345    3478.9888   0.35425643 
   42000    510.75225   -5699.5894    26.341944    5.0180302    3296.1821   0.37555866 
   44000    491.75851   -5855.4024    25.362346    4.2657168   -4438.3377   0.39359712 
   46000    503.60823   -6001.9969    25.973493    5.7303761    6348.7449   0.41182526 
   48000     486.3889   -6131.4568    25.085409    4.0196484   -6124.8988   0.42297355 
   50000    490.54161   -6250.6181    25.299584    4.3773481   -5274.6161   0.43705189 
   52000    476.86152   -6347.4658    24.594036    4.4967954   -4122.6264   0.45046576 
   54000    498.36086   -6422.4139    25.702861    5.1533799     1668.072   0.46348459 
   56000    513.42098   -6497.2714    26.479583    4.8531211   -3485.4922   0.47230654 
   58000     526.1492   -6569.9197    27.136039    6.0419654     6536.039   0.48225261 
   60000     511.2758   -6641.7915    26.368946    5.1494494   -1075.5392   0.49171328 
   62000    484.06166   -6691.2773    24.965382    6.5405423    5243.2932   0.49987821 
   64000    502.98502   -6741.6703    25.941351    6.3177949    3635.2438   0.50485482 
   66000    507.57582   -6785.7401     26.17812    6.2571809    271.58159   0.50946699 
   68000    524.81038   -6838.3867    27.066989    5.8330842   -2085.0551   0.51287294 
   70000    504.42176    -6876.733     26.01545    4.8301003   -10296.266   0.51267549 
   72000    475.69791   -6901.8971    24.534024     6.700649    6250.5133   0.51724368 
   74000    515.34312   -6931.5223    26.578717    5.4845944   -6543.5001   0.51854593 
   76000    502.44337   -6946.6837    25.913415    6.4251257    3359.6498   0.52234257 
   78000    515.66236   -6966.5323    26.595182     6.855421     8012.536   0.52544104 
   80000    532.77064   -6988.0371    27.477538    5.4050987   -2108.3543    0.5279317 
   82000    496.63829   -7020.9607     25.61402    6.0827844    4160.8559    0.5331513 
   84000    503.78984   -7039.3672    25.982859    6.6644209    9566.6265    0.5365365 
   86000    492.56856   -7061.1462    25.404124    5.4602501    -2663.795   0.53708773 
   88000    488.44788   -7069.2816    25.191601    5.8241625   -2078.5769    0.5381946 
   90000    498.11519   -7070.2813     25.69019    5.1408769   -5763.8634   0.53782078 
   92000    488.50259    -7079.059    25.194422    6.3965799    7041.6429    0.5417017 
   94000    521.26228   -7080.6192    26.883997    6.6333259    5167.6469   0.54270324 
   96000    492.61599   -7091.6114     25.40657    4.8817241   -16499.019    0.5413897 
   98000    506.84687   -7098.5663    26.140525    5.7455128   -5624.7575   0.54458033 
  100000    524.45737   -7109.8208    27.048783    6.3914882   -79.219565   0.54617466 
  102000    491.68754   -7122.9491    25.358686    6.8293976    4217.4308   0.54915726 
  104000    477.26927   -7141.9903    24.615066    6.1215388   -5870.5431   0.55110071 
  106000    488.95409   -7166.9671    25.217708    6.2879989   -7431.6936    0.5524158 
  108000    522.28745   -7186.4226     26.93687    6.6595532    3751.1294   0.55386611 
  110000    521.03752   -7201.0426    26.872405    6.1312904   -5296.2368   0.55344679 
  112000     500.4058   -7212.2658    25.808328    5.8216073   -7492.0546    0.5546421 
  114000    523.29504   -7218.4392    26.988836    5.6585316   -10170.871   0.55466156 
  116000    504.07779   -7227.0779     25.99771    6.9975922    5585.0224   0.55573197 
  118000    516.36934   -7237.6356    26.631644    5.3294687   -8052.4049   0.55474718 
  120000    526.84759   -7245.3467    27.172058    5.3634817    -6198.191   0.55433622 
  122000    523.48396   -7258.1598     26.99858    6.8169362    7133.2496   0.55668106 
  124000    487.34958   -7257.8709    25.134956    7.0774162    8074.8542    0.5570507 
  126000    542.05516   -7269.1283    27.956385    6.7545162    9192.5741   0.55747404 
  128000    494.45849   -7275.4178    25.501597     5.766094   -1892.1913   0.55800171 
  130000    508.52671   -7276.2755    26.227162    4.9333545   -14118.535   0.55671155 
  132000    537.18328   -7284.5038    27.705119     7.157921    8665.8162   0.55992466 
  134000    512.49627   -7288.7969    26.431892    7.2147629    6378.9876   0.55964815 
  136000    507.38072   -7293.5272    26.168058    5.7048759   -7157.9838   0.55908334 
  138000     472.3503   -7294.6272    24.361371    7.1939637    9724.3439   0.56052043 
  140000    537.15716   -7294.7352    27.703772    5.8140805   -2134.3454   0.55852798 
  142000    509.98611   -7299.5872    26.302431      6.08677   -8696.8111   0.55832882 
  144000     494.3059   -7300.7575    25.493727     5.846428   -8073.1335   0.55889838 
  146000    495.51662   -7299.0897     25.55617    6.6461041    996.76344   0.55951735 
  148000    484.04811   -7303.2218    24.964684    5.7444359   -8375.6879    0.5586933 
  150000    506.57316   -7299.5433    26.126408    6.0878778   -6789.2675   0.55838655 
  152000    498.83826   -7304.3711    25.727482     5.428445   -13354.433   0.55759915 
  154000    503.56177   -7304.9681    25.971096     6.109051    -1749.017   0.55951624 
  156000    508.27122   -7303.5045    26.213985    8.0327715    14292.953   0.56138628 
  158000    522.04143    -7305.262    26.924181    8.3057501    16973.736   0.56132339 
  160000     518.7843    -7305.621    26.756195    5.7323845    -11359.56    0.5574311 
  162000    482.47046   -7305.3418    24.883316    5.8811644   -6320.6997     0.558256 
  164000    523.91174   -7303.3453    27.020642    7.8910678    13228.697   0.56147838 
  166000    482.20186   -7303.4069    24.869463    6.2074173   -5772.1292   0.55883057 
  168000     484.6104   -7305.0672    24.993683    5.6895168   -6626.2966   0.55805807 
  170000     509.2542   -7305.3784    26.264682    7.5326671    8295.3817   0.55993042 
  172000    490.80288   -7303.6697    25.313059    5.9675459   -5308.1513    0.5585637 
  174000    506.21754   -7304.6851    26.108067    7.5470368     5278.993   0.55992895 
  176000    498.50104   -7303.5415     25.71009    6.2640851   -3467.7743   0.55902526 
  178000    513.64402   -7304.5933    26.491086    5.6776833   -8307.9849    0.5582672 
  180000    531.25859   -7302.4249    27.399555      7.37738    6744.5127   0.55993002 
  182000    513.63596   -7305.9398    26.490671    7.3004336    4976.6345   0.55981802 
  184000    496.14222   -7304.4421    25.588435    6.6083687   -3286.0266   0.55856753 
  186000    476.69544   -7306.0609    24.585471    5.8210556   -7519.2558   0.55789032 
  188000    502.39157   -7305.3629    25.910744    6.4656697    713.83684   0.55898004 
  190000     489.1329   -7304.5484     25.22693    5.9837087   -6912.4714   0.55848169 
  192000    507.51311   -7307.2389    26.174886    8.0076892    13380.599   0.56036691 
  194000    527.66175     -7307.74    27.214048    5.9613188   -6716.6292   0.55834392 
  196000    526.92427   -7306.3831    27.176013    6.3840719   -8483.4848   0.55805825 
  198000    516.51446   -7307.7691    26.639129    5.8600032   -5656.9135   0.55819292 
  200000    503.82467   -7306.5535    25.984656    5.9482387   -8036.9956   0.55824628 
Loop time of 8674.41 on 1 procs for 200000 steps with 400 atoms

Performance: 0.100 ns/day, 240.956 hours/ns, 23.056 timesteps/s
98.5% CPU use with 1 MPI tasks x no OpenMP threads

MPI task timing breakdown:
Section |  min time  |  avg time  |  max time  |%varavg| %total
---------------------------------------------------------------
Pair    | 8657.9     | 8657.9     | 8657.9     |   0.0 | 99.81
Bond    | 3.3649     | 3.3649     | 3.3649     |   0.0 |  0.04
Neigh   | 0.85273    | 0.85273    | 0.85273    |   0.0 |  0.01
Comm    | 6.3802     | 6.3802     | 6.3802     |   0.0 |  0.07
Output  | 0.11461    | 0.11461    | 0.11461    |   0.0 |  0.00
Modify  | 4.1546     | 4.1546     | 4.1546     |   0.0 |  0.05
Other   |            | 1.682      |            |       |  0.02

Nlocal:    400 ave 400 max 400 min
Histogram: 1 0 0 0 0 0 0 0 0 0
Nghost:    7055 ave 7055 max 7055 min
Histogram: 1 0 0 0 0 0 0 0 0 0
Neighs:    185862 ave 185862 max 185862 min
Histogram: 1 0 0 0 0 0 0 0 0 0

Total # of neighbors = 185862
Ave neighs/atom = 464.655
Ave special neighs/atom = 1.5
Neighbor list builds = 214
Dangerous builds = 0
unfix 1
unfix 333
fix 1 all nvt temp $T $T ${tdamp}
fix 1 all nvt temp 500 $T ${tdamp}
fix 1 all nvt temp 500 500 ${tdamp}
fix 1 all nvt temp 500 500 0.0005

reset_timestep 0
variable     pxy equal pxy
variable     pxz equal pxz
variable     pyz equal pyz
fix          SS all ave/correlate $s $p $d              v_pxy v_pxz v_pyz type auto file S0St.dat ave running
fix          SS all ave/correlate 5 $p $d              v_pxy v_pxz v_pyz type auto file S0St.dat ave running
fix          SS all ave/correlate 5 400 $d              v_pxy v_pxz v_pyz type auto file S0St.dat ave running
fix          SS all ave/correlate 5 400 2000              v_pxy v_pxz v_pyz type auto file S0St.dat ave running
variable     scale equal ${convert}/(${kB}*$T)*$V*$s*${dt}
variable     scale equal 1e-32/(${kB}*$T)*$V*$s*${dt}
variable     scale equal 1e-32/(1.3806504e-23*$T)*$V*$s*${dt}
variable     scale equal 1e-32/(1.3806504e-23*500)*$V*$s*${dt}
variable     scale equal 1e-32/(1.3806504e-23*500)*58836.8624504052*$s*${dt}
variable     scale equal 1e-32/(1.3806504e-23*500)*58836.8624504052*5*${dt}
variable     scale equal 1e-32/(1.3806504e-23*500)*58836.8624504052*5*5e-05
variable     v11 equal trap(f_SS[3])*${scale}
variable     v11 equal trap(f_SS[3])*2.13076613929222e-11
variable     v22 equal trap(f_SS[4])*${scale}
variable     v22 equal trap(f_SS[4])*2.13076613929222e-11
variable     v33 equal trap(f_SS[5])*${scale}
variable     v33 equal trap(f_SS[5])*2.13076613929222e-11
variable     v equal (v_v11+v_v22+v_v33)/3.0
fix          333 all print $d "${ILstep} ${ILtime} ${ILdens} ${ILtemp} ${ILpr} ${ILpe} ${v}" file visco.dat screen no
fix          333 all print 2000 "${ILstep} ${ILtime} ${ILdens} ${ILtemp} ${ILpr} ${ILpe} ${v}" file visco.dat screen no
thermo_style custom step temp pe press v_pxy v_pxz v_pyz v_v11 v_v22 v_v33
run          8000000
Per MPI rank memory allocation (min/avg/max) = 10.42 | 10.42 | 10.42 Mbytes
Step Temp PotEng Press v_pxy v_pxz v_pyz v_v11 v_v22 v_v33 
       0    503.82467   -7306.5535   -8036.9956    1858.7563   -5571.3826    3229.2313 3.680872e-05 0.00033069814 0.00011109745 
    2000      526.735   -7307.6592   -4581.4335    306.96386    -4603.133    3534.4284  0.035629632   0.40996462   0.12407843 
    4000    495.16569   -7308.0479   -5204.6516    336.03908   -3654.0799    3494.9277  0.015165026   0.33643317  0.074542408 
    6000    500.91117   -7309.2469   -1876.3679   -2676.6913   -6019.7436    3517.1805 0.0098877243   0.28149061  0.061812353 
    8000     471.4173   -7309.6089   -1574.5107   -51.264094    -7577.501    2032.3804 0.0093215487   0.29621559  0.083085232 
   10000    476.56038   -7309.0634   -1685.6506   -1817.2693   -7813.2643    1862.8846 0.0080002894   0.28749428  0.091117756 
   12000    475.64827   -7309.2114   -1746.1532   -1477.4836   -6458.9824    3622.2185 0.0062839309   0.30390951   0.09253341 
   14000    510.44584   -7308.2191   -4979.3732    2930.8828   -5370.2027    2413.4884 0.0044153542   0.30174944  0.099204259 
   16000    488.93355   -7309.8203   -2689.9215    389.92662   -6253.1208    5806.2605 0.0034863011   0.29248809   0.11145563 
   18000    489.56839   -7311.1577   -5469.0797    -1469.683   -5700.3082    6639.8002 0.0033767792    0.2910216   0.12603065 
   20000    480.38277   -7306.9601   -1349.2382   -1137.0339   -5149.6003    3128.1999 0.0046290923   0.29366371   0.13219631 
   22000    483.45909   -7310.5064   -2718.0314    -843.8793   -7509.5517    4941.8189 0.0058754291   0.29585406   0.13487446 
   24000    493.17525   -7307.9716   -4942.1732     5.826456   -7170.1215    2489.5863 0.0063724345   0.30354283   0.13901725 
   26000     513.8049   -7310.1428    -3200.758   -256.23359   -5693.2495    3525.3113 0.0060593305   0.30164857    0.1451911 
   28000    499.50302   -7309.7729   -6438.4713    -2079.066   -6747.7651    4485.2082  0.005609773   0.30068476   0.15219514 
   30000    494.29022    -7308.565   -4904.1232    204.38536   -4893.4746    4070.5713 0.0062227675   0.30573926   0.16166525 
   32000    515.84452   -7306.6317   -2964.7137   -3043.4018   -5356.8315    4395.1984 0.0055203024   0.30231162   0.16720662 
   34000     494.7891   -7311.0862   -4239.8491    1769.2964   -6955.9259    5481.4228 0.0051572344   0.30200496   0.16752111 
   36000    505.78587   -7309.4078   -7102.1554   -270.49292   -5977.9088    4013.8299 0.0048157539   0.30261686   0.16876839 
   38000    477.01267   -7309.8073     -4616.97    26.479854   -5537.1093    4037.1453 0.0045257376   0.30479746   0.17338034 
   40000    489.35573   -7310.6643    -3479.925   -664.04912   -4726.6283    4484.5702  0.004384344   0.30549462   0.17031107 
   42000    494.59989   -7308.9152   -2564.6559   -1727.3947   -4206.6277    5466.8311 0.0047336771   0.30390036   0.16930855 
   44000    521.73861    -7308.824   -2508.8514   -26.683727   -6140.9371    3715.8546 0.0048156087    0.3022202   0.17003586 
   46000    493.42219   -7309.0566   -6534.7497    130.98077    -3769.597      4824.38 0.0046856819   0.30040719   0.17213207 
   48000    537.40817   -7308.5999    -3425.425   -1049.4401   -7385.9282    2894.8141 0.0045284968   0.29694152   0.17322898 
   50000    500.82743   -7309.7643   -3530.2967     1179.155   -5758.1762    4875.5405 0.0043597023   0.29924486   0.17210432 
   52000    474.02009    -7308.923   -2754.4494    2434.8491   -4643.2391    5099.9914 0.0045392615   0.29911706   0.17287127 
   54000    456.91262   -7308.5821   -2614.0506   -33.838223   -6011.9202    5187.0891 0.0043142894    0.2967356   0.17186517 
   56000    534.96995   -7307.8249    -2312.524   -3985.7973   -4785.5396     2716.732 0.0043493379   0.29468302   0.17118386 
   58000    519.30886   -7308.6597   -1309.4999    543.96442   -7876.1943    3625.8522 0.0048404903     0.292596   0.17070183 
   60000    537.02686   -7310.2234   -5052.0174   -542.78002     -4766.23    5044.1511  0.004671229   0.29436471   0.17143752 
   62000    514.19303   -7310.8467   -2072.6467   -3591.7593   -7061.0034     4290.767 0.0046355029   0.29315222   0.17084666 
   64000    516.99709   -7309.4827    -2806.077      888.966   -5245.1849    1818.3851 0.0045578273   0.29126862   0.17025321 
   66000    462.51067   -7309.9549   -3946.4086    736.86746   -4618.0347    3200.9933 0.0047205819   0.28935073   0.16771644 
   68000    520.47164   -7309.1672   -4908.4435   -1339.0636   -5139.6193    5042.3158 0.0046021686   0.28822973   0.16814765 
   70000    476.00509   -7309.6366   -3414.8091   -572.61442   -6202.3595    5714.3505 0.0044905272   0.28774313   0.17156516 
   72000    526.63186    -7307.644   -3304.2222     684.0807   -4678.7011    4461.7983 0.0043448975   0.28753032   0.17276673 
   74000    514.91037   -7311.2608   -3225.6105    656.50307   -3165.5139    4294.2412 0.0043287627   0.28827126   0.17300543 
   76000    487.78914    -7309.308   -3109.0659    -1391.666   -5337.2859     5155.688 0.0042635116   0.28645665   0.17094658 
   78000    489.01669   -7309.9076   -5262.1572    558.95597    -7079.146    4831.7453  0.004359761   0.28688778   0.17093453 
   80000    498.09071   -7308.0428   -4068.8825      1425.24   -6716.2602    4648.2389 0.0042271015   0.28639317   0.17161194 
   82000    508.03857   -7310.8654   -4537.3796   -50.032525   -6814.0888    4117.8448  0.004095692   0.28572488   0.17340572 
   84000    472.72264   -7310.6398   -3794.1698   -3515.4841   -5635.5819     4781.052 0.0040240885   0.28554112   0.17269652 
   86000    472.17624   -7309.7297   -6277.9955    1082.2687   -5523.2339    4067.3469 0.0042296629   0.28673373   0.17205655 
   88000    481.46032   -7309.1192   -5006.9768   -33.710157   -4358.8255     3526.067 0.0041903404   0.28527334   0.17174509 
   90000    521.11778   -7308.5358   -5464.0574   -2579.9041   -6024.8402    4468.9377 0.0041208023   0.28444678   0.17176261 
   92000    508.35113   -7308.0448   -3515.6525   -742.77146   -4376.0051    2955.2137 0.0040756715   0.28567237    0.1721371 
   94000     484.9331    -7309.161   -5115.9845   -1722.0328   -3842.5138    1401.8506 0.0040159499   0.28776166   0.17189823 
   96000    524.21611   -7309.4778   -974.76348   -796.67371   -6553.9791    1620.0919 0.0041760562   0.28654203   0.17158057 
   98000    507.75754   -7308.7286   -4665.2901   -253.23145   -4467.6756    5609.2738 0.0041140648   0.28652642   0.17095325 
  100000    468.48009   -7308.9588   -2690.5741      868.929   -6882.4999     5848.454 0.0040801987   0.28645023   0.17166396 
  102000    557.08629   -7310.9714    -4097.564    35.727459   -5286.2054    2769.2535 0.0039851586   0.28696108   0.17097645 
  104000    513.51548   -7309.0794   -3427.4899    460.59751   -5893.5214     6376.293 0.0039920513   0.28606357   0.17125444 
  106000    499.40204   -7310.4698   -2483.5443    1687.5953   -3037.1448    4410.9242 0.0038999781   0.28639007   0.17336994 
  108000    522.75537   -7308.9804   -3161.3245   -1525.9489    -8233.655    3763.1757 0.0038390213   0.28595708   0.17213729 
  110000    496.63235   -7310.4943   -3853.1302   -1567.3482   -5576.4317    2696.9644 0.0038082603   0.28546247   0.17134328 
  112000    490.52364   -7309.6693   -4855.2006   -722.87126   -8593.4732    4942.6166 0.0038044941   0.28747875   0.17103264 
  114000    490.48982    -7308.503   -664.85773   -1211.2068   -3567.4351    1470.7034 0.0038504208   0.28915351   0.17240642 
  116000    510.90822   -7309.9747   -4334.6311   -102.36327   -2633.9204    7482.5748 0.0038120199   0.28762801   0.17261974 
  118000    452.26417   -7310.3758   -5141.2851   -904.59839   -6050.8953    5568.8604  0.003884751   0.28798672   0.17284504 
  120000    481.56405    -7308.527   -4936.3999   -766.14299   -7064.8091    4423.2208 0.0038984841   0.28949302   0.17260376 
  122000    480.47934   -7311.8563   -2137.6449   -1394.8638   -7521.9043    5397.0018 0.0038705161   0.28992528   0.17285404 
  124000    492.59918   -7309.6865   -4712.8469    5.3672149   -1248.6292    3460.6178 0.0038014102   0.28909575   0.17280654 
  126000     512.0844   -7311.0728   -2922.1744   -178.37266   -7624.7024    8096.6234 0.0037741831   0.28899681   0.17260632 
  128000    496.63768   -7309.8921   -1820.4569   -645.38185   -5358.7511    4996.4853  0.003968842   0.29220796    0.1741845 
  130000    515.98735   -7310.0899   -3875.0388    2284.4507    -4616.828     4982.685 0.0040191157    0.2919171   0.17400481 
  132000    554.12909   -7308.5147   -2006.6969        410.6   -6570.1467    4007.8667 0.0039204961   0.29033998   0.17351333 
  134000    509.37053   -7309.9619   -3099.5753     1186.707   -6318.0268    5371.0986 0.0038680291   0.29143788   0.17280572 
  136000    506.91568   -7309.7537   -2224.3747   -3146.9947   -9305.1401    5621.6048 0.0038439095   0.29168223   0.17411377 
  138000    498.82737   -7309.8104   -3747.2402    963.73717   -4273.7072    3434.5772 0.0042401705   0.29302542    0.1737093 
  140000    504.72341   -7306.5606   -3405.9091   -2079.8508   -6750.3383    5271.5216 0.0041216327   0.29331177   0.17325815 
  142000    491.32313   -7308.8159   -3869.0896   -1463.8707   -3523.6109    4713.3495 0.0040894631   0.29258992   0.17418899 
  144000    493.82338   -7307.3034   -1261.5692   -2015.0932   -6441.4557    4203.7487 0.0041333537    0.2924816   0.17495554 
  146000    500.82539   -7310.0098   -4515.2065    1794.7759   -5799.6077    4307.5657 0.0041019315   0.29219293   0.17503045 
  148000    508.53934    -7310.892   -2469.5394    -1162.357   -7958.2356    3601.1288 0.0041879261   0.29135661   0.17400056 
  150000      472.349   -7308.5154   -2191.5249   -721.70149   -5811.0977    5791.1403 0.0041983278   0.29203837   0.17407522 
  152000    494.22652   -7308.9916   -2529.9133   -1024.9126   -6628.4092    7028.0762 0.0042514187   0.29255858   0.17495881 
  154000    494.03088   -7309.1072   -5625.3532     2858.257    -6192.775    7188.0794 0.0042219041   0.29252224   0.17525892 
  156000    453.31913   -7308.8388   -3058.7805   -775.68997   -3593.8261    2638.0754 0.0041495591    0.2928072    0.1753262 
  158000     494.1009   -7309.4399   -3861.8353   -1373.8016   -6324.4113    9024.2882 0.0042022068   0.29212412   0.17430821 
  160000    510.51229   -7309.8285   -5354.4077   -428.43881   -9288.8824    6674.7221 0.0041755111   0.29233024   0.17535717 
  162000    511.93035   -7308.8826   -2597.6257   -635.35067   -4946.3763    3091.8657 0.0041787254   0.29258991   0.17588583 
  164000      520.853    -7310.766   -3945.8509    143.96024   -5484.3375    2812.2212 0.0041330792   0.29247625   0.17565382 
  166000    502.53107   -7309.1914   -4506.0324   -3097.9343   -9185.0843    3369.6049 0.0040793459    0.2928032   0.17489791 
  168000     453.4429   -7311.1804    -4789.142   -1085.4298   -6181.1095    6159.6812 0.0041163004   0.29344594   0.17465244 
  170000     475.3941   -7309.8383    -3540.856    831.93793   -6757.8786    4340.1743 0.0040943503   0.29372126   0.17487013 
  172000    497.69407   -7309.5517    -3295.465   -1467.9364   -5080.2343    5992.9096  0.004039356   0.29354438   0.17569988 
  174000    503.50127   -7311.0697   -5473.6805    509.33322   -6024.0042    3885.2098 0.0041813615   0.29388424   0.17587122 
  176000     506.4599   -7309.9924   -4855.2797     2177.973   -5816.4852    3767.6823 0.0041285949   0.29539677   0.17539166 
  178000    508.62445   -7309.5025   -4473.6292   -2887.3952   -3750.3448    1875.3246 0.0040900645   0.29432273   0.17469078 
  180000    484.26046   -7310.9165   -4436.2469    464.32255   -4276.3709    7234.1785 0.0041360042   0.29338138   0.17481266 
  182000    493.68733   -7308.3623   -5147.0208   -1534.9646   -6569.7628    5135.4107 0.0040853106    0.2947604   0.17501235 
  184000    503.81327   -7311.5698   -3560.6178   -1230.4966   -4407.7623    7292.3334 0.0040821002   0.29550026   0.17525349 
  186000    496.21034    -7310.633   -2224.3822   -2044.8921   -6774.7814    3876.0796  0.004108652   0.29575394   0.17555908 
  188000    466.02755   -7310.3269   -3749.9174    523.87355   -7568.2259    3841.4852  0.004096411   0.29496905   0.17530669 
  190000    513.06213   -7308.6393   -1595.1321   -3646.5763   -5966.3634    4202.6777 0.0040242208   0.29478252   0.17540682 
  192000      464.781   -7310.5964   -4094.9745   -114.39101   -2073.1176    2567.6305 0.0039870693   0.29507021   0.17451266 
  194000    482.97136   -7309.8202   -3441.7146    1113.8377   -5666.2642     6932.948 0.0039682504   0.29447776   0.17448087 
  196000    487.51193   -7309.6132   -4118.3006    377.49504   -8069.2629    4880.8373 0.0039961509   0.29540411   0.17526892 
  198000    533.12978   -7308.0663   -4012.6394   -1409.0483   -6360.9322    2135.8377 0.0041276464   0.29627519   0.17560001 
  200000    518.07815   -7309.0135   -5135.7756    471.44094    -6930.809    3861.8327 0.0042265062   0.29563841   0.17525029 
  202000    492.44763   -7306.8084   -946.95063    1306.8078   -7275.4399    2724.9823 0.0041796622   0.29602775   0.17551118 
  204000    490.46397   -7311.2805   -4946.1016    926.45883    -5223.649    4697.5162 0.0041429706   0.29642659   0.17512019 
  206000      505.787   -7308.3653   -5228.5275   -1191.9062   -4841.5849     5260.013 0.0041059095   0.29602911   0.17512169 
  208000    458.84444   -7310.8817   -4632.2755    1223.9571    -3283.996    2451.8577 0.0040549312   0.29571925   0.17503798 
  210000     502.9648   -7310.0639   -5080.4694    1539.0248   -6050.8405    4466.3634 0.0040149514   0.29580656   0.17516361 
  212000    528.42637   -7309.3685   -2538.1355   -1745.0845   -6972.9471    4382.6346 0.0039806733   0.29609341   0.17550903 
  214000    510.78244   -7311.4452   -3938.0626   -1709.7592   -6684.5436    4278.8223 0.0040196981   0.29603855   0.17506844 
  216000    506.16437   -7308.9522   -3657.0959   -480.90713   -9061.2939    6258.8102 0.0040502498   0.29607924   0.17500833 
  218000    480.58868   -7307.7522   -1435.2468    855.74772   -5160.2496    5674.4685 0.0040062471   0.29684047   0.17547868 
  220000    518.05334   -7309.5766   -2654.3386   -958.94686   -8646.1109    4691.4173 0.0039804874   0.29688479   0.17574781 
  222000    478.10988   -7309.8826   -4276.1384   -439.95494   -4938.4291    4150.2919 0.0039334815   0.29650928   0.17595338 
  224000     543.0311   -7310.8836   -1967.1714   -457.86411   -7480.5563    2391.9862 0.0039307083   0.29646584   0.17573364 
  226000    487.91778   -7312.8359   -3131.4694   -470.98148   -5049.8633    5758.2525 0.0039105877   0.29685154   0.17588734 
  228000     490.3131   -7310.3832   -3312.5511    2558.8357   -6405.3875     5407.004 0.0038967213   0.29683593   0.17625893 
  230000    494.88204   -7308.6391   -1742.4746   -1678.8736   -7466.4887    7332.9576 0.0038270621   0.29768721   0.17635574 
  232000    492.00422   -7308.9238    -2124.463   -1507.8715   -4450.7333     3371.248  0.003843389   0.29751967   0.17658136 
  234000      473.106   -7307.7957   -675.21729   -603.79258   -8357.0376     3362.967  0.003868447   0.29719159    0.1761984 
  236000    500.95229   -7308.5569   -3467.8824   -1342.1278   -6794.4209    6355.2281 0.0038690819   0.29705981   0.17630877 
  238000    491.62606     -7310.09   -4493.9575    887.36649   -6177.3573    4395.9978 0.0038685727    0.2971647   0.17689207 
  240000    504.95257   -7308.8225   -4822.9818   -386.25548   -2574.8968     4279.881 0.0038379985    0.2983031   0.17729478 
  242000     493.5901   -7310.9698   -3939.4403    48.206074   -5908.4912    7931.8628 0.0038170495   0.29780113    0.1770938 
  244000    495.89317   -7311.1899   -3784.5614    1937.8907   -5324.0121    2554.7185 0.0037833643   0.29752618   0.17653365 
  246000    491.00625   -7310.6527    -4283.041   -1315.2248   -9620.5778    5596.8052 0.0037590488   0.29789314    0.1766769 
  248000    482.49525   -7309.7589   -4866.6229    2643.0403   -6372.9433    4243.3549 0.0037465815   0.29836429   0.17689532 
  250000    510.05145   -7308.5781   -2907.6026   -1358.8584   -5889.3721    5270.7837 0.0037015538   0.29776507   0.17687262 
  252000    512.84662   -7308.7307   -5455.6006   -237.31199     -7334.55    2759.0437 0.0036962787   0.29748117   0.17737765 
  254000    499.93939   -7309.8714   -4124.7392   -2176.7159   -6026.9371    3795.3027 0.0038716396   0.29769629   0.17738317 
  256000    509.72642   -7309.3331   -3957.8437    592.47321    -7819.398    4822.6879 0.0038502679   0.29772867    0.1772705 
  258000    522.02323   -7310.5309   -4373.9893    793.86544   -5703.0395    4068.3116 0.0038409428   0.29741332   0.17707618 
  260000    518.66384   -7309.9779   -3941.5384   -2690.3941   -7014.8627    6763.7384 0.0038864271   0.29770547    0.1768538 
  262000     512.5787   -7309.3187   -4494.1536    1920.8352   -4064.0332    3690.8401 0.0039170452   0.29780021   0.17713421 
  264000    474.44874   -7308.9933   -1873.0117    1229.8606   -6803.6255     3123.106 0.0038958675   0.29758879   0.17669073 
  266000    507.25444   -7310.6014    -5090.447   -279.47282   -4248.6411    5822.9894 0.0038727527   0.29769381   0.17681858 
  268000      514.393   -7309.6893   -4551.1894   -2598.0627   -3879.3981    5179.2956 0.0038474728   0.29737417   0.17675153 
  270000    505.84594   -7311.4111    -4030.802   -395.23916   -5524.9604    3351.0006 0.0039358929   0.29710919   0.17684023 
  272000    462.15425   -7306.4398   -5508.9159   -1614.5754   -6791.1529    3057.4694 0.0038746567   0.29791107   0.17689884 
  274000    468.11836   -7310.5058    -3439.173   -959.90662   -4721.4779    6036.4716 0.0038785856   0.29897889   0.17703729 
  276000    543.49207   -7310.7684   -2364.4518     976.9021   -5830.9066    2731.5672 0.0038657746   0.29863687   0.17757977 
  278000    493.11627   -7310.1965   -7007.6109    366.44605   -2863.6697    4260.2587 0.0038441554   0.29787487   0.17747862 
  280000    499.87079   -7308.9043   -2510.3925    1582.6768   -7015.7915     4862.099 0.0038128002   0.29816135   0.17733474 
  282000     499.1051   -7310.5434   -3981.1993   -611.68496   -3292.7982    4238.2634 0.0037916228   0.29790445   0.17717541 
  284000    506.98686   -7309.7262   -4330.3202    656.01259   -6596.8595    6588.5557 0.0038102424    0.2978395   0.17777964 
  286000    512.40294   -7311.1785   -4348.6613    1427.8551   -4978.8142    5415.9087 0.0038279882   0.29834709   0.17805191 
  288000    533.64014   -7311.3682   -5823.1882   -524.05229   -4589.9847    6461.1222 0.0038652641   0.29828073   0.17800519 
  290000    502.33652   -7310.2088   -4123.5294    736.00084   -7431.7381    4773.7709 0.0037958622   0.29828116   0.17773465 
  292000     488.2571   -7309.0106     -6818.07   -106.69231   -3950.4869     5461.345 0.0038406003   0.29854969   0.17771908 
  294000    487.35221   -7307.6748   -5109.5143   -574.29158   -6263.0754    6889.4605 0.0038001706   0.29785034   0.17742553 
  296000    494.23782   -7308.6022   -7025.2546   -1648.1499    -4629.035    2282.6586 0.0037878635   0.29763629   0.17752531 
  298000    510.77757   -7311.1222   -6902.0685   -1000.7343   -6470.2065    4932.1163 0.0038003023    0.2980758   0.17779056 
  300000    527.54642   -7307.3617   -6649.9183   -693.90396    -7159.215     2122.654 0.0038113851   0.29816653   0.17779777 
  302000     500.7213    -7309.684   -7218.1411     250.9849   -5775.5157    2815.4491 0.0039016505   0.29861571   0.17783463 
  304000    487.09849   -7309.2586   -6945.7104    -922.8149   -8379.3445     1880.005 0.0038604646   0.29828586   0.17796478 
  306000     532.8541   -7309.3998    -5071.213    2451.3738   -6955.6489    3774.5809 0.0038364664   0.29881736   0.17766631 
  308000    510.06652    -7308.187   -5340.4136   -1994.6331   -6992.8187    5967.4211 0.0038034291   0.29877854   0.17791967 
  310000    539.54671     -7310.95   -3418.3562    -249.5545   -4929.6172    5048.6724 0.0037796546   0.29836144   0.17821133 
  312000    513.96299   -7309.5481   -5204.2733    -249.7813    -7250.927    4657.3653 0.0037755361   0.29843611   0.17821295 
  314000    489.32836   -7308.9148    -3963.096    614.79061   -7310.6406    4727.8396 0.0037631635   0.29851754   0.17811966 
  316000    487.90385   -7309.5003   -6948.9236   -1546.2398    -6261.914    1335.2383 0.0039015569   0.29890728   0.17808323 
  318000    498.14189    -7310.905   -4356.3957    1890.2862   -8004.7728     4516.832 0.0039171619   0.29889486   0.17772762 
  320000    492.62542   -7309.2061   -6724.5705    727.26186   -5462.3027    3611.7664 0.0039134352   0.29915735   0.17804857 
  322000     511.9832   -7310.7222   -5939.7575    516.76064   -7183.9448    1692.4661 0.0039116237   0.29922084     0.178061 
  324000    512.47801   -7308.2555    -4588.467   -1145.0554   -5163.8763    5142.9334 0.0038858021   0.29893164    0.1777975 
  326000     506.1805   -7309.5981   -4842.4422   -84.415073   -5533.4658    7529.5806 0.0038672301   0.29842079   0.17785059 
  328000    486.61372    -7311.262   -5082.8301   -2634.7275   -5636.9195    7019.5774 0.0038754739   0.29861109   0.17768264 
  330000     482.5819   -7310.4822   -6378.4847    717.09036   -5428.6493    4597.2752 0.0038852086    0.2990658   0.17781097 
  332000     524.3682    -7308.897   -4992.4087    104.10639   -2231.7382    5945.6292 0.0038839195   0.29894372   0.17805926 
  334000    479.84988   -7310.9094   -5263.1314   -533.88317   -9351.6942    4679.9107 0.0039307541   0.29898775    0.1780492 
  336000    503.39167   -7310.3972   -2946.2684   -1013.3184   -4717.5667    3908.0603 0.0039701733   0.29916557   0.17816445 
  338000    479.81194   -7308.4075   -5565.9309    -1877.054   -7436.0775    3185.8575 0.0039492866   0.29897574   0.17807596 
  340000    464.30489   -7309.2034   -8012.3474    102.59711   -4816.2307      3930.52 0.0039359367   0.29884409   0.17822568 
  342000    495.29957   -7312.2737   -4405.6915   -1518.0658   -4667.8694    5130.2305 0.0039437081   0.29859777   0.17837345 
  344000    502.39702   -7309.3715   -6844.1413   -1555.0753   -6382.3774    3431.4048 0.0039077071   0.29860368   0.17861435 
  346000     506.2059   -7310.1997   -6143.4208    195.04635   -3510.7428    3619.3942 0.0038727407   0.29860034    0.1784127 
  348000    508.23817   -7311.0877   -6766.1034   -1049.0101   -7152.3803    4437.2024 0.0038474666   0.29845438   0.17816749 
  350000    496.05766   -7308.5064   -4166.2179   -1477.7912   -6440.5593    4048.8889 0.0039058229   0.29856222   0.17844994 
  352000    473.11805    -7310.164   -5248.5913    -2040.073   -5001.8037    3589.3755 0.0039477109   0.29841498   0.17816591 
  354000    471.49799   -7309.2388   -6654.9997   -486.22486   -6958.4511    5255.0209 0.0039304425   0.29837519   0.17824087 
  356000    500.59934    -7307.792   -4491.0144   -800.78235   -7535.8071    4686.5591 0.0039539944   0.29851465   0.17836901 
  358000    500.96473    -7310.683   -5705.9011   -5246.8769     -8079.43    2269.0473  0.004073472   0.29873249   0.17888663 
  360000    475.84125   -7308.0204   -4615.7069   -1176.4722   -6178.5686    2403.3444 0.0040397222   0.29888443   0.17852863 
  362000    523.71869   -7309.0755   -5269.2391   -534.38325   -7052.4824    2268.7887 0.0040301056   0.29897341   0.17855355 
  364000    483.99287   -7311.3201   -2556.1642   -1295.4263   -4908.7313    5442.3541 0.0040254323   0.29897858   0.17853808 
  366000    508.48886   -7310.0046   -3441.1878   -225.32381   -6433.4938    3789.6907 0.0040121912   0.29845672    0.1787474 
  368000    487.51911   -7311.0327   -1292.5622    1558.1236   -6186.1922    2909.3333 0.0039948632    0.2985138   0.17871462 
  370000    522.38952   -7309.4585   -2966.1946   -392.83077   -5399.0282    2745.8635 0.0039807641   0.29868582   0.17830235 
  372000    519.03511   -7311.2673   -4128.1657   -1671.9307   -5862.5789    4712.7329 0.0039793863   0.29862814   0.17868825 
  374000    474.22215   -7310.2302   -3385.1808    436.21027   -7468.3754    3984.3221 0.0040239095   0.29884182   0.17867324 
  376000    479.14593   -7309.8213   -1357.9145    -3868.421   -4106.0489    3470.5524 0.0040441764   0.29922072   0.17863142 
  378000    530.06496   -7311.5599   -4199.1865    2454.4195   -6080.0305    5707.8448  0.004065317   0.29891187    0.1784117 
  380000    509.30399   -7310.7956   -2311.7601   -2086.2565   -4658.9258    3805.1896 0.0040351425    0.2988673   0.17836215 
  382000    511.50002   -7311.0415   -3704.3964    3345.8964    -6491.462    5993.8214 0.0040073717   0.29899285   0.17873221 
  384000    500.72984   -7311.2398   -4773.5796    1224.7987    -5153.239    2953.2244 0.0040163963   0.29876188   0.17872995 
  386000    507.10891   -7308.9073   -2800.2707    -2132.136   -4835.0379    2752.9762 0.0039974343   0.29868896   0.17846423 
  388000    477.74049   -7309.3132   -4603.4013    641.45884   -8104.6876    5180.6096 0.0039826581   0.29879486   0.17807122 
  390000    531.98216   -7308.8661   -2592.3357    57.196214   -6111.3749    5794.4676 0.0040811694   0.29907135   0.17821843 
  392000    485.36694   -7308.5544    -5610.516    2277.5139   -4698.2992    6346.8078 0.0040508374   0.29940163   0.17864698 
  394000    504.56025   -7309.3717   -3464.2812    1102.1753   -1049.4694    2743.1118 0.0040362639   0.29934228   0.17914498 
  396000    484.22914   -7307.2877   -2490.4541    3050.0301   -5609.3418    3208.5188 0.0040500488   0.29890523   0.17889144 
  398000    503.30987   -7309.9197   -4629.4154   -1178.8926   -5495.5383    3342.9688 0.0040332937   0.29919104   0.17849595 
  400000    475.71355   -7310.2989   -4676.0732    2662.8901     -6245.69    4213.4414  0.004057329   0.29900195   0.17831865 
  402000    468.72283   -7310.6546   -4677.9192   -399.25268   -6751.3494    6603.6542 0.0040451931   0.29904539   0.17888681 
  404000    486.37675   -7310.1906   -6482.6662    1380.9702    -7747.498    5737.2178 0.0040251591   0.29882474   0.17906484 
  406000    475.13422   -7310.5871   -2033.0846   -708.92969   -7386.3632    5003.6511 0.0040029087   0.29907231   0.17913272 
  408000    489.95539   -7309.6195   -2817.8708   -1070.3362   -5380.5084    4136.0727 0.0040697763   0.29921079   0.17884073 
  410000    501.09853   -7307.7508   -6046.0235   -490.74005   -4196.0973    2925.7315 0.0040403645   0.29910403   0.17885062 
  412000    519.58282   -7310.4371    -5628.824    -1167.386   -6462.7062    2465.2577 0.0040194683   0.29856519   0.17880455 
  414000    518.51649   -7310.9436     -8760.29    1593.7386   -6969.4506     5997.621 0.0040055515   0.29880639   0.17884668 
  416000    479.12451   -7309.3069   -2875.1566   -181.75328   -5970.9249    3134.5352 0.0040002458   0.29880674   0.17902354 
  418000    486.57722   -7310.0029   -3348.0768   -40.820206   -7593.5837    7241.7554 0.0039849268   0.29878479    0.1789579 
  420000       492.66   -7308.7667   -2707.4341   -2388.5173   -2440.4537    5155.8128 0.0041047328   0.29891028   0.17909394 
  422000    503.64765   -7309.1586   -4200.8074    1927.1184   -5937.2224    4018.1467 0.0041233415   0.29906782   0.17920234 
  424000    492.01883   -7308.6216   -5635.2501    4094.3224   -6371.2041    3350.1926  0.004133504   0.29881128   0.17900159 
  426000    537.78311   -7309.0403   -3039.7833   -2994.6868   -5790.3212    4323.2704   0.00413251   0.29879142    0.1789031 
  428000    493.09543   -7309.1378   -4689.5509    2039.2254   -5667.9967      4049.09 0.0041565418   0.29872765   0.17904831 
  430000    510.11416   -7310.5112   -1729.9333   -3410.9231   -5066.4051    5737.9195 0.0041679072   0.29892632   0.17918488 
  432000    536.19077   -7308.4122   -2700.1383    1084.9207   -8164.5943    6188.7676 0.0041653858    0.2991414   0.17926356 
  434000    508.03995   -7310.1095   -3047.6452   -3531.3685   -5783.6172    5825.0998 0.0041515224   0.29902277   0.17920223 
  436000    467.07636   -7309.9472   -4816.1249   -550.30346   -4443.7449    3682.8731 0.0041658291   0.29934224   0.17929145 
  438000    534.47944   -7309.4818   -3379.2818    1511.7067   -5271.2284    5195.5335 0.0041482553   0.29900085   0.17935798 
  440000    520.47929   -7309.5465    -3548.224    2100.6921   -4688.6173    2676.0099 0.0041688142   0.29870012    0.1790032 
  442000    464.99396   -7307.7058   -2576.6456   -1055.7108   -7703.7032    4524.4591 0.0041565792   0.29893131   0.17906022 
  444000    498.19935    -7311.231   -2589.5391   -830.44549   -5304.4567    5064.0965 0.0042875465   0.29881567   0.17911272 
  446000    493.63204   -7311.9973   -2232.4195   -719.11007   -5246.4273    6262.2112 0.0043521142   0.29897805    0.1793433 
  448000    526.03881   -7307.6672    169.27172    710.38742   -5177.7637    4146.9849 0.0043297103   0.29905308   0.17941396 
  450000    523.21783   -7309.9228   -2560.3372    601.71346   -5821.4908    540.06961 0.0043213493    0.2990863   0.17926941 
  452000    524.36229   -7309.5393   -4946.0999    308.22653   -6412.7222     4795.274 0.0043094724   0.29898355   0.17898581 
  454000    509.26643   -7308.5126   -2685.7773   -17.663057   -2344.7229    1826.2303 0.0042963046   0.29898458   0.17911265 
  456000    469.22872   -7309.9022   -3421.3338   -140.84657   -4253.5564    5373.1163  0.004281328   0.29881096   0.17929894 
  458000    532.34067   -7311.0806    -1061.139   -1065.9552    -7905.562    4072.8488 0.0042731593   0.29896205   0.17931643 
  460000    458.99674   -7308.7193    -4622.365   -1797.4467   -6080.4467    4902.1491 0.0042808948   0.29926156   0.17923172 
  462000    498.53219   -7310.0734   -5071.3436   -1226.8085    -5626.324    7136.7057 0.0042794303   0.29926243   0.17931895 
  464000    508.19809   -7310.4381   -5452.5892   -74.024505    -8647.377    5481.1183 0.0042624579   0.29925571   0.17953008 
  466000    510.40115    -7312.297   -4321.8478    338.20273    -5334.863    5225.7398 0.0042498539   0.29939486    0.1796993 
  468000    542.39689   -7308.6609   -3067.3414    906.03559   -6254.0782    3034.5192 0.0042694066   0.29940575   0.17962936 
  470000    492.98919   -7309.9934   -3972.3953    390.06311   -4513.5489     5063.042 0.0042431106   0.29930876   0.17961812 
  472000    511.72048   -7309.8558   -5273.4763    1896.4206   -5766.3581    6730.0017 0.0042348054   0.29935743   0.17976184 
  474000    537.79928   -7308.5184   -4342.6709   -826.59522   -4896.3766     5854.521 0.0042209642   0.29931161   0.17990451 
  476000    517.13727    -7311.584   -5659.3284   -702.68543    -6042.677    5500.6886 0.0042004994   0.29911606   0.17999988 
  478000    476.78048   -7310.4941   -4631.8556   -1338.5953   -4846.4591    4025.6855 0.0041873828   0.29917166    0.1798672 
  480000    510.57535   -7309.9731    -4724.254    296.69823   -7750.7357    4949.2637  0.004213501   0.29942435   0.17974586 
  482000     480.2219   -7309.4923   -4089.9196   -1309.1698   -5631.5682    6244.0567 0.0042010091   0.29948456   0.17971384 
  484000    479.22742   -7308.5191   -5671.8416    622.29953   -4590.9198     8039.172 0.0041865062   0.29974844   0.17983843 
  486000    520.90993    -7311.495   -4603.3271   -775.20274   -6960.1537    5006.7257 0.0041823588   0.29925348   0.17981567 
  488000     534.8963   -7310.4871   -3207.0563   -655.08195   -8962.6549    4946.0609 0.0041671691   0.29920565   0.18002324 
  490000    466.82794    -7309.673   -2856.9704   -462.66109   -7938.5354    2573.4957  0.004149513    0.2996674   0.18004107 
  492000    508.10524   -7312.8854   -2590.6851    -2447.825   -6215.1315    3456.1383 0.0041556613   0.29950602    0.1797901 
  494000    497.29405   -7308.7237   -5944.2519    72.059824   -5974.5009    2941.4609 0.0041479436   0.29944454   0.17966786 
  496000    507.64972   -7309.3022   -3704.4131   -1095.6631   -4538.9023    6616.6735 0.0041490475   0.29946741   0.17973163 
  498000    522.92965   -7309.9791   -4931.2049    860.42508   -8079.3483    6890.4388 0.0041355097   0.29957478   0.17981072 
  500000    498.52676   -7307.6772   -3927.1264   -2872.2176   -4885.9861    5863.0152 0.0041219474    0.2996184   0.17996288 
  502000    519.17847   -7310.0421   -3790.4767   -3537.6404   -6024.3701     6702.514 0.0041365091   0.29937391   0.17985141 
  504000    454.62778   -7309.3509   -5713.2363   -360.73773   -6406.8628    5839.0939 0.0041624588   0.29957354   0.17978409 
  506000    486.14272   -7308.8272   -2545.6072   -761.87626   -6146.6703    3619.3475 0.0041520105   0.30013479    0.1799022 
  508000    480.53056   -7310.9581    -2660.425    1883.9962   -4543.7448    3620.9706 0.0041715332   0.29994664   0.17993035 
  510000    512.00861   -7309.0245   -4102.1332   -885.21827   -8006.3049    2281.7719 0.0041484943   0.29970523   0.17985455 
  512000     521.6342   -7308.9406   -3661.7461   -1179.8156   -7131.2139    2748.6234 0.0041410147   0.29963179   0.17985939 
  514000     488.3809    -7310.057   -5831.5417   -2895.5354        -8758    4217.5288 0.0041340252     0.299842   0.17987874 
  516000    470.22826   -7308.8776   -4328.0079    1801.3661   -5805.3551    6145.3837 0.0041415051   0.29993604   0.17989101 
  518000    491.29198   -7309.8266   -7421.1848   -3047.0957   -8074.5028    2386.6196 0.0041728562   0.29985439   0.17990902 
  520000    506.22142    -7309.424    -3906.225   -2013.1039   -7629.4345    2463.0073 0.0041379493    0.2996608   0.17988998 
  522000    491.42742    -7310.399   -6092.5105   -915.53165   -4560.4717    3593.6157 0.0041190827   0.29988681   0.17981909 
  524000    519.20397   -7309.0406   -6451.1471    782.66036   -6755.0168    5182.7137 0.0041000622     0.299923   0.17987622 
  526000    509.65333    -7310.442   -5853.3268    1103.3305   -4336.4715    3159.2317 0.0040888974   0.29973822   0.17989303 
  528000     511.8058   -7309.9981   -4155.1892    1134.1644   -7176.5115    4351.8032 0.0040776709   0.29978793   0.17990388 
  530000    464.49849   -7310.0741   -5307.6775   -5186.5307   -6138.5383    2525.6059 0.0040820591   0.29998916   0.17976302 
  532000    515.11458   -7309.5974   -4673.9997    650.63753   -8236.7848    6034.2924 0.0040944413    0.2998616   0.17966849 
  534000    507.61452   -7309.9481   -6607.1809    121.99637   -7324.2481    5121.1026 0.0040772034   0.30002017   0.17984617 
  536000    489.70158   -7310.1678   -4690.6424     594.9045   -7013.1297     5142.671 0.0040637579   0.29999649   0.17985063 
  538000    500.42963   -7311.1165   -5874.2088     638.0913   -7474.1881    4770.7647 0.0040524271    0.3000116   0.17996069 
  540000    487.22722   -7310.9736   -2709.1308   -1365.3462   -7315.0635    7123.9289 0.0040595336   0.30012203   0.17983376 
  542000    516.96734   -7309.0389   -1833.6584    -2413.802   -6543.4481    4408.2668  0.004083993   0.30000439    0.1797505 
  544000    503.06523   -7308.8754   -5005.7567    1103.1474   -7696.9289    5310.6296 0.0040908336   0.30004463    0.1796595 
  546000    483.14008   -7309.8987   -4023.0503   -1257.8504   -7177.0319      7157.46 0.0040760168   0.30042325   0.17972183 
  548000    524.00455   -7308.7801   -4878.9079    225.06729    -6722.432     5239.776  0.004066049   0.30013935   0.17988963 
  550000    494.85828   -7309.7633    -2895.563    126.65163   -5527.9688    4416.6084 0.0040595966   0.30010743   0.17995639 
  552000    478.83928   -7308.6144   -5117.7372   -1123.1716   -5704.0735    7950.2361 0.0040629138   0.30037291   0.17989837 
  554000    545.89358   -7312.0153   -4955.8663    500.83692    -5084.622    5513.8054 0.0040481487   0.30027765   0.17982695 
  556000    531.47083   -7310.7138   -5459.7289    254.54944   -4267.1069    6966.9811   0.00406222   0.30009687   0.17976072 
  558000    502.97183   -7308.5659    -6319.397   -560.59799   -6402.0729    2821.0119 0.0040381725   0.30009171   0.17966786 
  560000    526.37586   -7310.4714   -6428.7272     628.2937   -6381.1576    5300.8138  0.004023935   0.30037913   0.17967852 
  562000     520.5254   -7308.0418   -4155.8812   -1696.2882   -4343.9082    5240.5513 0.0040037534   0.30036828   0.17988181 
  564000    530.48453   -7309.5395   -4994.3401   -265.99551    -7409.068    3338.3033 0.0040120023   0.30029474   0.17993938 
  566000    489.85175   -7308.1273   -3725.3377   -2914.3011   -6444.8826    3639.4221 0.0039877991    0.3001831   0.17968667 
  568000     503.4102   -7311.4965   -5605.0451   -3500.3759   -7000.5887     3180.754 0.0039891463   0.30062473   0.17952765 
  570000    475.24832   -7307.6947   -4654.9408   -332.99817   -9207.7915    6812.1625 0.0039768421   0.30069726   0.17974992 
  572000    495.32448    -7309.353   -6606.2492   -1201.5933   -5051.1992    5442.2724 0.0039811293   0.30051445   0.17992456 
  574000    492.41135   -7309.4528   -5251.0265   -1115.0155   -7131.9034    3852.5073 0.0039687431   0.30038802   0.17995318 
  576000    503.97389   -7309.4433   -5934.3945   -1699.2915   -6274.2175    5240.4837 0.0039646553   0.30047568   0.17991105 
  578000    485.22098   -7310.1599   -3434.4998   -2265.3836   -7674.9955     6279.015 0.0039473559   0.30053185   0.17977284 
  580000    493.71964   -7308.4585   -5282.2885   -855.74197   -7170.1468    2947.4292 0.0039337649   0.30052601   0.17987743 
  582000    495.68915   -7310.2855   -6424.0767    65.303817   -3799.8125     3841.788 0.0039188805    0.3003847   0.17984373 
  584000     487.4448   -7310.0221   -3499.5333   -1705.9252   -5275.7162    3854.0263 0.0039095227   0.30047957   0.17975924 
  586000    488.50427   -7309.3125   -4592.6249    961.61408   -6036.4578    5107.2838 0.0038975933   0.30075672   0.17977257 
  588000     536.4156   -7308.7242   -4180.5943   -1741.4543   -4314.7002    3299.0793 0.0038866849    0.3005982    0.1799726 
  590000    509.16978    -7309.969   -4736.6617   -3430.7253   -10108.187    4114.0889 0.0039185872     0.300328   0.17993527 
  592000    458.30001   -7311.3738   -5198.9874   -1238.3422   -5543.4679    1184.5317 0.0039693899    0.3009403   0.18003959 
  594000     462.0004   -7309.2367   -4337.9351   -1582.4443   -8280.6737    5114.9601 0.0039513052   0.30092914   0.18001196 
  596000    511.70546   -7307.8374   -4833.6953    898.77637   -4977.5782    3333.3128 0.0039401588   0.30106339   0.17985507 
  598000    520.52983   -7310.4462   -5527.9389    761.21917   -7514.5089    5734.0441 0.0039296646   0.30095389   0.17973968 
  600000    511.85784   -7308.6693   -6085.8683    -954.5095   -7172.5693    4029.5198 0.0039241717   0.30064769   0.17973452 
  602000    489.43734    -7308.875   -5110.2064   -2497.5166   -8302.3366    4270.9164 0.0039379488   0.30072111   0.17970624 
  604000    484.98211   -7308.6861   -4350.2318   -1487.2946   -2026.8038    4022.0762 0.0039447685   0.30085325   0.17984366 
  606000     496.0368   -7309.4462   -5845.0193    786.18165   -6647.5605    3461.1698 0.0039337947   0.30075574    0.1799725 
  608000    502.95473   -7310.8638   -5300.2222   -980.49369   -7042.6384    979.74988 0.0039220084   0.30085873   0.18003689 
  610000    501.00136   -7308.5392   -6710.6269   -1598.8001   -4242.6725    2702.7253 0.0039042589    0.3008861    0.1798861 
  612000    470.65428   -7307.8607   -7478.6951   -902.83561   -6848.4789     4266.555 0.0038982345   0.30079553   0.17981585 
  614000    491.66493   -7309.6981   -6547.9032   -2097.3437   -5761.7997    4820.1502 0.0039086879   0.30086543   0.17973999 
  616000     521.7368   -7308.7376   -4436.5185    2336.0319    -4355.796    3931.9463 0.0039021687    0.3007663   0.17986358 
  618000    475.76195    -7308.572   -3106.3981   -3890.4877   -8154.2123    7145.6198 0.0039127755   0.30075173   0.17991132 
  620000    539.84177   -7308.9139   -6172.8583     3542.026   -5931.2981    2924.0373 0.0039601243   0.30072274   0.18014236 
  622000    486.97446   -7310.7787   -2885.2769   -3615.0694   -7306.6177     4663.331 0.0039360509   0.30087987   0.18018807 
  624000    501.70583   -7309.5306   -3707.9313    548.90953     -7006.07    2971.4045 0.0039162674   0.30106671   0.18032298 
  626000    552.68079    -7309.557   -4565.6785    160.58424   -7134.2115    3261.6149 0.0039229535   0.30090664   0.18006457 
  628000    493.16485   -7308.0694   -2677.9924   -1484.7411    -5923.212    6539.2677 0.0039011199   0.30089628   0.18000834 
  630000    494.95773    -7308.731   -6647.1682   -4579.7603   -6875.4871    4185.4325 0.0038912553   0.30097307   0.18001719 
  632000    516.80214   -7310.8421   -6745.4713    509.71083   -6352.9625    4168.2302  0.003909065   0.30096836   0.18003772 
  634000    453.81837   -7311.1509   -7015.1753   -1593.5757   -6717.7146    3509.7029 0.0039036139   0.30083129   0.18020364 
  636000    511.46786   -7311.0677   -5118.7344   -777.02478   -8798.3944    1641.8223 0.0038927252   0.30092642   0.18017566 
  638000    504.60243   -7308.7272        -1978   -2513.9532   -5862.8296    362.65606 0.0039573618    0.3010441   0.18001723 
  640000    529.76737   -7309.3907   -5509.2221   -188.45267   -6484.6508    241.30778 0.0039505237   0.30111716   0.17989386 
  642000    507.97017    -7308.198   -928.95486    4537.4679   -7659.4612    4036.9706 0.0039380394   0.30119061   0.17977694 
  644000    512.03083   -7309.6079   -6913.1274    2715.7281   -5550.7208    3873.9983 0.0039412772   0.30119783   0.18005823 
  646000    502.36031   -7309.1744   -4622.5051   -2294.1296   -7414.7807    3632.0079 0.0039385721    0.3012278   0.18023441 
  648000    487.65076   -7309.6043   -4221.9919    3076.8633   -5483.7209    1130.1765 0.0039670507   0.30099342   0.18020253 
  650000    504.96155   -7308.4195   -4630.3299   -205.02479   -7162.2049    4055.3544 0.0039504137   0.30103934   0.18005134 
  652000    469.65845   -7310.2229   -4892.7175   -2326.0171   -6961.9241     3301.295 0.0039733667   0.30098644     0.179929 
  654000    503.63844   -7309.3228   -7002.5272   -2114.6867   -5859.2769    2604.8421 0.0040181482   0.30113399   0.18003326 
  656000    538.68594   -7308.2358   -6088.9421    -1997.585   -3047.2469    4737.6438 0.0040081351   0.30113735   0.18003999 
  658000    528.07368   -7309.1023   -6146.1372   -3505.6384    -5364.249    1042.4062 0.0040029627   0.30088921   0.17999501 
  660000    532.25951   -7310.1928   -5044.5554   -2899.5189   -4273.6277    11087.047   0.00399741   0.30093947   0.17993365 
  662000    490.59599    -7310.536   -6791.9014    1097.2862   -6158.6743    5080.9089 0.0040469954   0.30111159   0.18019989 
  664000    468.93753   -7309.0291   -7603.0976   -27.130619   -7409.5693    1763.1923 0.0040347529   0.30136279   0.18022373 
  666000    501.53518   -7308.0309   -4592.0891    1374.1119   -5286.6673      4452.08 0.0040258152   0.30101047   0.18002486 
  668000    505.65034   -7308.4962    -6839.543   -8.0274342   -9175.9096    5719.3936  0.004017129   0.30105154   0.18011632 
  670000    501.07487   -7309.7402   -5169.8684    78.171259   -9770.9411     4913.421 0.0040230753    0.3014327   0.18034754 
  672000    495.86599   -7310.2485   -6348.6895    2761.6153   -5363.5374    7098.3419 0.0040096519   0.30129839   0.18026709 
  674000    501.85016   -7309.8603   -6392.5253   -250.02865   -5290.1588    4073.4223  0.003992915    0.3010297   0.18027858 
  676000    486.61271   -7310.7472     -5681.58   -893.80034   -7209.1383    7997.1185 0.0040307055   0.30096923   0.18014445 
  678000    512.29213   -7310.5833    -5609.738    232.59568   -7480.6734    4803.6513 0.0040409616   0.30135418   0.18031256 
  680000     477.8356   -7309.3523   -4926.4223   -1851.9499   -5757.2162    3523.0968 0.0040268836   0.30157813   0.18014753 
  682000    494.61242   -7309.0535   -4407.9935   -469.50434   -4948.3147     5415.141 0.0040155764   0.30126513   0.18020488 
  684000    487.78215   -7310.0757   -3308.1833   -2646.5298   -6246.6796     4881.725 0.0040211892    0.3011622   0.18038168 
  686000    466.81384   -7308.8215   -978.22047     1223.005   -5414.8141    5384.5094  0.004017477   0.30148058     0.180322 
  688000    519.03623   -7309.3954   -3326.2474   -437.47192   -5447.1933      5209.56 0.0040232205    0.3014709   0.18029355 
  690000    495.37349   -7310.2293   -3879.6805    633.78971   -6880.7536    3514.2679 0.0040162012    0.3014405   0.18032405 
  692000    511.83458    -7309.506   -4238.8926    1227.5193   -6100.0884    6167.7363 0.0040043759   0.30150457   0.18028815 
  694000    511.12422   -7308.6371   -2057.6641   -1695.1161   -6249.4032    2975.4955 0.0039987979   0.30146752    0.1801794 
  696000    496.13512    -7311.106   -5145.3875   -1147.5043   -4639.1124    5636.0991  0.003993936   0.30162064   0.18003561 
  698000    499.28865   -7308.3629   -4770.5927    1589.9008   -6789.5129    3985.6119  0.003984083   0.30156913   0.18037812 
  700000    482.19643   -7310.4024   -2493.3207   -1301.1197    -5307.864    6335.7737 0.0039698483   0.30161241   0.18047947 
  702000    503.71136   -7308.5292   -3732.9904   -394.86398   -5377.0511     4345.316 0.0039741519   0.30160648   0.18032192 
  704000    506.82524   -7307.3389   -2333.7755   -1286.3813   -5008.0066    4808.8342 0.0039701748   0.30170237   0.18027913 
  706000    504.44512   -7309.4442   -4076.5908    545.20487   -6206.8654    6487.6684 0.0039625045   0.30164265   0.18030239 
  708000    503.19669   -7307.9107   -7051.8124   -1214.8519   -3728.0497    2856.3028 0.0039675527   0.30160973   0.18041566 
  710000    523.05528   -7309.9562   -6050.6522    2869.1132   -4331.0771    4552.3529 0.0039565896   0.30158836   0.18044301 
  712000    476.96388   -7309.2711   -4116.4886   -1975.6588   -8764.9559    6491.8981 0.0039543629   0.30162582   0.18052412 
  714000    516.66005   -7309.6862   -6044.7751   -165.67644   -3102.4008     4458.394 0.0039897975   0.30191163   0.18067524 
  716000     489.5489   -7309.5233   -3670.4985   -1284.1922    -9271.252    5263.3946 0.0039850452   0.30164372   0.18055204 
  718000    498.01228   -7310.5718   -5962.9187   -847.38217   -5532.6736    5653.2776 0.0039710691   0.30157137   0.18045459 
  720000    505.22431   -7309.8668   -3660.7299   -1537.8251   -4307.0725    3883.8098  0.003961693   0.30153854   0.18048101 
  722000    515.35429   -7310.5865   -6080.2996    799.27386   -5822.3933    6220.0197 0.0039521037   0.30156164   0.18036986 
  724000    501.46169   -7311.1892    -4504.627    1174.8978   -7395.7963    2405.1732 0.0039483961   0.30161732   0.18044029 
  726000    483.56063   -7308.6854   -2997.1559   -2679.7316   -5572.0694    5322.6991  0.003955308   0.30152757   0.18050064 
  728000     520.7659   -7308.2807   -4996.9085   -1442.5354   -5066.2232    4158.3261 0.0039634601   0.30153059   0.18047856 
  730000    519.37511    -7309.991   -3272.8404    940.23847    -7615.371    2797.4278 0.0039540634   0.30133139    0.1803752 
  732000    491.06082   -7310.8083   -6984.2799   -630.88915   -7471.6399    6766.3239 0.0039412721   0.30155538   0.18032837 
  734000     506.6736   -7308.4509   -6910.3012     1979.283   -4657.9083    7070.6917 0.0039294524   0.30170174   0.18039967 
  736000    469.66675    -7308.266   -4604.1686   -793.69414   -8276.0077    6757.6628 0.0039197267   0.30146793   0.18046896 
  738000    498.84414   -7310.5869    -4017.161    -1833.426   -6589.6468    7968.0161 0.0039213943    0.3015307   0.18045612 
  740000    496.90749   -7309.7014   -4173.6558   -1495.3927   -8400.4881    6429.5666 0.0039336447   0.30171023   0.18040123 
  742000    480.72326   -7311.5807   -3946.7237    385.99485   -4801.0415     6961.549  0.003932331   0.30183684   0.18044883 
  744000    473.67897   -7312.1543   -6297.0475    463.35943   -7047.2027    7758.3511 0.0039241765   0.30175337   0.18048984 
  746000    499.67635   -7309.8263   -5206.6607    3568.0592   -7258.8635    3347.8871 0.0039487161   0.30159493   0.18061015 
  748000    500.30806    -7310.058   -3656.1214   -2007.0306    -7323.532    4766.3542 0.0039377502     0.301648   0.18047022 
  750000    504.78229   -7309.7294   -5785.0563   -905.19945   -5089.7881    4750.3974 0.0039491702   0.30172466   0.18046336 
  752000    487.79129      -7310.9   -2133.7004   -507.70565   -6136.2869     2856.573 0.0039489054   0.30183551   0.18037681 
  754000    491.72807   -7309.4436    -4595.223   -2566.5138   -5024.4281    5920.6165 0.0039391357   0.30176052   0.18038804 
  756000     463.5146      -7309.5   -4035.2607   -1070.1724   -5097.2837     1606.662 0.0039308917   0.30179583   0.18046989 
  758000    504.88864   -7308.9966   -5858.6419    -2950.066   -6589.1151    1200.9311 0.0039236779   0.30170552    0.1804611 
  760000    506.52829   -7311.4684   -3493.2077   -2434.9977   -5180.9125     3810.987 0.0039138861   0.30167187   0.18043493 
  762000    467.45532   -7309.4893   -5637.9685   -325.05092   -6899.1876     1577.188 0.0039094856   0.30173968   0.18047961 
  764000    486.13449   -7308.4877   -4873.6631     -3771.47   -6582.6278    5413.9706 0.0039117116   0.30177008   0.18043276 
  766000    453.95225   -7308.7503   -5287.4158    1829.6076   -4062.5943    3272.1069  0.003901571   0.30170742   0.18041353 
  768000     508.7059   -7310.0523   -3966.0669   -1279.7339   -2615.5204    6057.1196 0.0038886688   0.30158255   0.18031078 
  770000    524.61183    -7309.706   -4204.1597      -430.73   -3954.3958    5044.9777  0.003874693   0.30161898   0.18019842 
  772000    495.24876   -7311.5828   -3414.7619   -573.86898   -4130.9475    6375.3375 0.0038750721   0.30168444   0.18031944 
  774000    496.12326   -7309.2528   -6294.2117    551.58703   -3854.0474    4159.7221 0.0038819183   0.30162226   0.18038061 
  776000    494.56451   -7309.4028   -3541.4484    2476.0036   -5796.6571     5745.474 0.0038799762   0.30157487   0.18041569 
  778000    487.00362   -7308.3071    -4942.484   -941.36879   -5400.1913    4892.4128 0.0039110059   0.30162472   0.18058107 
  780000    512.83624   -7310.0037    -2620.654     2779.094   -4253.7238    3719.9566 0.0039022772   0.30174356   0.18057378 
  782000    478.62773   -7309.2359   -4258.1543    604.32457   -6479.1791    2520.4494 0.0038964656   0.30163221   0.18053491 
  784000    506.44796   -7309.0149   -5809.3979   -2784.5193   -8552.3497    3420.6589 0.0038849418    0.3015616   0.18037074 
  786000    494.26185   -7309.0307   -3225.5558    2847.5798   -6939.0545    5046.0837 0.0039054373   0.30162398   0.18036102 
  788000    486.42754   -7309.2435   -2714.4068   -2239.4986   -5714.9824    2758.4215  0.003899094   0.30159907   0.18047329 
  790000    478.15962   -7309.9179   -5289.4164   -1350.4811   -7528.8744     2548.982 0.0039021425    0.3018228   0.18068835 
  792000    498.71617   -7309.8822    -5069.906   -2949.1496   -6961.4875     5207.185 0.0039195553   0.30179064   0.18071124 
  794000    486.51125   -7307.3616   -3556.5161   -2555.8257   -8712.9857    5226.5167 0.0039238111   0.30194449   0.18071215 
  796000    488.08243   -7311.3022   -2938.7991   -668.63361   -2396.0971    5059.2078 0.0039148457   0.30207364    0.1807161 
  798000    489.36556   -7309.3081   -2032.4444    40.097758   -6498.4469    5200.8331 0.0039073941   0.30184778    0.1806644 
  800000    539.00159   -7310.3338   -6188.9423   -1511.5316   -5085.8959    5876.1763 0.0038977786   0.30184992   0.18060864 
  802000    497.95557   -7306.4102   -4655.1533   -5094.2937   -5752.5413    4573.0519 0.0039145211   0.30186698   0.18066071 
  804000    499.48363   -7311.1178    -5011.444    463.36408   -5444.0241    2691.6725 0.0039412615   0.30204271   0.18069866 
  806000    471.56667   -7309.4935   -5997.3622   -62.888348   -3016.0857    3899.5397 0.0039356621   0.30206501   0.18081492 
  808000    519.37329   -7310.8243   -2951.6985   -1943.4236   -4791.7923    2191.3193  0.003924398   0.30200285    0.1808233 
  810000    505.22783   -7309.2161   -5788.9207   -1850.2061   -4485.8126    1977.1203 0.0039139628   0.30197558   0.18079495 
  812000    541.28162   -7310.7679   -4356.4748   -3125.4242   -7060.1887    3822.1437   0.00390786    0.3020094   0.18068898 
  814000    503.65147   -7309.2968   -4387.5425   -2827.1107   -7465.3722    5129.2587 0.0039059812   0.30211191   0.18073005 
  816000    456.77422   -7311.8204   -5007.1327   -90.070371   -6433.6832    4875.7808 0.0039121852   0.30191894    0.1808335 
  818000    529.35916   -7309.8523   -5856.1899   -1304.6539   -4835.6171    5108.8479  0.003903817   0.30194871   0.18086636 
  820000    527.79466    -7308.871   -7263.5663   -1784.1395   -6435.7203    4270.3525 0.0038939267   0.30202121   0.18092646 
  822000    524.86955   -7310.2385   -829.95292   -2173.2328   -2308.4325    4088.8287 0.0038832414   0.30214631   0.18086682 
  824000      492.208   -7309.8703     -7136.58    777.79136   -4259.1929    2963.7771 0.0038728969   0.30192229   0.18078623 
  826000    499.02034   -7311.5886   -5066.5339   -568.45794   -5106.8885    5037.9889  0.003871166   0.30179153   0.18084026 
  828000    483.99158   -7310.8081   -4869.8558   -575.28106   -7027.8079    3031.6531 0.0039140948   0.30203331   0.18096534 
  830000    470.05261   -7309.1854   -5292.0983   -1834.2719    -5370.856    4493.2583 0.0039596837   0.30222823   0.18117742 
  832000    504.86232   -7308.1014   -5145.8712    1830.4818   -4585.8403    5234.2725 0.0039597356   0.30227234   0.18120138 
  834000    458.79665    -7307.481   -4482.8028   -2365.2463   -4664.8936    5723.8405 0.0039476335   0.30225502   0.18136313 
  836000    510.17488   -7310.4698   -5066.5372    235.39685   -3593.8223    4529.0618  0.003933678   0.30227365   0.18137493 
  838000     509.7251   -7308.1145   -4159.4128    1916.3497   -6216.7613    6446.8396 0.0039225137    0.3022733   0.18131104 
  840000    520.41317   -7311.0741   -5881.0375   -946.14181   -5937.1951    6240.5349 0.0039095551    0.3022884   0.18121008 
  842000     477.0574   -7307.8011   -5542.5678   -1650.4388   -8695.3633    4205.1251 0.0039042088   0.30223669   0.18126033 
  844000    511.40527   -7307.9875   -6533.6947   -1219.3876   -8122.9757    6078.0015 0.0039045394   0.30226739   0.18137345 
  846000    520.05957   -7309.3057   -3260.6908   -262.53701    -7191.598    7297.1581 0.0039218527   0.30235192   0.18135357 
  848000      509.903   -7307.9343   -742.08923    555.93404   -7557.3932    3896.8004 0.0039103777   0.30246902   0.18133291 
  850000     497.6032   -7311.9999   -5928.9293   -1327.1716   -6557.9509     7038.047 0.0039031325   0.30234292     0.181194 
  852000    536.06257   -7310.3639   -6420.6904   -514.53795   -5154.1362    6367.9099 0.0039023478   0.30227472   0.18125775 
  854000    525.80251   -7312.4994      -5242.8    185.19668   -4908.5874    3755.1038 0.0038938718   0.30214586    0.1812842 
  856000    474.99109   -7310.6831   -3597.1884   -771.12864   -6328.8075    5479.9708 0.0038914008   0.30217247     0.181213 
  858000    493.87793   -7309.6487   -4134.7287   -1757.7183   -4350.3571    1045.3804 0.0039194155   0.30250478   0.18130744 
  860000    477.69397   -7310.2237   -2895.9307    -3046.521   -5503.6225    2052.1985 0.0039181432   0.30243852   0.18131032 
  862000    493.76103   -7308.8143   -2077.5889   -452.16822   -5725.1964     1552.997 0.0039344095   0.30241194   0.18125415 
  864000    500.03819   -7308.2372   -3650.3012    349.14299   -6786.0287    2949.4776 0.0039299343   0.30227379   0.18128391 
  866000    543.19781   -7309.3251   -4868.7896    49.656386   -6988.6338    1002.4098  0.003922541   0.30224886   0.18126449 
  868000    485.19905   -7308.6557   -3190.7773   -751.75926   -3859.9522    3702.7783 0.0039192917    0.3023751   0.18127521 
  870000    471.84905   -7310.0875   -4029.9788   -511.17203   -8018.2122    5049.7702 0.0039231305   0.30219488   0.18127886 
  872000    507.70945   -7307.8507   -2467.2919   -2503.6769   -7746.7797    3230.1589 0.0039367104   0.30219018   0.18128842 
  874000    507.15924   -7309.9164   -3950.9197   -466.85919   -7497.0756    4594.0636 0.0039451809   0.30221096    0.1812142 
  876000     496.8951   -7308.9919    -4144.772   -58.427272   -7490.7629    4405.1652 0.0039331108   0.30219642   0.18120574 
  878000    465.34427    -7310.513    -5506.312    17.759131   -6155.4214    5537.2256 0.0039253982   0.30221601   0.18124455 
  880000    495.68326   -7310.2891   -3296.6043   -1161.9311   -5638.6766    3748.6716 0.0039198531   0.30219399   0.18119982 
  882000      484.477   -7309.1329   -5743.1499   -943.40057   -5507.9171    6070.0125 0.0039145954   0.30212105   0.18111483 
  884000     528.3328   -7309.8381   -5279.8893    1093.1882   -6124.8947    2957.7415  0.003916813   0.30208941   0.18111125 
  886000    444.30589   -7309.4592   -4406.5224     1959.045   -3470.6255    2949.8643 0.0039043391   0.30212835   0.18116364 
  888000    473.96937   -7310.7475    -4493.391   -2673.2032   -4033.5129    6880.2124 0.0038997152   0.30200198   0.18128359 
  890000    494.71635   -7308.4212   -4426.8431    248.84696   -8070.7685    3823.7502 0.0039178095   0.30205165   0.18136104 
  892000    488.63803   -7309.8685    -3860.716    1323.0926   -3394.2944    4202.9749 0.0039201291   0.30208443   0.18120145 
  894000    492.91866   -7310.7432   -4122.9157   -688.74077   -7087.3006    4173.5053 0.0039075769   0.30202402   0.18113266 
  896000    483.17087   -7309.5039   -5122.9836   -1700.3717   -7097.9676    6192.4984 0.0039121992   0.30191553   0.18116564 
  898000    482.13458   -7308.4902   -5916.0463   -2142.8182   -7098.0975    6374.6319 0.0039181398   0.30204365   0.18125661 
  900000    514.58265   -7308.9849   -6051.5903    171.12743   -6445.2563    5502.1557 0.0039120152   0.30218368   0.18139125 
  902000    494.76289   -7308.6918   -3891.9527   -262.52428   -4299.3417    2102.5974 0.0039076963   0.30224529   0.18137638 
  904000    525.59078   -7311.4738   -3311.8647   -1628.4608   -3449.4586    2682.1107 0.0039193555   0.30220017   0.18124585 
  906000    493.27302   -7309.3667   -6076.1253     2283.313   -5023.0261     5057.779 0.0039117569   0.30221432   0.18117028 
  908000    515.31782   -7311.9152   -5506.5425   -530.98881   -3011.3377     3455.849 0.0039027455   0.30214386   0.18117792 
  910000    535.45328   -7309.3619   -6199.0073   -908.31016   -4308.7684    4476.8597 0.0038959057   0.30213706   0.18127623 
  912000     524.4107   -7309.8206   -5940.4569    590.99296   -3970.7859    5808.3282   0.00388904   0.30218512   0.18116385 
  914000    525.35578   -7308.6133   -3625.9287   -3529.5877   -5943.3384    2823.6477 0.0038808905   0.30209337   0.18131724 
  916000    517.17997   -7311.7604    -2416.471   -3446.5133   -5314.9276    4556.3766 0.0039095275    0.3023352   0.18127395 
  918000    487.14591   -7309.6122   -3722.6649    1273.4827   -3769.6865    4259.9722 0.0039149477   0.30229417   0.18134404 
  920000    508.34089   -7309.5391   -6306.4372   -2417.8784   -7227.7103    6633.6016 0.0039135053   0.30233133   0.18125679 
  922000    507.15655    -7309.172   -3427.7897   -830.59623   -7095.7192    7863.0464 0.0039260915   0.30246636   0.18132917 
  924000    507.90488    -7310.116   -5278.0231   -2331.9339   -7644.2676    2528.2897 0.0039356427   0.30237065   0.18132442 
  926000    537.79954   -7308.6094   -4278.0602   -1067.6048   -7800.2043    6734.8482 0.0039306825   0.30227972   0.18130647 
  928000      509.512   -7310.1607   -5077.8501    -207.2403   -4976.8278      4855.19 0.0039226579   0.30222977   0.18131415 
  930000    517.65739   -7310.5041   -6236.8478   -2033.4472   -6312.9885    4421.4526 0.0039194554   0.30238712   0.18123169 
  932000    477.02167    -7310.925   -4631.7841    740.26158   -4594.9743    7616.6216 0.0039292502   0.30241629   0.18128554 
  934000    482.50453   -7309.1433   -5187.0327   -1821.3503   -5136.9616    107.22436 0.0039141458   0.30237811   0.18126655 
  936000     477.3205   -7306.7153   -4732.3361    1974.7111   -4320.4272    5942.1542 0.0039014455   0.30235137   0.18123823 
  938000    483.80915   -7310.9076   -7080.2436    551.04531    -7685.549    3453.9327 0.0038926271   0.30223687   0.18125711 
  940000    556.30613    -7308.834   -3123.1675    111.68675   -4212.6946     3898.423 0.0039083475   0.30225412   0.18121262 
  942000    456.49465   -7309.1802   -3781.0673    2528.7562   -3634.6815    4252.1569 0.0039046202   0.30228652   0.18120457 
  944000    535.23591   -7308.1679   -4111.5957   -280.45713   -9324.1553    5206.9542 0.0038969696   0.30233895   0.18113347 
  946000    482.04322   -7310.6073   -4025.5289    328.84921   -6804.2564    2453.4508 0.0038901753   0.30237234   0.18112792 
  948000     490.7353   -7309.9262   -5503.5646   -1318.2585    -6426.376    3472.7238 0.0038818905   0.30243213   0.18116136 
  950000    497.29272     -7310.81   -6115.7565   -2532.3394   -5456.5725    4313.8551 0.0038778317   0.30239202   0.18111453 
  952000    503.96102   -7310.1328   -7295.1536     1901.463   -5547.1481     2822.034 0.0038780922   0.30223268   0.18114173 
  954000    480.51165   -7309.5139   -8018.5755    -175.9656   -6674.2529    2348.9568 0.0038689982   0.30221199    0.1811824 
  956000    528.74127   -7308.6128   -5599.8291   -99.627388   -5929.6146    5774.1237 0.0038614808   0.30238633   0.18112723 
  958000       478.74   -7307.3497   -3145.1985    -3689.695   -4489.7993    4412.2892 0.0038761737   0.30240621   0.18102868 
  960000    509.31957   -7311.1938   -4134.1565   -50.129363   -6142.2552    5785.0682 0.0038849045   0.30223297   0.18099274 
  962000    488.88679   -7308.1017   -4646.1557    1088.4068   -5511.4239    6677.3791 0.0038901364   0.30245595   0.18096019 
  964000    525.02965   -7310.2033   -4193.6755   -990.17463   -4465.3416    5707.9465 0.0038767647    0.3025666   0.18109067 
  966000    529.14119   -7311.3413   -2416.6208   -814.19213   -7244.2213    2942.5709 0.0038736485   0.30240527   0.18105314 
  968000    516.66867   -7310.8206   -4747.4976   -709.64131    -8239.806    3379.9972 0.0038668648   0.30242315   0.18104956 
  970000    508.72657   -7309.8276   -3936.0476   -2508.5022   -6919.6749    4713.0689 0.0038592741    0.3023759   0.18105879 
  972000    499.85436   -7309.5678   -1690.0204   -4859.8622   -7935.6366    2690.3978  0.003856853   0.30236351   0.18101894 
  974000    507.97169   -7309.2187   -4735.5494   -2791.2747   -10672.865    3260.5449 0.0038630499   0.30226687   0.18089948 
  976000    512.24168   -7307.9431   -4135.7593     841.5996   -10264.525     5415.986 0.0038620599   0.30241099   0.18093651 
  978000    484.47589   -7310.4656   -7482.6675   -1210.0453   -8792.1465      4786.37 0.0038665256   0.30253084   0.18103415 
  980000    482.74577   -7309.8631   -4951.0927    1485.8441   -5034.2773    4618.6263 0.0038411039   0.30242791   0.18109737 
  982000    487.01413   -7309.2059   -3257.9714   -1486.2793   -6378.6191    3599.7764 0.0038374474   0.30233792   0.18105592 
  984000    503.09078   -7311.1274   -5750.2343    982.60966   -6522.2703    3779.5365 0.0038399589   0.30251899   0.18093692 
  986000    535.21727   -7309.4731   -4098.4126    3386.1552    -2943.186    5614.9467 0.0038322568    0.3024298   0.18096074 
  988000    497.87421   -7307.8577    -5964.349   -2745.5721   -7733.0184    8487.0869 0.0038261652    0.3025413   0.18103093 
  990000    486.55846   -7310.6479   -3637.3555     1013.093   -4687.2589    4449.5519 0.0038518354   0.30267271   0.18111295 
  992000    495.12216    -7307.399   -3842.3153   -1229.3496   -5060.4316    6850.5925 0.0038708677    0.3025358   0.18109348 
  994000    504.33811   -7309.6511   -1407.7472    685.18024   -6313.9925    5464.0906 0.0038637031   0.30260627   0.18112513 
  996000    506.37347   -7308.1104   -3311.1746   -1616.3091   -4586.7915    5534.0271 0.0038589299   0.30258309   0.18109197 
  998000    513.39185   -7309.5365   -459.50208   -380.66112   -6337.3206    7423.7456 0.0038574861   0.30253029   0.18107719 
 1000000    474.34697   -7307.8575   -1769.6018   -809.01013   -5426.0454     4951.573 0.0038533081   0.30250371   0.18107966 
 1002000    464.70983   -7312.0038    -2332.705   -253.66388   -6505.4686    5095.7615  0.003843903   0.30246168   0.18113326 
 1004000     470.2853   -7308.8509   -2997.4918   -1479.4866   -7630.9776    5987.0108 0.0038627963   0.30264725   0.18112788 
 1006000    505.09235   -7308.6566   -1944.7307    -1656.823    -4316.903    6612.0921 0.0039200614   0.30266713    0.1811722 
 1008000    489.47714   -7309.7972   -4281.4484    2106.5972   -7616.9001    2980.7844 0.0039108808    0.3026463   0.18116133 
 1010000    517.70085   -7308.7295   -3664.9793    2450.6692   -7116.3905    6248.9899 0.0039035765   0.30266392   0.18116771 
 1012000    513.47473   -7308.9781   -6356.8912   -1275.0696   -6699.9321    4620.1564 0.0038983779   0.30281795   0.18111676 
 1014000    513.50816   -7310.2019   -3366.1329   -1172.0086    -4208.258    6760.1772 0.0038946915   0.30283162   0.18103224 
 1016000    508.48699   -7310.6778   -6097.6252    458.14426    -4216.158     6482.401 0.0038958719   0.30260231   0.18114222 
 1018000    480.36327   -7308.3698   -2475.1669   -2553.7575    -6483.594    3846.3341 0.0038965789   0.30268821   0.18120202 
 1020000    483.08656    -7308.974   -5951.6924   -723.85356   -4184.7575    2834.6364 0.0038939897   0.30290328   0.18116421 
 1022000    523.76806   -7308.7609    -3776.026    14.320689   -6775.7899    5180.4889 0.0038899646   0.30281948   0.18118257 
 1024000    508.60855   -7309.5654   -3638.5564   -2424.1004   -4069.8127    2203.1479 0.0038795429   0.30285605   0.18116222 
 1026000    497.27036   -7309.4805   -5446.6368    773.60574   -8082.8618    4616.0475 0.0038771035   0.30278841   0.18109953 
 1028000    504.24309   -7310.2572   -6031.9468   -1527.3454   -4778.5678     5184.927 0.0038778537   0.30283772   0.18115243 
 1030000    498.85274   -7310.2356   -7500.1682    757.94974   -6156.3038     3965.845 0.0038747134   0.30283851   0.18116046 
 1032000    527.32593   -7309.0818   -5296.7011   -228.31925   -9694.1086    7451.0013  0.003869128   0.30272692   0.18124074 
 1034000    466.57803    -7306.368    -5860.993   -1163.8354    -4595.644    3065.6231 0.0038628209   0.30286287   0.18122639 
 1036000    470.23264   -7307.4811   -4055.4592   -1213.9562   -5691.8792    7382.1906  0.003856578   0.30283303    0.1812324 
 1038000    493.40565   -7310.2858   -5853.4021    -539.0216   -5283.0579    5418.1405 0.0038529393   0.30289483   0.18109915 
 1040000    490.45476   -7311.5281   -2539.7134   -3180.9384   -4854.6154    5207.0372 0.0038481999   0.30289655   0.18113546 
 1042000     513.4265   -7309.8753     -4978.59   -815.99349   -5595.5425    5252.5562 0.0038577132     0.302779   0.18110514 
 1044000    497.58576   -7310.3045   -3435.9037    24.474258   -4964.4466    6765.6905 0.0038558451   0.30292143   0.18124617 
 1046000    502.34443    -7308.171   -4936.3718   -1427.1125   -5226.0532    4745.2795 0.0038553196   0.30294192   0.18132125 
 1048000    511.21909   -7309.0711   -1772.2445   -37.965614   -6004.2097    3530.9285 0.0038580011   0.30282836   0.18135134 
 1050000    535.81376   -7308.4084   -4662.5958   -870.05446   -8280.2353     3749.255 0.0038555998   0.30284104   0.18131246 
 1052000    501.75435    -7311.905   -3008.3962    1968.2386   -5778.7736    3509.6012 0.0038537062   0.30285141   0.18130144 
 1054000    501.60825   -7310.4295   -3682.9059   -5213.1762   -9249.3806    5452.3112 0.0038501802   0.30291542   0.18130724 
 1056000    459.82139   -7309.4234   -4437.3426    1339.0039   -7182.9869     3909.433  0.003861909   0.30283277   0.18140869 
 1058000     514.1757    -7309.043   -3583.8408     -1607.94   -6717.6973    6670.5541 0.0038748442   0.30283676   0.18133514 
 1060000    505.45921   -7310.5884    -2391.781    925.55461   -4798.0211    6109.4229 0.0038683802   0.30272578   0.18136084 
 1062000    476.76433   -7311.3754   -5190.6964   -2689.7249   -6935.4556    4501.1475 0.0038700898   0.30273665   0.18131399 
 1064000    481.47854   -7309.8333   -6214.9552      674.087   -5373.1662    6785.8393 0.0038948938    0.3027894   0.18121229 
 1066000    505.26492   -7310.2875   -3391.2976    918.11875     -3865.06    2554.9393 0.0038837903   0.30287489    0.1812321 
 1068000    472.02771   -7307.7329   -8558.4902    102.29259   -3513.3833    5637.4312 0.0038771381   0.30276471    0.1811995 
 1070000     481.7679   -7312.1959   -3368.0013   -368.63613   -4958.6637    1246.2285 0.0038705132   0.30276866    0.1812598 
 1072000    464.87111   -7308.0743   -5639.2792     167.2602   -6868.1835    5675.6973 0.0038655125   0.30267345   0.18121807 
 1074000    489.16562   -7309.7977   -5561.5311   -730.18279   -5749.4783    2245.4758 0.0038549315   0.30273242   0.18124851 
 1076000    512.38227   -7307.9724   -3169.0287    857.78182   -3265.7249    4524.9899 0.0038458198   0.30270119   0.18121509 
 1078000    492.86544    -7309.872   -3434.3825   -418.21874   -8535.4494    4277.6118 0.0038557772   0.30267958    0.1812607 
 1080000     510.1035   -7307.4329   -4356.8583    -563.0465   -5495.2858    5763.4639 0.0038661348   0.30283127   0.18126895 
 1082000    488.23194   -7310.4182   -3884.1127    1035.0874   -5860.9154    3897.3025 0.0038717359   0.30278087   0.18131623 
 1084000    534.61955   -7307.0448    -5362.539    1877.4816   -2993.8359    1710.1087 0.0038709696   0.30278058   0.18126415 
 1086000    491.96629   -7309.7657   -6383.2354    1590.3387   -6240.3845     8551.406 0.0038642051   0.30272573   0.18125533 
 1088000    503.50533   -7310.8653   -6163.9648    3607.9374   -6661.7116    2979.1165 0.0038586702   0.30270738   0.18130649 
 1090000    507.34163   -7309.1977   -4124.6718    -706.9265   -4629.3341    6893.5201 0.0038535992   0.30272706   0.18122874 
 1092000    490.67919   -7309.9257   -5402.9593    687.86005   -6472.2372    5520.5608 0.0038518679   0.30260874   0.18125026 
 1094000    513.96326   -7310.3997   -6819.4653    132.86661   -3894.8036    6968.9834 0.0038546121    0.3028048   0.18121604 
 1096000     487.4357   -7308.7037   -6865.5655   -955.00421   -7614.6283    3532.9147 0.0038569302    0.3028462   0.18122182 
 1098000    494.55339    -7310.914   -6131.5994    1383.5679   -5911.9227    3618.0526 0.0038688685   0.30278041   0.18121266 
 1100000    514.99668    -7310.202   -3811.6801   -804.80179   -4797.2502    4118.8529 0.0038579338   0.30280018   0.18116024 
 1102000    482.81551   -7308.9065   -3622.9736    1013.9183   -5180.8878    2649.4003 0.0038485688   0.30277347   0.18111438 
 1104000    482.84332   -7309.6757   -4640.4555    4.7934167   -7051.9359    3906.7909 0.0038405548   0.30272029   0.18115356 
 1106000    477.98134    -7309.288   -5399.1827     1221.779    -4964.116    3630.3636 0.0038335347   0.30271712   0.18124832 
 1108000    508.14892   -7310.2755   -3895.1007    1254.7485   -7600.1369    5098.6892 0.0038264681   0.30278722   0.18119051 
 1110000    485.92464   -7310.1603   -4403.9308    6.8653954    -8212.333     6314.111 0.0038361331   0.30279465   0.18124442 
 1112000    496.28433   -7307.9266   -5542.1535   -685.30949    -6443.187    4896.4367 0.0038479638   0.30284723   0.18121854 
 1114000    512.26535   -7306.5403   -4021.9535   -1875.6751     -7423.97    6919.3309 0.0038626675   0.30279532   0.18123752 
 1116000    499.48004   -7309.1996   -3059.4505   -192.92612   -6960.4696    3937.1268 0.0038539869   0.30286006   0.18129964 
 1118000    500.56229   -7309.0577   -5116.1355    906.22209   -3696.8154     5126.675 0.0038591253   0.30301557   0.18127994 
 1120000    502.64449   -7308.1874   -586.25808    -2043.596   -6185.1614    5008.6831 0.0038535618   0.30286227   0.18129668 
 1122000    513.28967    -7308.615   -5897.0888    2120.0275   -4752.0224    1086.0831 0.0038476641   0.30283329    0.1812306 
 1124000    483.96201     -7309.18   -5160.5621   -51.964587   -5361.9618    5331.8133 0.0038504523    0.3028642   0.18124695 
 1126000    502.08008   -7310.2945   -3049.5315   -463.10115   -4599.5599    3925.8458  0.003846501   0.30280488   0.18120344 
 1128000    520.82329   -7309.4327   -4827.2768    66.300218   -4023.0462    1833.1438 0.0038597197   0.30271944   0.18121841 
 1130000    509.03476   -7309.4021   -2595.5074   -1955.3419   -5601.0382     2785.258 0.0038770602    0.3028357   0.18120806 
 1132000    509.12024   -7310.3725   -4231.2319    2927.2661   -5288.6674    4866.3403 0.0038700143   0.30281137    0.1813046 
 1134000    504.46593   -7311.0727   -2160.9479   -89.857453   -5929.0727    4025.8657 0.0038642569   0.30278211   0.18139507 
 1136000    511.39932   -7310.3707   -495.19737   -1031.2592   -8254.5355    3917.8762 0.0038587674   0.30280812    0.1813639 
 1138000    481.56211   -7309.1678   -864.17102    382.69468   -4757.9646    3399.2335 0.0038575456   0.30275544   0.18130705 
 1140000    504.67043   -7309.2479   -829.39028   -1073.9437   -8983.1836     4836.227  0.003852163   0.30271029   0.18123803 
 1142000    521.56856   -7307.2772   -3101.7884    485.21749   -6437.1119    8128.7336 0.0038448046   0.30280948   0.18123466 
 1144000    498.33389   -7310.5738   -2375.8215   -2488.2991   -8249.7764    6591.5057 0.0038449006   0.30279022   0.18137995 
 1146000     481.6239   -7309.2646   -3060.7137   -2211.2364   -9111.4869    1736.3854 0.0038618425   0.30284057   0.18143963 
 1148000    499.19622   -7310.9251   -2228.6162   -3256.5015   -6035.6707    4485.0829 0.0038831295   0.30284164   0.18140528 
 1150000    520.74469   -7312.6863    -6647.206   -2220.4518   -7259.5139    4172.6173 0.0038936882    0.3028019   0.18135424 
 1152000    511.99681   -7308.2316   -4768.2374    3223.2198   -6410.9872    5091.6161 0.0038875622   0.30287385    0.1813797 
 1154000    489.53094   -7310.1857   -4655.1938    1076.5943   -6464.4721    2353.5598 0.0038808099   0.30279442   0.18139339 
 1156000    482.29666   -7309.9927   -5327.0881   -3148.2559   -4291.3408    4482.2637 0.0038763927   0.30287145   0.18129705 
 1158000    511.29618   -7312.2258   -3458.0466    1607.0892     -6324.44    6009.2834 0.0039101059    0.3028457   0.18139479 
 1160000    513.06479   -7310.0636   -4134.7034    4158.3167   -4726.2969    5147.7852 0.0039082225   0.30283659   0.18135748 
 1162000     541.9374   -7309.0485   -3476.3329    144.27188   -7585.9224    7603.2421 0.0038984178   0.30276895     0.181505 
 1164000    474.72507   -7308.5906    -1323.302    938.30762   -6722.9422    3469.5248  0.003893873   0.30278981   0.18154016 
 1166000    488.38428   -7310.4087    -3078.631    315.73001   -5996.6174      3512.17 0.0038875854    0.3027451    0.1814119 
 1168000    506.15013   -7311.1283   -4202.7255    -355.7379   -8643.5968    5777.0363 0.0038805764    0.3028294   0.18133795 
 1170000    502.40252    -7311.129   -5220.2855    758.91499   -4278.0096    5475.0717 0.0038751952   0.30283923   0.18132152 
 1172000    491.89204   -7309.6357    -4008.799   -4242.5777   -5793.3788    3564.2258 0.0038736073   0.30283279   0.18134687 
 1174000    499.31737   -7308.9274   -4589.0186   -2106.9033   -5962.8197    4112.7256 0.0039106631   0.30293961   0.18144526 
 1176000    521.81477   -7307.7408   -2798.0602   -3.5512585   -6398.1336    4224.7848 0.0039345872    0.3029078   0.18149698 
 1178000    475.27721   -7309.1332   -5555.9047    1558.7653   -2076.0112    2610.0994 0.0039260511   0.30300797   0.18141616 
 1180000    529.01198   -7308.7555   -3306.3876    -201.1461   -5776.6376    5348.1391   0.00392066   0.30290308   0.18140387 
 1182000    513.78974   -7310.4003   -4272.7999      295.353   -5762.6279    7336.6316 0.0039149017    0.3028989   0.18140578 
 1184000    517.98561   -7309.8083   -5213.1062    227.71984   -4434.8621     8546.749 0.0039093973   0.30288872    0.1814108 
 1186000    524.87239   -7310.4265    -2716.325   -2835.0291    -5401.811    8399.6097  0.003913656   0.30285422   0.18133262 
 1188000    535.09933   -7308.8131   -5062.3127   -420.77738   -6387.3476    6373.2049 0.0039188742   0.30295461   0.18135452 
 1190000    530.96105   -7307.6843    -2653.519   -1361.3053   -5346.1615    6699.8375 0.0039119705   0.30286398    0.1813907 
 1192000    487.12074   -7309.9767   -5226.9707   -1393.1072   -7764.1347    5902.6505 0.0039011813   0.30282398   0.18141629 
 1194000    512.77351   -7309.6134   -1681.2184   -2154.3926   -9103.8439    3955.6323 0.0039014548   0.30278742   0.18135779 
 1196000    523.80218   -7308.6114   -2634.5338    -3843.716   -7862.8498    7062.3075 0.0038974086   0.30286299    0.1813005 
 1198000    512.30422   -7307.9237   -3474.1952   -1065.6949   -8224.9878    5723.5185 0.0039005461    0.3028482   0.18124175 
 1200000    507.80073   -7310.2574   -7476.3609    -2772.184   -8613.6729    7163.8165 0.0038926808   0.30286216   0.18119057 
 1202000    526.05502    -7310.588   -3280.1149   -293.14608   -6434.2847    6199.4208 0.0038973171   0.30290273   0.18143549 
 1204000    523.79082   -7310.8039   -5670.2974   -1603.0284   -7538.9634    5397.1995 0.0039218155   0.30283107      0.18146 
 1206000    495.67142    -7310.145    -4540.146   -1185.2757    -7382.633    3652.4551 0.0039062021   0.30283069    0.1813901 
 1208000    490.05919   -7310.7583    -4890.753    1961.5895   -6951.0849    4094.4096 0.0039017499   0.30291224   0.18129886 
 1210000    541.32581   -7307.0526   -2083.5726   -2211.3795   -8071.4061    5345.0162 0.0038968213   0.30284092   0.18131118 
 1212000    532.65503   -7308.9495   -3340.4218    300.98663   -6866.2585    5633.5173 0.0038915434    0.3027918   0.18128569 
 1214000    518.44877   -7309.1716   -3218.3661   -1295.7888   -8151.3331    2302.0798 0.0038867951    0.3028089   0.18130005 
 1216000    509.11087   -7309.8662   -1707.0153   -1682.8387    -7075.303     4616.759  0.003885205   0.30282826   0.18127942 
 1218000    467.84941   -7309.7394     -4410.11    209.84137   -3986.7187    1707.7945 0.0038967728   0.30287974   0.18131447 
 1220000    478.99687   -7309.1972   -941.55972    292.79707   -6890.0744    3047.4746 0.0038923779   0.30282506   0.18126534 
 1222000      513.726   -7308.3709   -5562.8905    1378.9939   -6310.4811    3592.9469  0.003886469   0.30280674   0.18129482 
 1224000    496.57362   -7308.8412   -3259.7642   -2127.3443   -6790.6786    6295.6934 0.0038812369   0.30284111   0.18120718 
 1226000    481.63112    -7309.241   -5075.4828    3129.5488   -4550.8875    6698.3312 0.0038739836   0.30284273   0.18127589 
 1228000    500.96054   -7308.8952   -4620.8226    3061.6708    -5636.462    4829.1042 0.0038673863   0.30273153   0.18135684 
 1230000    496.42246   -7309.3657   -4759.2539   -399.82713    -5658.936     4864.345 0.0038596572   0.30283295   0.18130621 
 1232000    491.30137   -7310.3328   -6038.1391    1373.4186     -5370.24    5732.0609 0.0038810051   0.30295183   0.18133131 
 1234000    476.69316     -7309.17    -4162.265    79.080906   -5850.3511    6828.4941 0.0038864602   0.30294399   0.18134164 
 1236000    498.65636   -7309.0115   -4580.2493    3346.4896   -3141.0458    7429.7529 0.0038958818   0.30294246   0.18123525 
 1238000    509.82605   -7307.8156   -3923.4343    1281.4329   -5505.1242    4405.4377 0.0038880744    0.3028408   0.18129835 
 1240000    525.00099   -7310.2202   -3835.9753    1141.7862   -7260.7075    7039.2578 0.0038810961   0.30288755   0.18130151 
 1242000    500.89378   -7310.1392   -2674.5152    2236.7052   -3302.9648    4895.2133 0.0038748932   0.30288998   0.18133005 
 1244000    521.01256   -7311.3062   -2022.4328    433.03989   -5874.5199    4447.6304 0.0038680953   0.30269716   0.18126651 
 1246000    496.88582    -7308.635   -1586.3594    2133.7781   -6467.2129    4537.1749 0.0038635523   0.30280204   0.18129965 
 1248000    499.17694   -7310.0027    -5295.395    97.433213   -5238.5875    2955.2545 0.0038548759   0.30278039   0.18129757 
 1250000    491.02852   -7310.4777   -4749.1938    1421.5854     -6452.53    3189.2932 0.0038475226   0.30276271   0.18124882 
 1252000    501.04865   -7310.8808   -3096.4084   -1743.2486   -6312.9928    6832.8718 0.0038515692   0.30265785   0.18123439 
 1254000    466.49693   -7311.1869   -6018.0624   -70.573626   -4502.2943    2821.6417 0.0038467248   0.30266122   0.18128762 
 1256000    494.46101   -7311.8057   -3571.9356   -1282.2733    -5388.445     4069.951 0.0038431041   0.30272413   0.18130438 
 1258000    460.26037   -7310.3039   -5573.4717   -3338.1382   -5047.3382    3274.8031 0.0038471996   0.30274137   0.18133545 
 1260000    522.27416   -7309.8672   -4160.0506     1995.583   -3704.8655    5962.3858 0.0038477017   0.30270987    0.1812614 
 1262000    507.32785   -7309.5711   -2274.3687   -1934.7327   -5466.8964    3640.8179 0.0038394377   0.30265177   0.18129165 
 1264000    472.37528   -7309.8386   -5082.8092    2272.0848   -2904.8247    4526.3254 0.0038336937   0.30270132   0.18126395 
 1266000    527.83861   -7309.2709   -2933.0464   -875.35234   -4335.2998    5605.4146 0.0038268238   0.30267244   0.18125374 
 1268000    461.28581     -7308.85   -4026.7666   -2719.3878    -7083.991    4395.8672 0.0038451694   0.30268318   0.18126885 
 1270000    531.47445   -7310.0469   -4895.6248    1650.1906   -6127.6128    4956.6308 0.0038793025   0.30275559   0.18134531 
 1272000    466.91423   -7309.0393    -4902.566   -640.58744   -5144.2209    488.09262 0.0038734563    0.3027559    0.1813335 
 1274000    510.47757   -7308.6585   -4631.4669   -411.07446   -5693.4772     5363.024 0.0038683608   0.30268257   0.18125231 
 1276000    463.66812   -7309.0971    -2257.716    2573.7622   -5626.0018    3346.6939 0.0038647541   0.30277905   0.18123442 
 1278000    479.23629   -7310.6561   -6920.4746    1496.8328   -4510.7944    6632.0888  0.003857267   0.30270401   0.18127802 
 1280000    528.51001   -7309.7806   -3529.3912   -1935.5447   -8800.4621    6388.7281 0.0038520781   0.30258077   0.18126874 
 1282000    502.40352   -7308.7489   -3246.0811    746.68382    -4628.844    5620.0159 0.0038472898   0.30266744   0.18129282 
 1284000    480.06289   -7308.6431   -4320.7039     183.1125   -10078.976     2286.727 0.0038560482   0.30269742   0.18124798 
 1286000    509.63252   -7308.9856   -4199.2093    378.01002   -3019.6408    5200.1132 0.0038729278   0.30266866   0.18122424 
 1288000    452.86352   -7309.3794   -4375.8695     1910.389   -7284.5356    3148.0566 0.0038720872   0.30260948   0.18123995 
 1290000    476.71964   -7311.1476   -2712.3786    -754.5217   -4677.2294    4702.0207 0.0038669623   0.30269894      0.18122 
 1292000    485.37318   -7308.2924   -2967.8284    1638.9185   -3329.0447    7160.8749 0.0038605755   0.30271873   0.18130358 
 1294000    490.30196   -7309.0731   -4359.8247    204.21489   -7023.3034    4820.3226 0.0038544602   0.30268361   0.18129735 
 1296000    525.04103   -7309.6285   -1835.9367    469.23675   -4877.5688    5991.2537 0.0038573291   0.30266329   0.18133142 
 1298000    509.87957    -7309.725   -4927.5236    689.32034   -5335.6907    5263.6049 0.0038585429   0.30271696   0.18134249 
 1300000    507.11422   -7309.4062   -2071.4523    2876.7616   -4626.5674     4776.529 0.0038534069   0.30266786   0.18131659 
 1302000    486.01134   -7309.3498   -3532.7559    -1843.422   -7326.2797    4011.0658 0.0038477491   0.30263568   0.18131024 
 1304000    499.00572   -7308.5437   -6264.4979   -2490.8532   -6729.4182    4704.9357 0.0038813187   0.30271871   0.18137503 
 1306000    489.44214   -7311.0532   -1895.1633   -3286.8258   -7635.7052    3740.2888 0.0039146593    0.3026776   0.18139563 
 1308000    520.38414   -7309.3808   -3816.7524    1358.2157    -3731.487    4142.9985 0.0039187942    0.3025841   0.18138137 
 1310000     474.1924   -7312.0145   -4352.7835    2280.3254   -6444.5007    4808.5257 0.0039126769   0.30252436   0.18134672 
 1312000    509.57942   -7310.2802   -2673.9945   -985.53419   -3266.4257    3534.7662 0.0039049485   0.30238822   0.18139269 
 1314000    455.46624   -7310.1864   -5357.4491   -942.37398   -4917.7854     7368.532  0.003902382   0.30238053    0.1814304 
 1316000    471.82346   -7308.5404   -555.31883   -1242.6015   -4762.1826    4271.2127 0.0039032284    0.3023366   0.18143835 
 1318000    515.26174   -7309.9497   -3195.7927    -2418.949   -5805.3094    4541.7874 0.0038918716   0.30226776   0.18147041 
 1320000    468.99561   -7310.3515   -2535.1097   -2780.3958   -6512.3353    7770.2687 0.0039404343   0.30237065   0.18145833 
 1322000     503.9705   -7308.9446   -1058.0606   -1441.1808   -5175.8856    4505.5137 0.0039632582   0.30236076   0.18157123 
 1324000    508.85424   -7309.9541   -1876.8425    -538.3652   -6664.9177    1561.9177 0.0039690129   0.30229545   0.18155286 
 1326000    505.96768    -7309.845   -2909.9716   -404.14367   -4188.0223    4175.3412 0.0039645049   0.30219795   0.18157079 
 1328000    518.59118   -7309.5713   -1006.7829   -2073.3598   -4223.0009    2217.7298 0.0039640381   0.30209235   0.18161887 
 1330000    501.33863   -7311.0726   -2318.5033   -162.57061   -6796.0427    5315.8855 0.0039596497   0.30202349   0.18159135 
 1332000    496.13079   -7309.7645    -566.3441   -1423.6268    -7076.497    5103.0633 0.0039612507   0.30203183   0.18163053 
 1334000    508.02361   -7309.7809   -3710.8387   -3116.4036   -4743.3202    4166.8975 0.0039638433   0.30192432   0.18158908 
 1336000    497.12402   -7309.2459   -1778.4045   -79.110769   -6858.3292    5376.8031  0.003982244   0.30195018    0.1816765 
 1338000    498.55802   -7309.4647    -3471.747   -1250.7684   -6267.7183    1062.7795 0.0039811798   0.30195834   0.18166163 
 1340000    513.54995   -7310.5653   -1085.6534   -589.44056   -7074.1639    2948.4657 0.0039733205   0.30182329   0.18161932 
 1342000    489.98882   -7307.8338   -2252.1234   -1223.1975   -7396.4432    3899.6663 0.0039683058   0.30173955   0.18159928 
 1344000    475.76936   -7308.5081   -4762.8644    1004.9899   -3426.4361    6014.6571 0.0039705421    0.3017651   0.18159549 
 1346000    486.97813   -7309.0167   -3149.1881    2426.2265   -6528.0561    4562.9365 0.0039773244   0.30167179   0.18170257 
 1348000     513.8932   -7310.2374   -3656.1311   -1378.7857   -4212.0781    6463.5475 0.0039960134   0.30158202   0.18159866 
 1350000     512.7042    -7309.265   -7429.7801    2664.3973   -5574.6475    6016.2245 0.0040118656   0.30157573   0.18162467 
 1352000    497.33841    -7309.504   -7871.8872    846.10983   -5951.9873    2162.7064 0.0040223425   0.30151295   0.18176499 
 1354000    476.41007   -7310.2918    -4631.552    1178.3672   -3568.4281    4496.9631  0.004017139   0.30153027   0.18176816 
 1356000    509.71077    -7309.761   -5056.6611    970.10349   -5878.0063    3332.0866 0.0040122864   0.30138706   0.18165011 
 1358000    488.15522   -7309.2668   -5621.5314   -2611.6546   -5263.8783    3913.7218 0.0040286998   0.30130412   0.18166127 
 1360000    515.88007   -7309.7167   -4586.1012   -158.77259   -5388.2486    4798.6755 0.0040397411   0.30127393    0.1816899 
 1362000    511.31205   -7309.4183    -7775.405     1626.199   -2980.8865    1097.3823 0.0040481314   0.30123977   0.18174841 
 1364000    535.74324    -7308.428   -2442.5748   -1080.0094   -5416.1066    3488.7557 0.0040458273   0.30116476   0.18176539 
 1366000    526.58442   -7309.8894    -4688.407    1179.7614   -4882.6499     1712.064  0.004078127   0.30120063   0.18180847 
 1368000    518.81525   -7311.1421    -3800.457   -1492.3682   -7607.4801    3550.4047 0.0041024777   0.30125883   0.18185609 
 1370000    483.06119   -7310.3477   -3707.8533   -807.62012   -5263.3855    7166.2918 0.0041144395   0.30123563   0.18195023 
 1372000    475.60994   -7309.2659   -3701.6759   -1692.2617   -5205.5997    5000.7543 0.0041094279   0.30123155   0.18209645 
 1374000    485.24966   -7311.2701   -2983.4999   -531.92401   -5151.8391    5034.2387 0.0041113342   0.30117147   0.18224267 
 1376000    456.63251   -7308.2358   -3796.6359   -2304.5512   -5853.1552    3566.7601 0.0041325397   0.30114032   0.18234239 
 1378000    493.25614   -7310.5093    -3670.217   -1022.8726   -4101.8828    2315.1832 0.0041359376   0.30120557   0.18232742 
 1380000    470.80889   -7308.2974    -4742.094   -314.61639   -4672.1279    6617.8502 0.0041395092   0.30120011    0.1824266 
 1382000    508.33475   -7311.6314   -3706.1897   -496.25437   -5030.5095    4610.2038 0.0041580572   0.30118598   0.18245117 
 1384000    516.10586   -7307.8237   -4430.1259    1298.4703   -5707.6277    2675.4502 0.0041492703   0.30114871   0.18243721 
 1386000    515.48875   -7310.2553   -2338.1676   -384.45266   -4558.8166    5279.0775 0.0041458475   0.30113716     0.182436 
 1388000    508.06843   -7309.4329   -4851.5732   -862.88501   -5826.4481    4820.7155 0.0041541591   0.30110221   0.18248923 
 1390000     512.9422   -7309.8757   -2971.3081   -1743.4253   -6803.6676    4648.4627  0.004148086   0.30107009    0.1825777 
 1392000    506.84162   -7308.9676   -3545.4693    1288.0194   -5907.3522    6356.8677 0.0041697254   0.30101257   0.18256745 
 1394000       543.13   -7308.3414   -4719.2385    2148.1237   -7293.0629    7533.6218 0.0041628866   0.30088731   0.18257655 
 1396000    527.46365   -7308.3423   -1262.5512   -1625.1865   -5240.6371     7690.303  0.004156836   0.30082484   0.18257581 
 1398000    521.38778   -7309.0117   -2591.7589   -1513.9414   -9227.6788    9064.4659 0.0041551053   0.30079374   0.18259789 
 1400000    499.22696   -7309.0064   -3189.5733    202.69024   -5792.7075    4283.7522 0.0041792862   0.30091206   0.18265277 
 1402000    543.71549     -7309.83   -2613.3844    -1076.801   -7348.0916     5258.573 0.0041844536    0.3008364   0.18265868 
 1404000    489.60761   -7309.2588   -4631.4646   -1056.6774   -4813.1488    5173.2308 0.0041935377   0.30078189   0.18268452 
 1406000    477.43756   -7309.9483    -2464.503     414.1781   -6817.4945    2815.2998 0.0041947264   0.30066359   0.18261519 
 1408000    494.84601   -7308.4216   -4789.5531   -116.69879   -6491.3109    4094.0264 0.0041909174   0.30069244   0.18265841 
 1410000    494.20988   -7309.2724   -3290.7654   -2175.2573     -4804.27    3013.0926  0.004186759    0.3007089   0.18262153 
 1412000    494.88168     -7308.55   -6512.1297    1640.7542   -5614.1087     5817.494 0.0042018028   0.30063338   0.18261794 
 1414000    497.56649   -7310.7436   -3700.2893   -2598.1163   -4948.6795    7795.3751  0.004213386   0.30056329   0.18263033 
 1416000    514.55362   -7309.7372   -6092.1615   -1308.6252   -6148.3459    5804.8604 0.0042570125   0.30053262   0.18267816 
 1418000    513.22086    -7310.107   -6272.5261    3803.1762   -5176.2166     3068.605 0.0042605525   0.30049515   0.18264685 
 1420000    485.93667   -7310.1671   -4633.6789    69.735942   -5481.8886    3525.4168 0.0042537086   0.30040867   0.18259487 
 1422000    491.70531   -7308.4886   -3023.5668   -39.683844   -6169.8765    4381.3575 0.0042502312   0.30028961   0.18263725 
 1424000     510.8865   -7310.2331   -2620.3708   -1030.9308   -5395.4565    4302.9984 0.0042631229     0.300293   0.18263225 
 1426000    517.24145   -7309.3841   -1385.6516    -2388.075   -2739.1448     4683.895 0.0042777849   0.30030943   0.18260258 
 1428000     511.1243   -7308.7311    -2617.563    395.16451    -3862.523     3117.062 0.0043051434      0.30023   0.18258793 
 1430000    525.03084   -7309.7942   -4752.0761    147.65905   -5067.2477    4124.5379 0.0043034734    0.3001904   0.18262497 
 1432000    499.49153   -7309.3104   -3440.6237   -1799.3493   -7233.5664    3777.0796 0.0042976749   0.30015194   0.18270007 
 1434000     521.1458   -7311.4664   -3732.4344   -188.33083   -4464.3737    5527.7669 0.0042915399   0.30008467    0.1826745 
 1436000    498.72228    -7309.116   -3702.1997    -4121.708   -4517.8796    2876.7514  0.004292716   0.30002068   0.18259728 
 1438000    527.37423   -7310.2376   -2551.4005   -143.21341   -6464.7902    5339.6472 0.0042970018   0.29993945   0.18251624 
 1440000     512.6944   -7309.1994   -3989.7955   -2947.7067   -5623.4684    7421.6745 0.0043195269   0.30005551   0.18259583 
 1442000    485.83145   -7307.6381   -4181.3859    1139.8444   -5717.6758    2563.8127 0.0043315973   0.30002511   0.18268875 
 1444000    490.44929   -7309.4741   -2383.8446   -729.79504    -6677.392    4521.3341 0.0043246054   0.29994958   0.18272374 
 1446000    511.27957   -7311.4648   -4239.6852   -805.06822   -6628.4856    2515.4346 0.0043281037   0.29984752   0.18267762 
 1448000    521.69333   -7308.2224   -610.84322   -2947.1117   -7478.6219    5789.3992 0.0043358274   0.29979805   0.18265521 
 1450000    496.96591   -7308.4694   -3103.2742    72.217408   -6402.0669    6359.9981 0.0043330065   0.29983934    0.1826712 
 1452000    493.90125   -7309.4283   -5130.1296   -2823.1165   -8242.4274    5940.6313 0.0043484389   0.29978472    0.1826672 
 1454000    482.36557   -7309.1551   -1722.1538   -1432.4925   -6689.0536     6220.309 0.0043476556   0.29965017    0.1827393 
 1456000    497.28579    -7307.575   -6126.9616   -547.12702   -6615.2504    4850.7569 0.0043459699   0.29959674   0.18273583 
 1458000    497.67921   -7311.4902   -765.47601   -386.89203   -7370.0567    3857.1785 0.0043447703   0.29960394    0.1827587 
 1460000    506.55151   -7308.8694   -3761.9438   -804.11097   -4390.8354     4695.739 0.0043626696   0.29963968   0.18275165 
 1462000    484.35045   -7308.4368   -4025.6131   -2430.3146   -7804.3187    6355.5266 0.0043694343   0.29961367    0.1828123 
 1464000    484.69441   -7310.0658    -386.3557   -906.84585   -5635.5847    3143.4727 0.0043828724   0.29957907   0.18280154 
 1466000    519.78378   -7307.0728    -5237.988    468.81616   -8097.8679    4303.8197 0.0043815079   0.29949356   0.18280779 
 1468000    497.94851   -7309.5586   -5353.9043   -456.68118   -6128.9412    3095.3212 0.0043756142    0.2994659   0.18278206 
 1470000    546.16124   -7309.9817   -6474.4242   -2910.6915    -4736.054    7255.0159  0.004379225    0.2994747   0.18281764 
 1472000    495.70343   -7309.2111   -2948.2197   -664.45251   -7498.9073    4599.0302 0.0043855829   0.29946787   0.18286139 
 1474000    470.78382   -7309.3927   -2566.8448    214.86524   -4891.6592    1690.6287 0.0043939181   0.29944333      0.18288 
 1476000    481.33394   -7309.4684     -3356.21   -2283.1496   -4899.8667    7865.7523  0.004414377   0.29948654   0.18283012 
 1478000    494.50007    -7309.319   -5297.3305    2973.7449   -6560.4804    3875.8979 0.0044149605   0.29940365   0.18282596 
 1480000    484.35404   -7308.8451   -3715.4172    990.04501   -4510.3835    4653.8676 0.0044107428   0.29935487   0.18285168 
 1482000    508.55674    -7310.292   -6324.4122   -1229.1077   -9212.7958    6467.6937   0.00442947   0.29930318   0.18291494 
 1484000    487.73117   -7310.5179   -5644.7844    186.82249   -5654.0035    5120.7399 0.0044357558   0.29930148   0.18302206 
 1486000    489.64087   -7309.8621   -5538.5657   -4262.7085    -4431.313    4186.8854 0.0044396661   0.29922882   0.18300322 
 1488000    515.82542   -7308.2916   -6705.8531    1204.5897   -4613.5132    5664.9481 0.0044348252   0.29921607   0.18293237 
 1490000    475.77474   -7310.0759   -4695.2723   -184.68938   -6574.7007    5874.9424 0.0044284669   0.29923034   0.18288078 
 1492000    490.33605   -7309.0009   -5351.9161   -2677.9724   -6183.9096    5907.4236 0.0044253777   0.29916615   0.18291858 
 1494000    545.74147   -7309.2553   -4466.4133   -1791.9855   -7548.9238    10157.334 0.0044379677   0.29912956   0.18302142 
 1496000    486.70523   -7311.9892   -6233.8002   -1061.8009   -5601.4015    5344.7962 0.0044479148   0.29903326   0.18309889 
 1498000    491.21651   -7309.9721   -2157.9477   -1281.0138   -8828.7201    3051.7154 0.0044472831   0.29906533    0.1830681 
 1500000    470.22328   -7310.6274   -3911.2634   -1014.2572   -6810.1688    4102.0277  0.004467483   0.29911849    0.1830043 
 1502000    484.72966   -7309.2961   -5397.8849   -1083.0349     -3821.34    8074.9708  0.004480134   0.29905085   0.18305201 
 1504000    471.96764   -7310.8155   -3167.4187    1540.7464   -4727.3433    5343.2687  0.004479423   0.29896309   0.18313178 
 1506000    504.42858   -7308.9255   -3544.3768   -310.18916   -4772.9946    4485.6002 0.0044730716   0.29889533   0.18315598 
 1508000    486.97926   -7311.0534   -4779.7015   -2116.1991   -5471.2125    4158.7686 0.0044686986   0.29880947   0.18316612 
 1510000    504.32318   -7308.5028   -1952.0665   -898.76431   -4588.7453    5972.3857 0.0044649416   0.29884041   0.18312101 
 1512000    496.31526   -7309.8567   -4278.4571   -3179.0704   -8121.1462     5528.724 0.0044675118   0.29881064   0.18312808 
 1514000    483.94326    -7309.557   -1450.5203   -2650.0316   -6792.0734    9115.9897 0.0044762792   0.29875275   0.18317612 
 1516000    529.33834    -7310.749   -2627.1355   -848.83933   -6326.1837     7190.203 0.0044920759   0.29872487   0.18324843 
 1518000    507.97295   -7308.3502   -715.19961    -1489.221   -6840.8931    4231.5375  0.004488602   0.29870157   0.18321781 
 1520000    484.76629   -7308.5549   -254.76457   -1733.8956   -4720.2404    3115.1016 0.0044820785   0.29862267   0.18322719 
 1522000    514.51795   -7308.6502   -3610.4083   -1084.2223   -6853.1724    3979.9465  0.004479901   0.29858887   0.18320818 
 1524000    510.58382   -7309.2149   -2527.8488   -4372.5578   -3499.9067    4538.4202 0.0044822405   0.29855613   0.18323013 
 1526000    511.93044   -7309.7581    -2942.204   -261.16603   -5355.6535    4210.0099 0.0044917644   0.29844045   0.18323546 
 1528000    489.64516   -7309.8446   -3961.8043   -2746.2184   -6287.1862     8826.247 0.0044887977   0.29850404   0.18324614 
 1530000    514.71219   -7308.3907   -2336.2307   -436.12141   -4045.5284    4403.5347 0.0044970923   0.29844534   0.18324984 
 1532000    511.27392   -7310.1725    -3549.813    662.65808   -6754.1448    8214.8992 0.0045040183   0.29840449   0.18325606 
 1534000    521.14071   -7309.6707   -1985.2142   -2030.6888   -6094.4712     5250.292 0.0045025429   0.29840982   0.18326791 
 1536000    485.72043   -7309.5834   -4132.1164    555.48082   -5432.4947    3181.0702 0.0045072911   0.29833994   0.18325846 
 1538000    479.87515   -7309.9736   -2853.3515   -2678.2401   -5950.0048    4935.8754 0.0045348216   0.29832633   0.18322344 
 1540000      481.262   -7308.7172   -4978.0768   -550.90933   -5924.3158    2826.9237 0.0045317461   0.29823742   0.18324282 
 1542000    515.36098   -7309.2671   -3891.5109   -1181.2306   -2890.0369    5618.3952 0.0045317984   0.29823205   0.18334823 
 1544000    485.31576   -7309.7557   -4397.9658   -1863.0964     -6313.05     2276.629  0.004536062   0.29813681   0.18337522 
 1546000    487.03189   -7309.7321   -3278.4779   -1021.4487   -1910.2416    6707.0753 0.0045376588   0.29816683   0.18330823 
 1548000    506.68032   -7309.9005   -4254.5089    2470.6365   -6518.2856    2721.1432 0.0045380954   0.29811608   0.18328408 
 1550000    522.69409   -7308.1076    -4188.135    2015.2853   -5156.4392    4357.7908 0.0045330104   0.29809607   0.18321707 
 1552000    493.50733   -7310.2184   -6415.0818    1652.6425   -5325.8675    3088.8295   0.00452562   0.29799942   0.18329208 
 1554000     471.8848   -7309.9913   -1203.1853   -1400.8089   -8222.7021    6266.3657 0.0045222565   0.29790095   0.18332094 
 1556000     496.6733   -7309.5221   -2715.1549   -1312.5384   -6341.0058     5404.827 0.0045465473   0.29793399   0.18334305 
 1558000    479.06873   -7309.7464   -2103.4179    188.61252   -6238.2869    5768.0553  0.004570248   0.29795826   0.18330102 
 1560000    502.85643   -7309.5707   -1134.3685   -1328.5358   -4244.5227    6514.4394   0.00457815   0.29793863    0.1833682 
 1562000    479.45828    -7308.568   -2325.4281    665.94382   -5529.8546    5041.6231 0.0045762698   0.29782851   0.18341543 
 1564000    477.45655   -7310.3645   -2357.8163   -1870.5934   -6032.6498    6867.5205  0.004573422   0.29782116   0.18341865 
 1566000    492.77239   -7310.8382   -2103.9483   -4048.3117   -3653.9747    6198.7408 0.0045696635   0.29780317   0.18339253 
 1568000     493.6596    -7308.945   -5576.0912    939.45226   -3956.2621    6602.5595 0.0045680025   0.29764671   0.18337956 
 1570000    514.43196   -7311.6864   -4544.2445   -3524.1547   -4933.1269    6386.7668 0.0045652836   0.29761679   0.18332137 
 1572000    494.43264   -7307.7948   -6200.4716   -2056.0565   -8384.7337    5518.8683 0.0045668348   0.29760889   0.18331762 
 1574000    493.50738   -7309.9768   -7127.4837   -79.629537   -6857.4638    1629.6316 0.0045663355    0.2975818   0.18337426 
 1576000    495.63439   -7308.2798   -6398.1686   -201.44877   -2845.1964    1521.4415 0.0045724583   0.29755271   0.18331017 
 1578000    495.11718   -7308.9599   -7439.3446    1804.8307    -7530.276    5347.3213 0.0045768444   0.29750288   0.18333453 
 1580000    491.06181   -7309.2237   -5050.0118   -369.01786   -4706.6653    4108.1489 0.0045738348   0.29746519   0.18336827 
 1582000    542.55546   -7309.3664   -6004.1374    6.8303453   -7372.9245    6535.3715 0.0045898327   0.29738199   0.18338854 
 1584000    489.72361   -7311.2066   -7100.6095   -915.67268   -6937.1384    4376.9757 0.0045953082   0.29736781   0.18338498 
 1586000    479.33987   -7309.6691    -7167.527    59.309522    -5892.609    8578.4883 0.0045918496    0.2973504    0.1834136 
 1588000    527.52149   -7310.7885   -4474.7365   -2684.0312   -5451.1691    5839.3274 0.0045815616   0.29732982   0.18343367 
 1590000    502.71255    -7310.212   -3504.1272   -348.91489   -4730.5638    6364.4981  0.004582678   0.29723543   0.18344089 
 1592000     505.4093   -7311.4751   -3998.6219    890.43846    -7022.013    4917.8084 0.0045916062   0.29726372    0.1834143 
 1594000     513.0032   -7310.3179   -5908.8226   -2313.0305   -7788.4733    4996.8675  0.004605298   0.29723574   0.18343322 
 1596000    498.14062   -7311.2921   -5572.7772    1063.4265   -9116.0656    3934.6124 0.0046076864   0.29719032   0.18348745 
 1598000    505.51467   -7312.0111   -4195.5815   -795.37146   -7565.6819     4232.453 0.0045977104   0.29720857   0.18345602 
 1600000    494.21229    -7308.912   -5564.9147    914.66518   -7518.2937    5688.3701 0.0046032936   0.29715158   0.18347955 
 1602000    504.99304   -7310.6172   -6182.4803    1330.1838   -7806.2293     4864.063 0.0046083017   0.29718307   0.18345323 
 1604000    508.48112   -7308.4546   -5986.1838    2982.9902   -5316.9966    3065.6157  0.004606496   0.29713563   0.18350337 
 1606000    474.66082   -7311.4941   -5416.7018    -1121.362   -7143.7426    6408.6883 0.0046025511   0.29708239   0.18351693 
 1608000    489.05187   -7309.8418   -3088.7492    -67.43478   -4431.7954      5841.95 0.0046172753   0.29706495   0.18353696 
 1610000    469.12829   -7311.4217   -3391.8281   -1263.0726    -5133.452    3379.1635 0.0046263301    0.2970552   0.18353151 
 1612000    487.89577   -7308.5887   -4940.3295    2143.5121   -3660.5245     5550.012 0.0046209476   0.29696849   0.18353617 
 1614000     502.5935   -7307.5544   -2062.0868    1200.2936   -6695.4186     5790.318  0.004614307   0.29689205   0.18355221 
 1616000    473.17657   -7308.9552   -4010.9625   -936.61495   -4293.9432    4053.7165 0.0046211728   0.29697732   0.18356462 
 1618000    493.91712   -7310.9454   -2391.0137    1072.5099   -3587.5719     2676.185 0.0046369509   0.29699763   0.18357355 
 1620000    511.87963   -7308.1207   -3530.3369   -759.44681   -5580.9878    5688.1956  0.004657246    0.2969155   0.18352733 
 1622000    477.37743   -7309.3854   -6117.9561    1397.7516   -3241.8569    2677.3002 0.0046537383   0.29688866   0.18356951 
 1624000    484.78337   -7308.5612   -3598.8868     1470.745   -5607.8454    4811.2671 0.0046476929   0.29678545   0.18359093 
 1626000    500.24508   -7307.8646   -5633.4286    905.42329   -3560.0612    857.30058  0.004641815   0.29679665   0.18361125 
 1628000    504.76037   -7309.8907   -3630.5017   -938.64827   -4721.3065    2966.3843 0.0046463036   0.29678936   0.18355571 
 1630000    533.57313    -7310.132   -3816.1516    47.275673   -7634.3793    1924.7223   0.00464132   0.29675384   0.18351729 
 1632000    496.21846   -7311.3982   -5578.2902   -1773.6222   -4271.2182    3594.6898 0.0046392683   0.29672865   0.18351419 
 1634000    471.31685   -7308.4693   -1981.5263   -475.72508   -4627.9775    3983.7118 0.0046501752   0.29676149   0.18354062 
 1636000     518.6201   -7310.6391   -4406.0793   -2034.9684   -4588.4243    4447.6338 0.0046604532   0.29668414   0.18358891 
 1638000    486.62339   -7310.6389   -2002.8536   -938.06727   -3889.6961    5002.4936 0.0046687168   0.29660104    0.1835768 
 1640000    497.50657   -7311.0879   -3277.4599    811.34139   -5111.6642    5668.3886 0.0046673565   0.29660078   0.18360471 
 1642000    506.58447     -7309.53   -6164.8441   -2350.6086   -5265.4362    7020.6751 0.0046604452   0.29654886     0.183603 
 1644000    491.41414   -7309.0077   -3366.6168   -1800.8895   -5289.0083    8030.2962 0.0046641063   0.29652492   0.18356236 
 1646000    497.07019   -7310.7933   -6374.9989    71.404378   -6783.3625    6494.1947 0.0046666643   0.29654396   0.18353817 
 1648000    517.51092   -7311.8818   -4415.4717    654.14062    -4129.255    5821.1328  0.004663382   0.29650162   0.18353067 
 1650000    506.30032   -7309.6774   -5623.7684     205.5962   -6353.8411    7496.3142 0.0046574254   0.29640478   0.18355927 
 1652000    483.47266    -7310.678   -4826.0969    -1336.521   -7205.8219    3686.0585 0.0046959116   0.29637428   0.18359168 
 1654000    514.13864     -7308.65   -4730.1009   -341.29678   -7297.5345    5228.5133 0.0046978715   0.29631207   0.18363016 
 1656000    458.14018   -7308.8119   -3122.1486    1186.2893   -4025.6923    4546.2315 0.0046919102    0.2963049   0.18363565 
 1658000    475.83148   -7308.3831   -4948.2011   -1566.8459     -5117.87    5766.9881 0.0046868809   0.29630601   0.18359459 
 1660000    466.40858   -7312.2288   -3054.5699   -681.88386   -4661.5015    3673.5043 0.0047041338   0.29629178   0.18366128 
 1662000    496.97795   -7310.4148   -3248.0535    1474.1742   -4449.2237    4581.3739 0.0047136867   0.29626136   0.18367463 
 1664000    492.91828   -7308.7496   -1362.5959   -3607.9512   -5990.8285    3065.4466 0.0047115124   0.29619857   0.18370962 
 1666000    494.78741   -7310.3974   -3208.3574    369.77551   -6110.0157    3754.9934  0.004709943   0.29620337   0.18372986 
 1668000    507.91593   -7310.3521   -2740.5856    1876.0206   -4331.6862    5024.7151 0.0047058145   0.29615209   0.18376068 
 1670000    505.74976   -7309.7651   -1685.6098    478.18293   -6457.5963    2488.5185 0.0047027239   0.29608823   0.18377046 
 1672000    498.93094   -7309.1462   -3412.1648    1868.5948   -5961.2885    4146.6002 0.0046959952   0.29601873   0.18370723 
 1674000    493.68778   -7311.3764   -4310.8157     -1573.36   -5709.2991    3885.5278  0.004695315   0.29603358   0.18374372 
 1676000    504.97788   -7310.0514   -2436.9214    529.92386   -6012.1573    3648.8554 0.0047203242   0.29602655    0.1838355 
 1678000    523.20215   -7310.5339    -4607.154    291.55366   -4383.9648     3667.463 0.0047284864   0.29600667   0.18381823 
 1680000    525.06815   -7310.0517   -6027.7314   -501.18189   -4847.1686    3564.3578 0.0047370912   0.29598185   0.18386966 
 1682000    473.05455   -7310.1543   -2903.3658   -1260.6962    -3166.014    4439.3463 0.0047410752   0.29596923   0.18388595 
 1684000    497.71158   -7310.9736   -3828.2616   -1220.9961   -5328.0536    5121.3657 0.0047449647   0.29590072   0.18389974 
 1686000     513.7855   -7310.8541   -976.84642   -982.34287   -4753.8069    3846.9136 0.0047432136    0.2958648   0.18390501 
 1688000    507.28074   -7308.6682   -3576.7985     1522.582   -5865.9998    5248.4603 0.0047386909   0.29581532    0.1838608 
 1690000    493.85226    -7308.622   -1006.5001   -2868.7303    -4599.311    2823.2372 0.0047338321   0.29577643   0.18385047 
 1692000    494.84256   -7308.2821    436.59662    4415.5224    -6053.708    6027.8096 0.0047493286   0.29577599   0.18385519 
 1694000    503.25089   -7309.4752   -2758.2005   -1246.9704   -7167.0641    4528.3344 0.0047466726   0.29570523   0.18391003 
 1696000    503.66829   -7308.9796   -2789.8145    1488.8362   -7436.6919    7015.6931 0.0047480888   0.29563679   0.18389047 
 1698000    481.86441   -7310.0629   -610.54411   -426.00708   -6626.2017     5611.672 0.0047456435   0.29567259   0.18392166 
 1700000    521.63077   -7309.3157   -994.22268   -2702.0397   -4555.5436    3959.7907 0.0047863722   0.29554974   0.18389916 
 1702000    519.88155   -7308.5279    -2376.576    1642.6619   -9041.3057    5488.2116 0.0047885397    0.2954996   0.18389128 
 1704000      501.834   -7310.3445   -992.40778   -2760.1641   -3827.7577    1521.7242 0.0047827727   0.29552768   0.18392987 
 1706000    498.51449   -7308.8595   -2600.7654   -702.70975   -7443.7813    6543.4439 0.0047870241    0.2954028   0.18392483 
 1708000    486.64798   -7310.5883    -2562.994   -1447.2051     -6776.66    4823.0559  0.004791126   0.29536615   0.18393715 
 1710000    483.22351   -7309.4172   -2733.7072   -2981.4052     -4973.85    3765.2999 0.0047878822   0.29542409   0.18391767 
 1712000    481.42829   -7308.5794    -1352.738     108.1751   -6689.2655    5916.5762 0.0047867544    0.2953655   0.18389946 
 1714000    497.98538   -7307.8599   -3801.6064   -1401.6452   -4315.3845    4609.2737 0.0047807337   0.29533163   0.18388034 
 1716000    524.73833   -7311.6756   -4339.2894   -1032.4712   -7610.7679    8527.9352   0.00478959   0.29530108   0.18393769 
 1718000     474.7245   -7310.1729   -3165.4563   -1481.5418   -7178.9771    3992.2256 0.0048018586   0.29525516   0.18391891 
 1720000    501.53039   -7310.3984   -2699.8079   -94.993978   -4900.9087    7649.2791 0.0047984457   0.29528184   0.18394734 
 1722000    535.35379     -7308.08   -556.64361   -2914.7593   -7480.8117    7939.8483  0.004801241   0.29517176   0.18398498 
 1724000    539.50928   -7308.7285   -668.29754   -1766.4937   -6929.7489    4349.6713 0.0048195364   0.29517637   0.18397461 
 1726000     487.4547   -7310.3962   -5286.9325   -1075.5978   -6529.9963    5346.3386 0.0048163884   0.29513397    0.1839201 
 1728000    509.84305   -7308.9044   -3342.3593   -2240.9435   -7137.0348    6921.6261 0.0048195534      0.29504   0.18390592 
 1730000    510.59285   -7310.6876   -4958.1526   -1128.6384   -6963.0007    5343.9219 0.0048166663   0.29506047   0.18396827 
 1732000    495.00438   -7311.7315   -2970.8513   -2807.1518   -5824.8909    6348.0905 0.0048114773   0.29503964   0.18399574 
 1734000    508.32212   -7309.5049   -4008.0481   -1894.2514   -3941.6279    3948.1453 0.0048191911   0.29505436   0.18401956 
 1736000    485.71957   -7311.2088   -3352.3299   -604.16789   -4118.1863    4857.9734 0.0048408226   0.29496554   0.18397006 
 1738000    495.02866   -7307.6745   -4144.4723   -2358.6681     -5511.83    5463.0334 0.0048397907   0.29498062   0.18393898 
 1740000    499.40531   -7310.4309   -6353.5818   -1579.2263   -7609.1546    2968.6164 0.0048348123    0.2950116   0.18398582 
 1742000    508.59144   -7308.0854   -6084.1534   -191.91012   -6019.3161    4427.3331 0.0048435646   0.29499891   0.18399021 
 1744000    501.09786   -7309.2743   -3846.6956   -2379.8393    -5342.448    4821.9424 0.0048482285   0.29496606   0.18400705 
 1746000    514.99781   -7308.1455   -1359.7268   -586.39823   -4299.8889    6520.3332 0.0048683445   0.29493571   0.18405188 
 1748000    508.02468   -7308.6032   -2189.7522   -415.21081   -4804.6801    4894.2056 0.0048665205    0.2948952   0.18403691 
 1750000    469.65889   -7310.5347   -4569.2064    -1765.493   -4156.6963    4846.8961  0.004860299   0.29483659   0.18398964 
 1752000     539.5727   -7310.0079   -2710.5245   -256.93692   -4866.2203    7514.4237 0.0048570128   0.29482146   0.18401282 
 1754000    514.07344   -7310.1339   -3388.6308    1291.0069   -4795.6043    2913.5268 0.0048585209   0.29479676   0.18403233 
 1756000    518.40947   -7310.3216   -2871.5428   -866.69539   -4983.5358    5894.6701 0.0048529674   0.29479866   0.18402378 
 1758000    452.86297   -7309.8388   -1513.2757    -2569.546   -4370.7219    3609.8317  0.004871476   0.29470191   0.18404045 
 1760000    522.69476   -7308.7394    -3764.408     136.2694   -8113.8265    4367.0302 0.0048862961   0.29473452   0.18407681 
 1762000    537.57003    -7310.292   -3134.5315   -1502.5379   -3668.3801    6067.9415 0.0048844178   0.29478468   0.18405212 
 1764000    481.00879   -7311.0638   -3918.0526    1504.4613   -4958.4316    3340.2998 0.0048812145   0.29471755   0.18404799 
 1766000    506.76551   -7308.9311   -5149.5309   -2997.7901   -6562.4225    7344.4386 0.0048789675   0.29466162   0.18408135 
 1768000     491.2188   -7308.7428   -4098.8709   -242.58243   -4855.5463    1602.4443  0.004895415   0.29468274   0.18408827 
 1770000    488.25273   -7309.0782   -4558.2918   -4828.0044   -5329.3847    5028.2863 0.0048944982   0.29463186   0.18404971 
 1772000    476.99771   -7310.0405    -3220.557   -806.99114   -5551.2657    5655.9747 0.0048926381   0.29457809   0.18405501 
 1774000    479.42993   -7310.3209   -2400.4071    -1088.417   -3283.5292    5440.4704 0.0048875571   0.29462153   0.18406313 
 1776000    516.64398   -7309.2851    -2888.569   -1419.4058   -4855.5299    5548.0222 0.0048822502   0.29457921   0.18410964 
 1778000    491.11138   -7309.2025   -2630.7163    515.54081   -1904.9873    5440.4635  0.004879421   0.29445937   0.18407023 
 1780000    502.13125    -7310.533    -3174.007   -3160.5325    -6330.535    4008.3799 0.0048822128   0.29440502   0.18404865 
 1782000    486.35979   -7310.3826    -4670.061   -2639.1134    -5081.688    2289.1796 0.0048987856   0.29448016   0.18405676 
 1784000    535.32701    -7309.503   -3439.5348   -2430.4209   -3645.2168    6009.5098 0.0049073401    0.2944676   0.18408337 
 1786000    487.45723   -7311.2811   -2480.6922   -832.40749   -8610.7691    3860.4356 0.0049105966   0.29438847   0.18411483 
 1788000    505.98431   -7309.0931   -3528.1309    1681.3436   -7096.9325    6091.3831  0.004908878   0.29442791   0.18410781 
 1790000    485.89343   -7308.9313   -1843.5866    359.88659   -4030.5538    5243.4323 0.0049039715   0.29437906   0.18413111 
 1792000    506.59924   -7311.8012   -4065.7066    1114.2101    -6362.916    3344.3455 0.0048985453   0.29429332   0.18405766 
 1794000     513.7713   -7307.1151   -3784.3138     -2263.47   -3571.2191    5730.3358 0.0049052959   0.29424391   0.18402115 
 1796000    485.79856   -7309.5895   -4008.5828   -1724.3751   -3952.9331    3811.5401 0.0049112542   0.29421925   0.18406902 
 1798000    491.61215   -7310.8711   -579.49784   -989.53897   -5066.9598    7098.2986 0.0049131445    0.2942439   0.18409145 
 1800000    506.71609   -7309.6934   -2971.6202   -992.97103    -3340.663    3477.3401 0.0049306796   0.29421396   0.18417157 
 1802000    453.68219    -7309.557   -1865.4545     359.5725   -3740.9237    6176.2394 0.0049308735   0.29427729   0.18413096 
 1804000    476.95361   -7310.1589   -4031.6612    757.32979   -3402.1587     5663.004 0.0049241813   0.29415099   0.18410659 
 1806000    489.57221   -7310.4469   -1580.0327   -6122.1608   -6233.4757    8023.5547 0.0049237235   0.29411445    0.1840875 
 1808000     487.2944   -7308.6634     -3333.61    373.47067   -3936.4004    4298.0952 0.0049387859   0.29423493   0.18416188 
 1810000    487.60942   -7310.8813   -4976.7789    399.91435   -4759.5556    5119.9109 0.0049396469   0.29415932   0.18420337 
 1812000    516.95165   -7309.7543   -5786.3249   -2723.1332   -5326.4951    5566.8885 0.0049508609   0.29410706   0.18415271 
 1814000    458.07612   -7309.8706   -5279.4639    688.55147   -3848.6487    5056.3416 0.0049450262   0.29408647    0.1841799 
 1816000    505.35932   -7311.1051   -3596.1522   -1135.9921   -4644.2675    3719.3308 0.0049379425   0.29408329   0.18424317 
 1818000    482.04647   -7308.6185   -6212.2372    1302.8273   -2435.8191    1919.2676 0.0049339314   0.29404147   0.18421183 
 1820000    473.17107   -7310.2366    -1777.716   -3143.5155    -6114.109    1801.4649  0.004938435   0.29400955   0.18417969 
 1822000    471.33538   -7308.4773   -4683.0133    647.76238   -1976.1213    3713.5034 0.0049373046   0.29398935   0.18419994 
 1824000    477.04773   -7307.6231   -2237.4396   -3.2236548    -2814.635    4100.2695 0.0049370408   0.29396854   0.18421048 
 1826000     495.4652   -7308.6983   -5448.1972   -67.584777   -5542.2752    7162.9771 0.0049438074   0.29388466   0.18418337 
 1828000    483.13799   -7309.9569   -4483.5554   -260.71068   -7267.6771    6016.6234 0.0049420555   0.29382979   0.18421286 
 1830000    503.24177   -7310.8962   -2208.4884   -1788.0267   -7392.0707    4282.2463 0.0049596341   0.29398863   0.18420862 
 1832000    470.84332   -7308.6835   -2704.1158    603.15433   -3045.6841    2624.6319 0.0049622437   0.29392033   0.18425389 
 1834000    511.00967   -7309.0082   -3448.8832     -249.266   -6074.8727    2921.0399 0.0049595802   0.29380247   0.18420679 
 1836000    485.49718   -7308.7835   -4709.3862    940.72195   -6348.2612    4046.0785 0.0049545442    0.2938268   0.18416972 
 1838000    497.56231   -7309.0993     -2582.03   -2216.6935   -4460.0345     4727.374 0.0049491602   0.29375851   0.18422201 
 1840000    527.71349   -7307.8803   -2575.2486   -1328.4682   -4114.9122    3044.7673 0.0049432105   0.29371449   0.18427369 
 1842000     492.6341   -7310.9407   -2655.6971   -1711.1709   -4590.2188    5634.8095 0.0049478764   0.29369531   0.18423281 
 1844000    530.70415   -7309.5847   -4030.5411   -2466.3232   -5055.8529     2058.008 0.0049546912   0.29370096   0.18421532 
 1846000    479.37219   -7309.1522   -4435.1848   -835.70194   -1639.6977    4866.0401 0.0049783181    0.2937092   0.18417107 
 1848000    495.20066   -7309.2877   -6162.8644   -210.37409   -4123.3686    4809.5076  0.004984005   0.29362689   0.18418153 
 1850000      498.515   -7310.7036   -5349.3651    -393.2873   -5653.2228    5431.2414 0.0049887442   0.29363568   0.18424944 
 1852000    483.52187   -7309.1171    -2582.283   -763.65995   -4650.2142    2805.9256 0.0049789098   0.29354809    0.1842855 
 1854000     508.9875   -7310.0879   -2247.2124   -1176.2805   -6181.4752    2799.5877 0.0049829692   0.29349318   0.18425397 
 1856000    488.51056   -7308.0917   -3080.5773   -785.72299   -8142.0356    6603.6929 0.0049918471   0.29351867   0.18422153 
 1858000    529.07151   -7309.9566   -1537.5692   -1464.3331   -5671.7867    2889.8138 0.0049904181   0.29357056   0.18427202 
 1860000    495.85033   -7309.1965   -4080.8148    289.22556   -7337.9547    5721.9675 0.0049978716   0.29346808   0.18427862 
 1862000    509.29386   -7308.3855   -3605.2354   -1477.7014   -6208.9224    3828.5806 0.0049895765   0.29350704   0.18429477 
 1864000    506.17645   -7309.4361   -1742.6518   -4066.2284   -8196.1417    4583.0451 0.0049878123   0.29351984   0.18429325 
 1866000    479.03921   -7310.8606   -5327.9531   -1920.3166   -2705.4616    4605.7374 0.0050009321    0.2934918   0.18426526 
 1868000    538.68784   -7307.2652   -3467.1813   -1088.9681    -4334.901    5948.1775 0.0050083433   0.29343051    0.1843092 
 1870000    477.86263   -7309.4168   -7856.9014   -1979.7179   -1563.4246    2009.7601 0.0050108886   0.29350139   0.18437157 
 1872000    503.56272   -7308.3153   -5239.3541    -254.1738   -3188.4499    3850.5162 0.0050064207   0.29348109   0.18433206 
 1874000    518.53685   -7309.3371   -6641.2714    139.36695   -3656.1618    4801.0873 0.0050148189   0.29339363   0.18427258 
 1876000    493.61709   -7310.0068   -7227.1376    341.91308   -2481.0645    5133.8419 0.0050154967   0.29338814   0.18429299 
 1878000    473.43728    -7308.766   -3926.2389    523.94917   -5324.9583    5818.0392 0.0050105886   0.29336344   0.18439381 
 1880000    499.75862    -7309.693   -6623.9227   -3676.9358   -3385.5003    4824.5028 0.0050225895   0.29333026   0.18434361 
 1882000    522.67092   -7310.0643   -2517.1635   -3019.5732   -3853.3282    4537.5764 0.0050316435   0.29332798   0.18433383 
 1884000    501.68414   -7310.7634   -5172.7629    1399.3481   -5682.4937     5434.402 0.0050335825   0.29335049   0.18437064 
 1886000    494.85163   -7311.1203   -4722.8265    449.12216   -2234.5592    3326.5914 0.0050290958   0.29332032   0.18436192 
 1888000    503.07341   -7311.3036   -2491.8645    -4839.245   -4378.9659     5114.599 0.0050296877   0.29327257   0.18442197 
 1890000    520.40364   -7310.0433   -2742.6321   -288.78562   -5887.1469     2972.839 0.0050500075   0.29322061   0.18447395 
 1892000     458.9291   -7309.8085   -2231.5322    456.85037   -8444.9555    5106.4894  0.005065216   0.29327797   0.18442667 
 1894000     491.7282   -7308.5291   -5075.9904   -2752.0551   -3688.0435    2165.2249 0.0050612405   0.29330362   0.18442119 
 1896000    540.02757    -7310.665   -3907.1626    1714.9209   -4439.1422    4043.7449 0.0050589437   0.29327372   0.18442497 
 1898000    534.83286   -7310.0434   -6405.9407   -35.853449    -5125.795    3964.0522 0.0050557533   0.29321658   0.18446107 
 1900000    515.92385   -7308.5412   -6164.1159    1218.8321   -5003.4782    1820.8625 0.0050506993   0.29316213   0.18446043 
 1902000     533.0105   -7309.0079   -7481.6212   -461.04645   -8028.2555    2569.2298  0.005045378   0.29315465   0.18442582 
 1904000    514.81543   -7310.2247    -5016.723    55.657238   -6197.6301     5919.166 0.0050438928   0.29303364   0.18436116 
 1906000    504.27269   -7309.7452   -3609.8078   -796.21095   -5107.8147    5465.8078 0.0050388399   0.29306812   0.18440718 
 1908000    513.62621   -7309.1689   -4909.1104   -1154.4282   -8919.0773    4864.4702 0.0050402181    0.2930065   0.18443519 
 1910000    537.29259   -7309.9387   -6790.8314   -1216.5492   -3638.7078    4104.4498 0.0050531235   0.29306184   0.18438802 
 1912000    510.88174    -7310.321   -3520.7515    515.39158   -3994.5734    5635.2042 0.0050532128   0.29304318   0.18440439 
 1914000    545.98612   -7309.2265   -5332.9903   -1159.5064   -5814.8348    6155.1032 0.0050538581   0.29296123   0.18446559 
 1916000      535.361   -7310.6089   -3278.6475   -574.84938   -4731.6993    7224.8115 0.0050628269   0.29291307   0.18449755 
 1918000    511.60123   -7307.3488   -7094.1054   -3668.1039   -5106.0396    8279.6666 0.0050782928   0.29293005   0.18452084 
 1920000    509.97018    -7310.405   -4194.1302     2134.257   -4010.6428    4011.3064 0.0050736295   0.29290979   0.18452596 
 1922000    506.08852   -7309.2259   -4937.7504   -700.66603   -6462.7982    4674.3368 0.0050671457   0.29287582   0.18447912 
 1924000     496.1834   -7309.6551   -7007.4371    2061.6373   -4153.0072    3603.5166 0.0050636302   0.29282786   0.18450308 
 1926000    469.99613   -7310.1152   -5599.8955    1789.5098   -8667.6159    5035.4893 0.0050643005   0.29278261   0.18449446 
 1928000    480.55663   -7309.0511   -7061.1702   -1903.9196   -7496.2741    5543.2196 0.0050626434   0.29283059   0.18453793 
 1930000    488.69227   -7309.2914   -3936.2458   -2350.9823   -8415.3094    6126.1658 0.0050751848    0.2927782   0.18458272 
 1932000    498.58305   -7308.9624   -3331.7987   -2184.7028   -7186.3695     6525.241 0.0050830049   0.29279156   0.18460439 
 1934000    505.19811   -7312.1728    -3149.346    -726.8057   -6277.9342    4354.2511 0.0050789025   0.29269519   0.18459887 
 1936000    493.41786   -7309.6439   -2922.3951   -2127.8833   -6732.8869    3227.4294 0.0050768586   0.29269625   0.18456291 
 1938000    524.32842   -7308.3448   -3143.8963   -2496.7722   -9973.0056    4415.2444 0.0050810363   0.29274263   0.18454967 
 1940000    488.94399   -7309.6363   -2999.4551   -2387.8431   -3808.0921    7338.0449   0.00507146   0.29280937   0.18460182 
 1942000     515.5221   -7309.6408   -2615.6295   -2182.0613   -8107.6062    6581.5386 0.0050867353   0.29273873   0.18462918 
 1944000    484.41325    -7309.337   -2093.9866   -299.22551   -7559.2906    3546.5783 0.0050888505   0.29272136   0.18460124 
 1946000    545.31229   -7310.9864   -5221.8793   -294.57636    -7898.566    6335.3925 0.0050859687   0.29268919   0.18456982 
 1948000    497.64596   -7309.0725   -5442.3949   -3821.1807   -5292.2913    6311.5423 0.0050783235   0.29268043   0.18458777 
 1950000    517.34097   -7310.1018   -6147.0276   -438.27416   -6741.1548    6183.1412 0.0050886558   0.29262683   0.18463172 
 1952000    502.09972   -7309.6404   -5475.7257   -3089.5502   -8187.8342    5241.6934 0.0050819935   0.29259846   0.18465275 
 1954000     470.1706   -7308.4645    -4837.583    -942.4424   -3902.7355    5396.0923 0.0050930593   0.29260149   0.18464074 
 1956000    480.12834   -7309.3178   -4869.4729   -2705.7465   -8086.5332    6611.3147 0.0051205761   0.29256378   0.18459836 
 1958000    507.90082   -7309.1264   -9000.1067    1948.5563   -5636.5295    4750.1351 0.0051149038   0.29252805   0.18458194 
 1960000    477.05569   -7310.0575   -4016.7168   -1844.5828   -2679.7199    5806.2458 0.0051161834   0.29243731   0.18463628 
 1962000    472.69342   -7309.0925   -4883.3551   -204.62139   -8401.5871    3767.6711 0.0051122945   0.29242605   0.18468451 
 1964000    506.02183   -7309.6118   -3250.1045   -2657.4129   -5457.1848    1059.9864 0.0051154114   0.29242027   0.18467508 
 1966000    447.02302   -7310.8592   -2957.9981   -383.35479   -7946.4969    2715.0504 0.0051402938   0.29242168   0.18465779 
 1968000    511.30381   -7311.9159   -5916.7491   -3301.5895   -7022.6681     4638.273 0.0051427007   0.29242266   0.18466585 
 1970000    479.57722   -7311.1248   -1847.5924   -1088.7443   -5516.3815    6524.6902 0.0051463724    0.2924596    0.1847229 
 1972000    514.61248   -7310.0302   -4720.1316    1765.9215   -2772.1973    2078.2954 0.0051482751   0.29242122   0.18476816 
 1974000    512.77993   -7310.2854   -1567.3287   -4123.1288   -6043.0989    5303.0289 0.0051393906   0.29231104   0.18471833 
 1976000    515.84897   -7310.7251   -2779.1762   -724.33501   -4486.2629    2100.6627 0.0051344814   0.29231909   0.18469044 
 1978000    518.30642   -7308.8271    -954.9443   -2872.6612   -8303.1972    4138.7286 0.0051416261    0.2922934   0.18471273 
 1980000    498.20468   -7308.9376   -2322.3447   -4810.5305   -5079.8858    3892.1436 0.0051465872   0.29229185    0.1847706 
 1982000    531.85122    -7309.261   -2429.9355   -2660.0936   -6292.9177     3034.325 0.0051518537   0.29226855    0.1847283 
 1984000    459.53043   -7308.9701    -3115.194   -2014.7739    -6741.321    5814.1827 0.0051503396   0.29225089   0.18468858 
 1986000    502.25848   -7308.7628    -2162.949    1045.9774   -5891.4011    3764.2341 0.0051456066   0.29224547   0.18473777 
 1988000    468.20777     -7310.33    -2660.122   -739.95919   -6653.7789    5465.5166 0.0051429174   0.29221793   0.18476144 
 1990000    502.09157   -7310.5249   -2394.5714   -2370.0054   -5396.7186    9133.3109 0.0051470364   0.29215705   0.18471975 
 1992000    524.50901   -7310.0367    83.694407   -1150.4492   -5079.3072    4851.7056 0.0051634977   0.29216016    0.1847306 
 1994000    512.24044   -7309.4928   -920.53624    629.74186   -5965.2702    6854.5872 0.0051714914   0.29218628   0.18472766 
 1996000    517.02589    -7308.146   -1864.2986    2046.3258      -5037.8    5967.2521 0.0051698129   0.29214897   0.18473332 
 1998000    505.92611   -7309.5394   -4050.3176   -2548.7087   -5194.0538    3607.7225 0.0051642972   0.29209979    0.1847316 
 2000000     546.1025   -7310.3942   -866.09234    61.764971   -6242.0768    6077.8081  0.005166099    0.2921126    0.1846993 
 2002000    496.51982   -7308.6262   -4177.2633   -583.26309   -4615.6215    3868.6632  0.005175193   0.29206557   0.18471953 
 2004000    509.17033   -7310.1753   -2959.2753   -1429.7745   -4677.6704    5140.3376 0.0051851013   0.29198863    0.1846927 
 2006000    490.14911   -7308.5454   -5465.9997   -2143.1778   -6433.2725    4517.7602 0.0051821813   0.29200713   0.18476805 
 2008000    520.76075   -7306.6607   -2579.3205   -1068.9892   -3960.6115     642.4129 0.0051804762   0.29198067   0.18480607 
 2010000    520.36882    -7308.531   -1063.8471   -2262.7869   -8452.6277    5299.7463 0.0051816051   0.29191852   0.18478569 
 2012000    487.11461   -7307.5883   -2759.5987   -1936.6871   -4302.2944    1917.4178 0.0051794934   0.29198738   0.18475673 
 2014000    502.58732   -7308.9372   -1133.7757   -1205.6961   -6254.1944    5469.9769 0.0051821483   0.29198271   0.18470843 
 2016000    510.38962   -7309.7138    -1814.185   -260.50545   -5632.5527    4278.6214 0.0051884941   0.29190736   0.18475037 
 2018000    491.70919   -7310.6806   -1044.7916   -1351.7427   -5154.6752    4144.0105 0.0051841071   0.29190246   0.18478245 
 2020000    481.55261   -7310.5209   -2711.5072   -583.47697   -5505.9028    6055.5871 0.0051839357   0.29189821   0.18484709 
 2022000    537.24855   -7308.9368   -1383.3874   -872.99955   -3669.2677    1527.5807 0.0051958481   0.29187937   0.18482761 
 2024000    503.18711   -7310.9666   -1382.3889   -701.75223   -8340.3842    6240.0096 0.0051887237   0.29185573   0.18479513 
 2026000    514.78416   -7309.4856   -2480.0719   -2326.9331   -5491.2709    1925.3115 0.0052048963   0.29185566   0.18482719 
 2028000    491.82965    -7311.219   -3483.1385   -1084.1602   -6565.5402    4140.6119  0.005225419   0.29189188   0.18481699 
 2030000    470.26135   -7308.6864   -3191.3954    455.27073   -4535.6024    4673.1437 0.0052193027   0.29183643   0.18484299 
 2032000    488.89587   -7309.0838   -4605.9958   -2538.9458   -4828.8302    4713.2574  0.005217145   0.29180167   0.18482205 
 2034000    528.12046   -7310.9027   -5940.0624     365.6512   -4928.6821    6215.9216 0.0052262944   0.29180639   0.18486984 
 2036000    519.58132   -7307.7523   -5358.9004   -1798.0814   -4696.0132     5417.503 0.0052252727     0.291738   0.18494409 
 2038000    463.95967   -7307.9948    -7047.189    313.93985   -8471.7017    4990.2713   0.00524786   0.29175618    0.1849914 
 2040000    516.36563   -7309.9922    -2991.179   -828.56571   -3113.8359    5362.1245 0.0052596212   0.29184579   0.18498633 
 2042000    480.63897   -7309.1157   -3559.3366    139.10554   -3589.6623    4626.4646 0.0052708926   0.29182676   0.18496031 
 2044000    510.60004   -7308.3429   -377.25959    1273.3433    -6303.208    7676.5829  0.005271706   0.29174133   0.18500625 
 2046000    490.13862   -7309.2912   -951.55543   -1397.6839   -6549.0285    6660.6108 0.0052646679   0.29171143    0.1849739 
 2048000    470.96164   -7310.5384   -2669.4777   -3844.9091    -6365.985    5477.5071 0.0052693667    0.2917452    0.1850023 
 2050000    473.98804   -7308.9425   -2801.8251    81.694692   -6354.4328    5563.5655  0.005286899   0.29176584   0.18503558 
 2052000     483.5104   -7309.4315    -3297.209   -692.70591    -4755.469    2313.0987 0.0052940709   0.29175675   0.18500423 
 2054000    478.60119   -7311.1912   -3566.0036    2041.6954   -5862.3944    3200.8045 0.0052913323   0.29172488    0.1850297 
 2056000    523.71392   -7308.1773   -1389.7903   -3207.4964   -6288.9838    1880.3572 0.0052872421   0.29171336   0.18501282 
 2058000    463.91367   -7310.3656   -3272.6111    500.92434   -4321.8125     3626.335 0.0052885441   0.29168431   0.18499656 
 2060000    479.13794   -7308.9578   -3708.0657   -3804.1081   -4451.3313    6600.0299 0.0052861439   0.29163211   0.18498699 
 2062000    502.13033   -7310.9656   -3565.5313   -779.45366    -6565.505    4573.7089 0.0052877811   0.29161785   0.18501121 
 2064000     467.7582   -7307.9294   -2408.7746   -1154.7418   -6403.7684    4374.1602 0.0053024215   0.29162852   0.18501102 
 2066000    510.86025    -7310.729   -3689.6648   -447.12898   -5113.8106    4055.6605 0.0053204624   0.29161993   0.18503746 
 2068000    480.15463    -7309.799   -2611.7291     1145.802    -7389.528    5497.6651  0.005326001   0.29160152   0.18504065 
 2070000    497.31112    -7311.571   -3963.8282   -1441.1328   -5645.6338    5885.9783  0.005321003   0.29160829   0.18502629 
 2072000    506.67951   -7308.8493   -3774.0519    1489.6952   -5461.6753    5677.2372 0.0053177097    0.2915919   0.18503099 
 2074000    499.45975   -7309.7247   -3418.3469   -319.36532   -3659.5988    4142.7441 0.0053128921   0.29152284   0.18502513 
 2076000     485.8359    -7310.877    -3692.138    567.37719   -8649.2159    4036.7546 0.0053095062   0.29153174   0.18495661 
 2078000    486.73712   -7308.8034   -4465.5635   -853.68282   -4921.5726    2884.7745 0.0053155629   0.29149935   0.18496893 
 2080000    500.74178   -7308.9373   -5791.3116   -1309.6881   -5700.9212    6057.1128  0.005336203   0.29144556   0.18497915 
 2082000    500.66606   -7311.0942   -6772.2353    1840.0306   -8161.2512    4631.9788  0.005334415   0.29145843    0.1850288 
 2084000    494.26182   -7309.3715   -4497.4733   -867.43494   -4056.7378     5126.369 0.0053388395   0.29147632    0.1850733 
 2086000    513.53189   -7308.7973   -4995.7006   -2001.9084   -6408.8498    5223.7593 0.0053570464   0.29144525   0.18507693 
 2088000    438.00511    -7309.542   -2398.3398    1697.5052   -6116.8505     5127.833  0.005361564    0.2914469   0.18506584 
 2090000    471.12072   -7307.7616   -6411.6544   -1948.3192   -5020.6362    5827.4738 0.0053573567   0.29137601   0.18502836 
 2092000    509.20804   -7310.1542   -4930.4261   -2174.8438   -6155.7292    2411.6953 0.0053522193   0.29131905   0.18500902 
 2094000    506.01688   -7311.2731    -3964.299   -4603.0839   -7034.4053    3035.3789 0.0053596474   0.29133712   0.18502037 
 2096000    497.77548   -7310.5593   -3997.7071   -2211.1874   -6588.2413    8058.4911 0.0053749642   0.29133364   0.18511711 
 2098000    487.36527   -7310.3394   -3918.2583   -1443.9001   -6432.0864    5740.6599 0.0053769346    0.2913561    0.1851326 
 2100000     504.6144   -7310.0235   -3896.3992    -39.79444   -7411.0514    5234.3523 0.0053834469   0.29133295   0.18510603 
 2102000    511.40644   -7308.1516   -2408.9402    1838.3549   -6685.2188      5182.07 0.0053878182   0.29129266   0.18507566 
 2104000    494.24938   -7310.5584   -5678.6231   -563.50601   -6783.0253    5234.4746  0.005382244   0.29128942   0.18503674 
 2106000    504.00748   -7307.4213    -4071.258   -1004.7371   -5079.9273    5410.0079 0.0053809084   0.29123378   0.18506732 
 2108000    523.83828   -7309.2908    -4088.964   -1435.8706   -6876.2922    4842.4171 0.0053950094   0.29121472   0.18514743 
 2110000    525.19315   -7309.2051   -1347.1686   -2950.7712   -5796.8667     3252.549 0.0054115113   0.29122598   0.18514779 
 2112000    488.36243    -7310.875   -2476.0595   -2215.2571   -2272.8893    3582.9309 0.0054148316   0.29123985   0.18514904 
 2114000     504.6185   -7309.6888     -3745.05    1336.4966   -5828.1644    6193.7251 0.0054174298   0.29118152   0.18522525 
 2116000    514.84513   -7310.1411   -3461.8217   -122.17253   -5260.3041    4021.4356  0.005412106   0.29116528   0.18519714 
 2118000    480.37715    -7308.464   -3330.3666   -1320.7399   -7804.4169     5878.045 0.0054069628   0.29115403   0.18515395 
 2120000    493.91986   -7309.6392   -1528.9705    -910.2395   -3381.2262    3736.6895 0.0054036945   0.29108189   0.18516138 
 2122000    497.41949   -7310.1297   -3922.8338   -3674.8474   -6585.4449    7972.7235 0.0054122239   0.29106463   0.18513881 
 2124000    544.17273   -7310.2618   -5425.6575    71.442227   -6171.7264    6203.6235 0.0054235254   0.29113847   0.18519681 
 2126000    474.82066   -7309.6541   -3618.2113   -2101.7906   -5254.1671    3862.7286  0.005435637    0.2911254   0.18526659 
 2128000     466.5602   -7307.8844   -4354.9575    1977.9937   -3791.4011    4622.9188 0.0054306748   0.29112977   0.18527501 
 2130000    463.58205   -7310.3285   -5391.0122   -2572.0816   -7321.2293    5458.2951  0.005432417   0.29109026   0.18525232 
 2132000    498.93408   -7308.2059   -3549.9868   -365.30436    -4523.645    4120.0195 0.0054379631   0.29108618    0.1852372 
 2134000    513.35477   -7310.4591   -3604.6481   -961.08715    -5976.482    6632.2289 0.0054398486     0.291035    0.1852153 
 2136000    504.24647    -7310.246   -4545.9314    98.464868   -6554.4972    6395.4364 0.0054530158   0.29103972   0.18524148 
 2138000    520.72554   -7309.5844   -4616.2671     926.7443    -4117.733    3568.0904 0.0054435992    0.2910022   0.18532111 
 2140000    519.01243   -7308.0454   -4586.3345    -3396.293   -6610.0349    6570.5814 0.0054415305   0.29098597   0.18533001 
 2142000    503.28637   -7308.7172   -5666.8908   -1529.8916   -4673.6916    1722.3356 0.0054612906    0.2910173   0.18529508 
 2144000    484.14371   -7307.8469    -6861.866    908.87157   -4673.2138     5357.136 0.0054611056   0.29102251   0.18527667 
 2146000    509.69255   -7309.2166   -7698.6459   -2422.1902   -6964.1428    2944.3807 0.0054637329    0.2909844   0.18528606 
 2148000     506.1421   -7310.8472    -6150.262   -1783.9469   -7364.8185    4967.4734 0.0054653807   0.29097363   0.18535066 
 2150000    499.38214   -7308.9787   -6416.1436    404.85147   -5526.2193    3582.0462 0.0054609957   0.29092296   0.18537407 
 2152000    492.77603   -7311.3029   -6218.1562    1029.7252    -6520.857    3503.7239 0.0054564542   0.29089235    0.1853442 
 2154000    501.03983     -7310.48   -3786.3562    1164.3935   -5950.4625    2828.7217 0.0054523309   0.29088773   0.18530759 
 2156000    515.41241   -7309.4604   -4897.7839   -1175.2994   -6422.6753    6282.2503 0.0054501994   0.29090115   0.18529942 
 2158000    510.63526   -7307.4849   -6109.3974    3029.4911   -4646.7374    5157.8815 0.0054504949   0.29090513   0.18533976 
 2160000    479.18501   -7307.9777   -3351.9904   -966.38023   -3744.4787    3299.3461 0.0054457063   0.29099036   0.18532684 
 2162000    495.06926   -7308.8136   -2376.7904    758.87457   -6089.7662    6560.0442 0.0054420081   0.29094358   0.18528669 
 2164000    507.31868   -7306.8967    -2253.136   -3389.2462   -5510.7639    5348.4116 0.0054349022   0.29096018    0.1852874 
 2166000     481.5397   -7308.3909   -3352.0143    1206.5591   -2912.0335    5082.9699 0.0054289214   0.29094532   0.18528429 
 2168000    481.88197   -7308.6866   -3535.6184     1560.895   -6079.3737    3987.8658 0.0054230228   0.29092367   0.18532757 
 2170000    515.30027   -7309.2148   -1502.1558   -2441.3158   -6491.1377    3021.8312 0.0054278283   0.29096216   0.18524988 
 2172000    488.38671   -7311.2925   -4915.9684    380.55905   -6875.6824    3204.9326 0.0054380207   0.29102651   0.18520346 
 2174000    506.34985   -7309.4457   -3128.0849    2163.4963   -5673.3838    6810.5772 0.0054331524   0.29106593   0.18521993 
 2176000    480.57141   -7310.8214   -6993.1469   -2263.0155   -6404.1077    2599.9277 0.0054279102   0.29106046   0.18524631 
 2178000    487.14225   -7309.9745   -4560.8196   -913.64648   -5246.2117    7950.2182 0.0054218153   0.29101037   0.18531447 
 2180000    501.39969   -7308.5762   -6062.1369   -1649.2578     -6921.17    1461.2363 0.0054178973   0.29105109   0.18535547 
 2182000    489.04429   -7307.5086   -5155.5626    313.76838   -6433.2334    1964.6467 0.0054143581   0.29104295    0.1852834 
 2184000    502.36007   -7310.6243   -7574.7772   -1069.2172   -6631.8152    4173.5313 0.0054094039   0.29108576   0.18521832 
 2186000    508.32706   -7309.9209   -5363.9988    1833.8781   -6809.0055    4938.4076 0.0054060243   0.29108917    0.1852538 
 2188000     544.6659   -7310.1516   -9247.4338   -3114.3612   -7692.4871    3843.5629 0.0054063554   0.29113834   0.18530197 
 2190000     481.7199   -7311.1101   -5470.2046   -90.135862   -5431.6423    1918.1184 0.0054083756   0.29117129   0.18533302 
 2192000    465.37041   -7309.3912   -5278.9397     -1951.46   -6424.0323    4041.9007   0.00540598       0.2912   0.18533171 
 2194000    510.99902   -7309.8648   -3841.9442    861.43358   -4174.3573    2741.1967 0.0054070131   0.29122953   0.18529063 
 2196000    519.49038   -7309.4401   -6485.9529    987.14203   -7400.9604    3251.5827 0.0054024617   0.29122701   0.18526509 
 2198000    517.13943   -7310.0001   -4832.9114    2720.1829   -4731.3477    3477.0982 0.0054022046   0.29123884   0.18525819 
 2200000    477.60756   -7310.1373   -6332.0311   -1902.4235   -7994.8956     6486.618 0.0053943906   0.29123396    0.1852427 
 2202000    507.20589   -7309.9185   -6404.7664    -2838.041   -9012.1922    4808.9433 0.0053967639   0.29124606   0.18526482 
 2204000    509.90207    -7309.502   -5662.9935   -672.00597   -9195.9785    4604.4876 0.0054076656   0.29128628   0.18533461 
 2206000    510.35424    -7310.562   -5606.4439   -1742.6834   -6989.7486    2275.9265 0.0054072121   0.29135854   0.18529558 
 2208000    513.98002   -7309.1714   -5260.6614     918.0655    -5360.474    3344.3611 0.0054047199   0.29131946   0.18527183 
 2210000    486.64207   -7309.4537   -5781.2873   -201.06391   -5788.5168    3409.0457 0.0054033259   0.29131912   0.18524319 
 2212000    523.05781   -7308.9323   -6997.8616    2597.5712   -6852.8975    2403.3159  0.005397733    0.2912977   0.18524338 
 2214000    516.17672   -7308.5146   -6664.0051    648.03602   -5988.6216         2308 0.0053924846   0.29132482   0.18523893 
 2216000    518.26371   -7308.5493   -5358.7056   -329.69754   -5504.1084    5341.2033 0.0053895386    0.2913218   0.18524996 
 2218000    507.66358   -7312.0291   -7121.6714   -3762.2976   -6209.4515    3738.0039 0.0053923294   0.29131848   0.18529814 
 2220000    499.81453   -7307.2825   -2267.6694    31.821045   -6881.6043    2576.5281 0.0054315242   0.29142507   0.18527597 
 2222000    484.73591   -7309.6294   -4415.9439   -584.00336   -3536.8413    6495.3271 0.0054293046   0.29143228   0.18527275 
 2224000    510.92269   -7309.1592   -2843.2463   -1857.9986   -6654.4042    4894.5653 0.0054221588   0.29141348   0.18525805 
 2226000    520.70139   -7309.5099   -3052.7118   -2467.0313   -4244.1903    5775.5076 0.0054198188   0.29148444   0.18526008 
 2228000    470.46102   -7309.4838   -4662.3292    185.08984   -6081.0833    5303.9255 0.0054211336   0.29144675    0.1852787 
 2230000     490.5593   -7308.9279   -2974.9093   -2291.6775   -6019.2199    5583.6335 0.0054149711   0.29147275   0.18527243 
 2232000    508.74856   -7307.2529   -2654.4493   -713.81964   -5987.0359    5290.3583 0.0054115666    0.2914758   0.18528084 
 2234000    498.91591   -7311.6801    -6917.863    2036.0034    -8387.717    5846.0795 0.0054069332   0.29148594   0.18526582 
 2236000    493.96464   -7311.0203    -6777.035   -1422.5504   -6747.2822    4868.2826 0.0054020057   0.29150514   0.18527216 
 2238000    462.99328   -7309.8241   -6030.6396    160.97536    -7166.362    5250.7626 0.0053997205   0.29152663   0.18527372 
 2240000     513.7502   -7308.0751   -5088.0693   -2847.2531   -6407.0127    6667.1066 0.0053969774   0.29147231   0.18526943 
 2242000    510.92525   -7309.8944   -3648.7748   -655.02406   -7365.9977    3997.0797 0.0054064404   0.29150613   0.18523957 
 2244000    479.38406   -7309.7413   -7539.2814    380.54048   -6014.0289    7860.5862 0.0054057365   0.29148962   0.18527887 
 2246000    498.29797   -7311.3909   -6293.4324   -2068.5618    -3822.805    4871.1002 0.0054008752   0.29150577   0.18530353 
 2248000    490.74692   -7309.2517   -5324.4573    2713.5024   -3154.2166    3393.7098 0.0053973792   0.29155694    0.1852286 
 2250000    497.07172    -7311.252   -5329.9716    -871.7186   -3679.9641    6051.9912 0.0053923117   0.29149258   0.18522057 
 2252000    472.70517   -7309.6954   -4383.5544   -1218.0148     -4739.79    2765.5956  0.005388399   0.29154447   0.18520798 
 2254000    498.90311   -7310.2001   -2914.7216   -3318.9755   -4895.3249    4967.4873 0.0053895099   0.29158664   0.18527875 
 2256000    532.34189   -7308.3388   -4615.7325   -3352.5723   -7152.4965    4674.8963 0.0053902123   0.29158547   0.18528821 
 2258000    510.42928   -7306.2546   -2457.8458   -116.00412   -9734.9223    3687.2862 0.0053934987   0.29163077   0.18526313 
 2260000    483.61525   -7310.0747   -4695.3107   -2262.8247   -7520.4853     6074.204 0.0053889935    0.2916931   0.18525421 
 2262000     494.9804   -7308.5785   -6705.8846   -910.91031   -7262.0029    3755.0186 0.0053835223   0.29168881   0.18524231 
 2264000    543.95317   -7309.0949   -2775.6499     139.4391   -7191.9678    5653.3799 0.0053798815   0.29163063   0.18521785 
 2266000    525.61821   -7310.5996   -5394.5587    253.55703   -7303.6097    6021.6323 0.0053783932    0.2916771   0.18522429 
 2268000    481.33544   -7308.9857   -6619.8795   -157.63375   -6218.7488    7026.2482 0.0053695605   0.29166561   0.18529143 
 2270000    518.01181   -7309.6462   -2928.2718   -1478.7974   -6219.5487    5017.5727 0.0053699879   0.29167113   0.18532305 
 2272000    504.00763   -7308.4924   -6662.2568   -345.70365   -7344.2041    4290.9247 0.0053713871   0.29170969   0.18534359 
 2274000    518.19481   -7309.0561   -2783.1171    -547.5209   -3313.0037    6778.5827 0.0053704616    0.2917449   0.18529124 
 2276000     519.5266   -7310.6275   -5113.4713   -1128.1488    -4629.112    6626.6067 0.0053674544   0.29172475   0.18529175 
 2278000    508.14067   -7309.9794   -5671.0539   -2489.0338   -5601.0503    5370.1382 0.0053638465    0.2917195   0.18529231 
 2280000    485.78621   -7307.7891   -4239.3302   -1144.5486   -4080.3609    6289.8058 0.0053595847   0.29175924   0.18529859 
 2282000    513.48445   -7310.6282   -5153.6329   -1287.4957   -5799.8563    5992.4479 0.0053554387   0.29178787   0.18532621 
 2284000    525.26714   -7308.5902   -3121.4042   -206.14215   -5901.8704    8168.8253 0.0053511392   0.29174907   0.18531597 
 2286000    501.83241   -7310.7109   -2847.3442   -2651.5985   -9405.8755    4843.3961 0.0053480206   0.29167645   0.18532189 
 2288000    496.47239   -7310.1794   -6757.6464    831.00883   -7614.7951    5445.9737 0.0053615704   0.29180429   0.18528759 
 2290000    525.10102   -7310.6994   -2365.3447    766.01114   -4813.0117    1004.8526 0.0053648113   0.29184502   0.18530832 
 2292000    512.25668    -7310.368     -5765.04   -2319.6074   -8358.2579    2867.2891 0.0053682352   0.29181881   0.18532583 
 2294000    500.06125   -7310.0472   -4485.9561    938.93185   -7178.5073    4943.9001 0.0053654506   0.29183456   0.18531899 
 2296000    499.96423   -7308.8445   -1909.9237    219.06781   -7073.3513    3623.7988 0.0053630468   0.29182061   0.18535271 
 2298000    486.01511   -7310.7115    -4106.235   -1064.8589    -7065.575    4422.1601 0.0053583206   0.29182572    0.1853624 
 2300000    486.49206   -7309.0618   -771.83488   -400.58139     -6624.61    7438.1249 0.0053546752   0.29181983   0.18537162 
 2302000    534.42262   -7310.4256   -3776.0394   -340.70878   -5938.6134    3791.3779 0.0053516682   0.29188211   0.18539743 
 2304000     490.2594   -7310.3298   -2340.9226   -2279.3459   -7403.2569    4312.9638  0.005354042   0.29191958   0.18537117 
 2306000    478.04586   -7309.4418   -3142.5523   -1205.3463    -5396.863    5368.0707 0.0053522036   0.29195132   0.18535056 
 2308000    475.56135   -7309.9076   -3605.8948    1320.6672   -5028.3297    6669.4985 0.0053500901   0.29193461   0.18530333 
 2310000    502.50768   -7310.1288    -5116.474    -2705.437   -6703.6387    6828.6993 0.0053471991   0.29191997   0.18539117 
 2312000     499.2459   -7309.6939   -5856.3083   -1523.3183   -6844.7933    3011.2199 0.0053611573   0.29200211   0.18545659 
 2314000    503.82214   -7308.5832   -5475.9088     2913.223   -9002.5748    6730.8683 0.0053608404   0.29205056    0.1854377 
 2316000    521.32016   -7307.4863   -5638.9468   -1412.5852   -9155.3089    3878.0464 0.0053573402   0.29206109   0.18542686 
 2318000     529.4682   -7311.2561   -7255.7805    2938.2323   -4710.2848    5534.1388 0.0053544709   0.29203002   0.18537982 
 2320000    506.19597    -7309.523   -3978.6347    835.01199    -7594.896    6763.1825 0.0053500795    0.2920294   0.18532656 
 2322000     506.0286   -7308.1886   -4581.0492    487.72103   -5295.0501     6201.967 0.0053436691   0.29204607   0.18538754 
 2324000     495.4653   -7309.9198   -5378.4776   -1853.6432   -5588.2667    9213.8127 0.0053531048    0.2920914   0.18541548 
 2326000    494.07584   -7309.1163   -3848.4509   -1600.3093   -7102.6236    4997.5087 0.0053702981    0.2920697   0.18547453 
 2328000    481.85972   -7309.8063   -6252.3681    2080.6731   -6237.0947    2793.0451 0.0053662579   0.29214742   0.18546653 
 2330000    492.21906   -7309.2776    -6128.467    902.35523   -3256.3843     4791.011 0.0053616744   0.29217716   0.18543298 
 2332000     466.8165   -7310.4765   -5032.3664    610.12545   -4374.4327    3402.5774 0.0053564037   0.29214972   0.18537763 
 2334000    478.76646   -7308.7639   -2438.2966   -1768.9348   -6005.5162    7699.1741 0.0053523925   0.29213027   0.18537474 
 2336000    512.80654   -7308.8789    -5142.919     -976.765    -5114.992    2308.1262 0.0053478759   0.29213497   0.18543892 
 2338000    474.08811   -7309.7569   -2159.1543    -631.4329   -5711.5967    4439.3009 0.0053440249   0.29215807   0.18543626 
 2340000    458.22086   -7311.1447    -4189.992   -3096.6438     -5262.49    5961.1172 0.0053517835    0.2921826   0.18544454 
 2342000    476.78475   -7312.0062   -5090.2797   -1071.3697   -6439.7052    1780.7436 0.0053573633   0.29215525   0.18545135 
 2344000    507.59531   -7309.1487   -4235.3874   -1285.2041    -7015.914    6269.0427 0.0053526611   0.29219117   0.18539835 
 2346000    465.55617   -7310.0737   -5016.9774   -778.57743   -5839.5087    5323.9869  0.005347767   0.29220642   0.18537132 
 2348000    484.98493   -7310.4733   -2604.3942   -3597.7647   -6419.2723    6632.8721 0.0053520186   0.29228682   0.18536995 
 2350000    468.57911   -7310.6194   -3465.5968    1477.4638   -3916.8562    4456.4915 0.0053548398   0.29229025   0.18540023 
 2352000    490.84923   -7308.2404   -3401.2019    1424.6796   -4444.7668    4832.4664  0.005352162   0.29226863   0.18537946 
 2354000     484.4339   -7309.6836   -2542.6921   -3614.2791   -5106.6482    2432.9337 0.0053484051   0.29230204   0.18536777 
 2356000     509.5028   -7308.6527   -3159.0308    1231.0913   -4348.6403    6605.5969 0.0053481136   0.29235835   0.18536536 
 2358000    478.88321   -7309.2363   -3246.4672    -1333.068   -3718.2248    2558.0115  0.005345894   0.29231028   0.18536724 
 2360000    465.59517   -7309.9488    -3490.486    -2583.396   -7817.3547    5070.6294 0.0053479412   0.29233351   0.18535505 
 2362000    517.40402   -7308.9864   -3293.1209    -1019.092    -6103.739    3230.6453 0.0053450355    0.2923681   0.18539734 
 2364000    529.31512   -7310.8394   -1557.7464    183.81093    -7903.544    5115.6798 0.0053409981   0.29238126    0.1853903 
 2366000    498.90906   -7310.2765   -5178.3992   -1392.6687   -3095.3126    2353.6785  0.005338525   0.29233693   0.18540175 
 2368000    481.44032   -7311.0205   -2027.0803   -171.94802   -7896.9255    2858.8302  0.005332768   0.29228743   0.18539626 
 2370000    521.52934   -7311.2619   -3632.1754   -828.18772    -7865.316    1587.7866 0.0053294194   0.29239282   0.18534536 
 2372000    522.62088   -7310.1937   -4430.6278   -303.60046   -8340.1269    5607.9389   0.00532648   0.29240922   0.18534818 
 2374000    545.07075   -7310.9461   -6337.1463    2835.4329   -7185.2525     4418.718  0.005323827   0.29240921   0.18536994 
 2376000    488.47212   -7309.0012   -5200.9991   -329.73422    -8136.056    3654.0635 0.0053177221   0.29243444   0.18537313 
 2378000    471.54813   -7311.3014    -3973.617    -2896.086    -6929.204    7034.8629    0.0053195   0.29243314   0.18532605 
 2380000    481.69691   -7309.7006   -6989.6557   -472.86683   -6181.6322     8502.459 0.0053157613   0.29244803   0.18532964 
 2382000    484.70379   -7307.9865   -5495.2758   -836.05474   -5731.4005    3490.9016 0.0053387009   0.29252827   0.18538715 
 2384000    508.26358   -7310.4523   -7466.3267   -1962.8871   -4357.0445    4561.0069  0.005335464   0.29256256   0.18539794 
 2386000    475.66583   -7310.0528   -7401.3259    743.92147   -2216.0949    4230.5599 0.0053327614   0.29259148   0.18537901 
 2388000    498.47646   -7310.3875   -6955.3171   -1923.6935   -3915.4044    5430.7831 0.0053300271   0.29254473   0.18539612 
 2390000    486.89843   -7308.7259   -5775.2209    1210.4258   -5012.0732    6888.0465 0.0053264408   0.29256937   0.18538711 
 2392000    505.97189   -7308.7203   -4951.5612   -454.06937   -4364.7302    4085.2499  0.005323588   0.29258312   0.18539134 
 2394000    510.81699   -7311.3791   -4917.7071    -1284.656   -5419.4869    3907.9779 0.0053196759   0.29253124   0.18535433 
 2396000    495.68621   -7309.6858   -4473.7657   -2043.7102   -7597.7568    6982.1565  0.005320785   0.29259828   0.18532712 
 2398000    522.25358   -7310.9227   -5932.4521    123.29891   -7137.8782    2211.1047 0.0053208639   0.29258341   0.18532421 
 2400000    487.88475    -7307.326   -5606.2416    -1598.719   -5370.1608     4047.941 0.0053155546   0.29258577   0.18531375 
 2402000     495.0582   -7310.8685   -4210.0657   -1429.8415   -6901.8419    3468.5511 0.0053111646   0.29255027   0.18536366 
 2404000    467.06242   -7310.1487   -3532.5044   -3697.8313   -6464.5443    4058.6626 0.0053096315   0.29258329   0.18536482 
 2406000    498.21073   -7310.1093    -2952.545   -1182.7334   -5251.2356    3798.3599 0.0053059307   0.29259906   0.18533695 
 2408000    507.73872   -7311.5863   -6928.9624    404.55772   -4608.0447    3405.2325  0.005301753   0.29252089    0.1853279 
 2410000    468.48779   -7309.8551   -4975.3931    -3343.044   -6593.2008    2153.0553 0.0052976416   0.29253224   0.18532001 
 2412000    485.37215   -7311.6477   -7321.2461   -765.98153   -9261.3221    4243.0081 0.0052952945   0.29253917   0.18535018 
 2414000    496.36304   -7311.5398   -5859.4788   -89.347023   -5282.0966    4534.4222 0.0052949875   0.29257626   0.18535223 
 2416000    504.25488   -7308.2699   -4644.8773   -693.24954   -7954.9218    3885.0012 0.0052968966   0.29252198   0.18534356 
 2418000     513.0177   -7310.6507   -5087.3438   -1187.0132   -7815.8272    5555.6949 0.0052934144   0.29258712   0.18530856 
 2420000    506.86152   -7308.8531   -4823.5205   -1173.0713    -7084.893    5141.0216 0.0052891581   0.29259184   0.18531542 
 2422000    501.83999   -7308.8968   -3512.9828   -1187.2861   -6225.1961   -20.508297 0.0052841066   0.29260088   0.18529124 
 2424000    532.12692    -7310.554   -6833.7065   -2269.6726   -8245.6238     2617.371  0.005278847   0.29255251   0.18526493 
 2426000    528.78553   -7309.9399   -7465.0029   -3202.3084    -7535.803     4553.869  0.005274449   0.29257275   0.18526308 
 2428000    503.53157   -7311.3417   -7182.2734   -1411.0842   -6011.0367    5218.1094 0.0052807337    0.2926537   0.18528878 
 2430000    523.30067     -7310.23   -3352.7984   -181.26436   -7677.1197    3381.4803 0.0052743534   0.29262104   0.18532324 
 2432000    443.53204   -7308.7098   -4787.3788    719.04407    -1647.244     5323.801 0.0052714695   0.29265906   0.18530043 
 2434000    514.34099   -7311.1116   -2416.3794   -776.58872    -3375.827    5045.7307 0.0052670062   0.29267489   0.18526472 
 2436000    447.70794   -7308.7802   -4288.1556   -1473.7613   -4404.5978    4216.6708 0.0052629353   0.29266745   0.18522417 
 2438000    502.94251   -7312.7371   -4275.5452    2489.8159   -1816.3785      5424.68 0.0052613379   0.29266841   0.18522967 
 2440000    488.07742   -7309.0361   -4804.2874   -2490.9217   -4765.8372    1778.5332 0.0052563657   0.29267529   0.18526056 
 2442000    524.30004   -7308.6267   -3507.4124    974.81234   -6094.8445    4273.7692 0.0052515708   0.29268015   0.18528278 
 2444000    480.53747   -7310.6078   -4328.6146   -3801.8835   -4813.8499    1700.5405 0.0052479456   0.29267975   0.18523895 
 2446000    534.85221   -7309.8343   -2339.3195   -3680.6442   -7356.4326    6372.8241 0.0052489476    0.2926843   0.18524758 
 2448000    533.87647   -7311.4267   -1645.9828   -444.82722   -8842.8133    2573.7793 0.0052550665   0.29268754   0.18528483 
 2450000    505.07467   -7310.4218   -5151.5753   -4055.0862   -7480.6795    2891.8285 0.0052549405   0.29273819   0.18526791 
 2452000    490.83811   -7310.7384   -5216.5533   -1054.6356   -7212.0951    4243.2233 0.0052485855   0.29270816    0.1852726 
 2454000    462.56193   -7309.3529    -4859.679    650.05724   -2084.2342     896.5107 0.0052467404   0.29273466   0.18529893 
 2456000    500.40489    -7310.354   -4406.2172   -1803.7362   -8871.4292    5762.5523 0.0052415308   0.29265401   0.18526161 
 2458000    532.37404   -7310.2435   -2214.6735    635.38817   -6157.2161    4640.2323  0.005236246   0.29271331   0.18524659 
 2460000    496.03215   -7310.1854   -4963.8035    -1015.623   -5904.4195      4569.01 0.0052328727   0.29273358    0.1852248 
 2462000     507.6797   -7308.3481   -2029.0769    641.54652   -4561.8248    6341.9462 0.0052315633   0.29277933   0.18526589 
 2464000    493.19026   -7309.8727    -3729.201   -1157.2609   -4068.8928    6298.0627 0.0052359257   0.29278677   0.18526179 
 2466000    484.26968   -7308.1175    -4151.404   -638.76329   -5312.5831    5504.5468 0.0052260175   0.29278835   0.18524706 
 2468000    500.76966   -7310.3926   -2507.2485    356.89316   -6878.5771     3292.689 0.0052224839   0.29277548   0.18521005 
 2470000    466.90163   -7305.0866   -6852.1503    -1764.683   -4603.4408    4121.8753 0.0052211259   0.29278784   0.18521879 
 2472000    500.77805   -7309.6683   -2667.5537   -1422.1827   -8197.8067    3749.0348 0.0052207567   0.29275885   0.18525199 
 2474000    519.53894   -7309.9913   -4416.7526    620.77871   -7272.4623    2873.5463 0.0052246806   0.29284303    0.1852332 
 2476000    492.74774   -7309.4129   -6037.1818   -318.26153   -6244.1348     3251.346  0.005221307   0.29279908    0.1852051 
 2478000     513.9317   -7308.5815   -6830.0022    167.94282   -8680.4699    4890.3769 0.0052185393   0.29278842   0.18518182 
 2480000    480.51606   -7309.4241   -8521.1632    578.87728   -6815.3873    5792.5498 0.0052135577   0.29277471   0.18521472 
 2482000    515.86625   -7308.9849   -7196.9793   -1407.7778    -6277.182    5125.9901 0.0052138913   0.29277489   0.18522682 
 2484000    489.84425    -7309.565   -6488.3887    423.33963   -3530.2374    3937.1208 0.0052126948   0.29280143    0.1852424 
 2486000    503.36363   -7311.3493   -2507.1608   -1416.6964   -2526.0963     4032.077 0.0052126455   0.29277745    0.1852157 
 2488000    486.59913   -7309.8633   -5845.4716   -1580.8921   -3793.6308    6048.1551 0.0052100885   0.29276281    0.1851563 
 2490000    476.93701   -7310.6419   -5615.4868    923.70728   -3348.5591    6690.3639 0.0052066932   0.29280169    0.1852215 
 2492000    467.09078   -7308.8988    -7260.722    -1971.733   -5111.2427    4245.8038 0.0052030154   0.29280879   0.18522841 
 2494000    519.34074   -7310.7213   -5682.9601    1785.1567   -3906.7065    4344.3559 0.0052013833   0.29280908   0.18520277 
 2496000     503.9346   -7309.1543    -4449.178   -1671.7598   -5895.3457    4032.9072 0.0052030347    0.2928201   0.18517903 
 2498000    528.38414   -7308.7965   -6658.0025   -1513.0557   -4717.4503    5439.5611 0.0052034219   0.29284777   0.18521514 
 2500000    492.37576   -7309.8135   -2813.7009    363.59437   -4749.0884    5104.4745 0.0052016514   0.29286304   0.18522679 
 2502000    506.81066   -7311.2881   -3819.5778   -1920.8671   -5753.5293    5218.0114 0.0051981094   0.29280891   0.18522881 
 2504000    481.10232   -7308.4798   -3737.1307    762.30531   -5717.5103    6506.9067 0.0051950023   0.29283244   0.18522051 
 2506000    483.92016   -7310.7081   -6940.7143   -339.19207   -4497.2205    4284.7397 0.0051932454   0.29285979   0.18521452 
 2508000    511.04081   -7308.2067    -1945.047    292.63596   -4943.1672      5670.27 0.0051948587   0.29287142   0.18520606 
 2510000    513.45154     -7310.16   -5448.7363    315.90343   -3518.5342    5445.2564  0.005192697   0.29294262   0.18518028 
 2512000    492.23138   -7310.4339   -5057.9362    -534.5464   -3235.9983    6701.3048 0.0051883727   0.29293439   0.18518378 
 2514000    511.98576   -7309.9893   -3855.1073    1263.1266   -4127.8354    7728.8611 0.0051875435    0.2929465    0.1852052 
 2516000    512.94038   -7310.0401   -4549.8044   -1214.0711   -2777.5903    6665.1715 0.0051826088   0.29292809   0.18518346 
 2518000    502.20452   -7308.8846   -1488.9372    742.58069   -6969.1518    5266.2323 0.0051792543   0.29288213   0.18515641 
 2520000    471.78401   -7308.7602   -5252.2875   -115.70522     -5224.75    5609.0186 0.0051742586   0.29294219   0.18518369 
 2522000    511.76114   -7311.1062   -4145.2079    3241.1231   -5023.2738     5071.663 0.0051877962   0.29299763   0.18514563 
 2524000    503.93552   -7309.7864   -6004.5612    -2210.308   -2945.0759    3611.5942 0.0051776656   0.29296533    0.1851026 
 2526000    489.51009   -7310.1623   -4073.4567   -2001.4066    -8378.814    6053.3516 0.0051736747   0.29296886   0.18510901 
 2528000    481.99903   -7309.8182    -4337.416    77.591581   -6093.4277    6067.3799 0.0051724232   0.29300259   0.18517718 
 2530000    518.76636   -7307.9893   -2093.3259   -1316.5603   -6713.5283    3927.5768 0.0051675645    0.2929663   0.18517054 
 2532000    528.92798    -7308.997   -2111.9691   -1892.9952   -7132.4242     7545.885  0.005166031   0.29296645   0.18511837 
 2534000     487.4786   -7308.6021   -3348.1067   -1034.0763   -9534.0517    3998.3257 0.0051722228   0.29297958   0.18507895 
 2536000    469.72419   -7309.3793   -4488.1835   -1555.8245   -8406.3981    5804.6997 0.0051687098   0.29304346   0.18507135 
 2538000    465.43029   -7310.1144    -2959.207    2637.1748   -6191.7282    8261.8755 0.0051649883   0.29308259   0.18509224 
 2540000    534.94695   -7309.5346   -5741.5696   -1689.1597   -7982.9317    4676.8822 0.0051612049   0.29307717   0.18510365 
 2542000    487.12367   -7310.7924   -3245.1145    1742.7325   -7320.9559    6166.5585 0.0051578225   0.29306026   0.18511674 
 2544000    494.98161   -7309.0486   -3672.7341    -2643.291   -4362.6023    4102.8507 0.0051585157     0.293052   0.18511713 
 2546000    478.06145   -7311.5684   -3257.8242    2493.4562   -6038.1369    3347.6949 0.0051576096   0.29310402   0.18510049 
 2548000    474.97676   -7308.6048   -4157.7971   -1504.0811   -3972.9174    4418.4139 0.0051560107   0.29305923   0.18508558 
 2550000    502.17997    -7309.258   -944.26624   -852.83657   -5538.2741    2769.6367 0.0051506444   0.29309302   0.18504753 
 2552000    506.55491   -7310.5433   -1257.6918   -1567.6823   -9985.3071    1197.5859 0.0051469463   0.29308982   0.18507341 
 2554000    523.87021   -7309.8553    -1099.188    -2736.246   -5635.3799     2667.869 0.0051466195   0.29309757   0.18509638 
 2556000    471.00171   -7309.4623   -606.78754   -173.52821   -8569.8103    4206.5672 0.0051618931   0.29310948   0.18512391 
 2558000    563.64094   -7308.9943    45.009131    1170.0969   -4840.8234     4458.934 0.0051563744   0.29314309   0.18513226 
 2560000    525.77423   -7310.3293   -3259.2563   -3048.9769   -6615.3698    4523.2432 0.0051530232    0.2931483   0.18510091 
 2562000    457.51957   -7309.7976   -2567.1094    1041.6536   -6290.4225    4521.7207 0.0051503765   0.29318843   0.18507345 
 2564000    490.04554   -7309.2407   -5415.1403    150.51739   -4278.6218    8952.2741 0.0051466376   0.29315448   0.18508283 
 2566000     468.9885   -7308.5421   -5388.6426   -857.22669   -5645.9022    2978.7886 0.0051435313   0.29316182   0.18508144 
 2568000    487.37606   -7309.6137   -7307.5882    1653.7676   -7796.9765    9016.2201 0.0051496393   0.29320232   0.18505824 
 2570000    461.49508   -7309.5001   -5769.9053   -710.62055   -6297.5657    5658.8466 0.0051571299    0.2932495    0.1851003 
 2572000    505.41976   -7310.4879   -6548.3186   -1448.0527    -3364.007    4852.6609 0.0051554827   0.29329053   0.18508326 
 2574000    492.19666   -7310.2437   -4576.9364    1796.1211   -4779.1189    4490.8444 0.0051520069   0.29321582   0.18503969 
 2576000    480.92344   -7310.5023   -3235.5398   -573.54354    -6027.198    4813.6436 0.0051497223    0.2931906   0.18500954 
 2578000    514.46918   -7311.2436   -3713.6658   -2657.8584   -6314.7011    3511.8388  0.005150139   0.29331361   0.18502874 
 2580000    498.30092   -7309.8757   -2587.2826   -1795.4203   -7102.8804    7870.6341 0.0051535706   0.29328263   0.18502492 
 2582000    480.46725   -7311.9016    -1660.156    -2541.082   -7345.0532      7113.47 0.0051528667    0.2932808   0.18504935 
 2584000    489.87104   -7310.3076   -1860.1805   -965.03318   -8852.6818    5253.7484 0.0051516045    0.2932885   0.18503985 
 2586000    528.55827   -7310.6852   -3106.0872   -4375.9826   -8806.6414    10388.917 0.0051495085   0.29332302   0.18501218 
 2588000    472.22311   -7310.0862    -4936.439    558.42043   -8830.4476    3427.3675 0.0051462709   0.29329673   0.18499521 
 2590000    509.94824   -7310.3413    -5413.455   -3056.1968   -4300.6864    8267.0008 0.0051454672   0.29330762   0.18499213 
 2592000    501.85059   -7310.2018   -5896.6781   -1180.4713   -8792.6782    4774.4357 0.0051409911   0.29328076   0.18502272 
 2594000    445.40358   -7308.7772   -4603.7505    535.25846   -4111.2669    3444.1454 0.0051483322   0.29333241   0.18502776 
 2596000     523.7952   -7308.5109   -3968.6585   -206.08903   -5436.0746    2780.1966 0.0051615797   0.29331925   0.18501605 
 2598000    512.12094   -7309.2638   -5267.7239      629.129   -6654.6164    3054.3626 0.0051557859   0.29330621   0.18503646 
 2600000    528.94984    -7310.437   -1652.2989    1533.2264    -5927.181    3972.5665 0.0051561401   0.29333123   0.18503293 
 2602000    500.27927   -7308.3932   -5533.0343    -854.2962   -1708.2762     2374.457 0.0051529804   0.29332159   0.18501558 
 2604000    508.69022   -7311.0243   -4601.3513    178.05412   -8706.1611    3739.8149 0.0051588012   0.29334714   0.18498961 
 2606000    539.42505   -7309.2723   -4111.3542   -1786.0448    -4346.435    7068.9494 0.0051597601    0.2933416   0.18498348 
 2608000    528.74582   -7309.0061   -4696.5202   -1459.5543   -5076.7228    6349.2101 0.0051601645   0.29334645    0.1850322 
 2610000    510.45757   -7309.7588   -4294.6022   -461.60626   -5040.2082    7991.7565 0.0051602336   0.29336482   0.18502917 
 2612000    485.12457   -7309.4662   -3190.8219    103.55241   -3592.5581    6776.8929 0.0051564847   0.29337242   0.18505044 
 2614000     508.2381   -7310.5508   -5374.2178    2190.3545   -4482.2059      3141.35 0.0051524808   0.29340203   0.18502121 
 2616000    494.45854   -7310.0171   -3387.2574   -179.53159   -5181.4278    5407.5659 0.0051491025   0.29339895   0.18501662 
 2618000    530.67601   -7309.6445   -7180.4505    1990.7212   -6814.0257    4845.7614 0.0051465023   0.29340818   0.18498541 
 2620000    490.99901   -7308.1372   -6418.8259    735.68858   -5374.2788    3481.7117 0.0051439524   0.29338619   0.18501595 
 2622000    492.07477   -7308.1476   -6185.1385    1136.4599   -4371.9497    3428.3631 0.0051460631   0.29340523   0.18498967 
 2624000    487.50315   -7309.4802   -5598.0868   -438.30229   -5238.0936    5348.8414 0.0051428145   0.29338515   0.18501052 
 2626000    467.97108   -7307.4764   -2001.3992    1088.8274   -4434.2888    2665.0853 0.0051391379   0.29339938    0.1849975 
 2628000    553.86428   -7309.7124   -6676.7301   -958.90315   -7510.2786    5432.6559 0.0051392834   0.29339096   0.18500194 
 2630000    491.38202   -7309.5151   -5624.8549   -956.08905   -6662.2988    3796.8571 0.0051356107   0.29341527   0.18499516 
 2632000    503.62511   -7310.9967      -4255.6   -1673.4783    -9273.276    1773.4366 0.0051355177    0.2934646   0.18496316 
 2634000    501.95062    -7307.915   -3837.2825    2474.7795   -6726.3617    3554.4965 0.0051369481   0.29348362   0.18496196 
 2636000    540.70029   -7310.0662    -5810.072    661.91407   -5138.0384    5757.5484 0.0051336587   0.29346391   0.18497133 
 2638000    485.79864   -7308.0371   -1784.3566    564.28481   -9317.2422    6145.1141   0.00512885    0.2934262   0.18503067 
 2640000    506.20188   -7308.9801   -4660.7948   -1275.3862   -8227.1388    5014.8895 0.0051269166   0.29345669   0.18497705 
 2642000    494.80078   -7307.9085   -1809.1049   -992.93531   -5736.8553    3320.1844 0.0051276127   0.29352969   0.18493134 
 2644000    491.34183    -7311.232   -4771.6719   -2912.4171   -8688.1232    5779.2967 0.0051330488   0.29351503   0.18493626 
 2646000    472.13511   -7309.3757   -5965.6646    1542.5265   -6257.2265    5539.0585 0.0051302329     0.293527    0.1849663 
 2648000    473.93967   -7309.6165   -4907.2308   -1350.4185   -5908.2993    3159.0135 0.0051273837   0.29351742   0.18497946 
 2650000    516.41314    -7307.784   -4400.8295   -2480.4802   -5560.5779    6088.9263 0.0051249635   0.29353842   0.18498225 
 2652000    499.15799    -7309.323   -5388.7587   -2005.8009    -6222.865    4234.3318 0.0051283747   0.29354781   0.18497372 
 2654000    522.09722   -7309.8039   -3929.8152    -1717.256   -3382.6369    5214.2245 0.0051233221   0.29352428   0.18496664 
 2656000    461.46275   -7308.5064    -5824.733   -834.39622    -5442.449    7112.7225 0.0051213832   0.29354258   0.18497867 
 2658000    488.77805   -7308.0539   -4579.3401   -3130.7125   -4666.4072    2263.5788 0.0051277353   0.29357921   0.18500349 
 2660000    512.82417   -7308.3119   -7155.4115    1748.7245   -3420.2671    5504.6992 0.0051260622   0.29359189   0.18498013 
 2662000    532.19881   -7308.3358   -5725.6994  -0.67171836   -7859.5316    5909.2252 0.0051251197   0.29358461   0.18496992 
 2664000    493.51404   -7311.1327   -6839.2542   -237.40918   -3659.1349    3003.4682 0.0051204037   0.29350945   0.18499592 
 2666000    462.47145   -7308.6614   -4679.4609     274.5349   -7731.0974    7112.5055 0.0051168106    0.2935014   0.18495964 
 2668000     522.2202    -7310.417   -5879.4603    -2393.584   -6673.0454    3548.1058 0.0051146813   0.29353016   0.18495576 
 2670000    489.80824   -7308.7809   -6274.2814   -1121.2082   -5726.6847    4546.3218 0.0051154763   0.29352359   0.18494706 
 2672000    490.28231    -7310.442   -5628.3211   -380.42343   -7890.4925    3439.2196 0.0051194188   0.29356721   0.18496189 
 2674000    529.04532   -7310.2097   -3235.2716    2296.5084    -3404.222    1822.0754 0.0051203329   0.29358674   0.18495841 
 2676000    517.26344   -7309.0746   -7217.4418    1170.1466    -7150.727    1187.7333 0.0051167443   0.29355417   0.18496474 
 2678000    483.35706   -7311.6831   -409.34197    1126.4974   -4675.9876    3126.2414 0.0051133696   0.29360944   0.18496577 
 2680000    512.75699   -7310.5132   -5572.7682    476.81986   -3043.5044    2488.8121 0.0051114813    0.2935664   0.18494195 
 2682000    522.05475   -7309.0915   -1348.1448   -413.27713   -7361.7231    5824.9152  0.005107514   0.29354489   0.18494501 
 2684000    504.58562   -7308.9588    -3846.083    284.43138   -5980.8295    4266.5354 0.0051033656   0.29356951    0.1849052 
 2686000    502.57838   -7309.5666   -2860.2477   -182.32007   -5137.1165    2463.7091 0.0051057369   0.29363856   0.18490446 
 2688000    474.21465   -7309.3229   -3850.3206   -840.55887   -4119.5246    5229.1702 0.0051069943   0.29368354   0.18491825 
 2690000     505.3304   -7308.4368    -5003.131   -2725.7884   -5671.8041   -539.74409 0.0051046916   0.29366415   0.18490237 
 2692000    538.49131   -7309.2215   -3880.6129    2199.7439   -3703.7758    3075.0183 0.0051019334    0.2936167   0.18490044 
 2694000    543.50725   -7311.0052   -5654.9117   -1365.1946   -9598.7758    4854.4378 0.0050979712   0.29367736   0.18491377 
 2696000    568.04733   -7311.1804   -2191.3742   -1039.3678   -2312.4968    1856.5658 0.0050947291   0.29368703   0.18488423 
 2698000    520.93796   -7307.8555   -6162.7983    1502.0839    -6777.475    1710.0272 0.0050910695   0.29362184   0.18485708 
 2700000    502.65704   -7309.6829    -3987.957   -2599.3428   -5383.2857    4466.6468  0.005087682   0.29359616   0.18485164 
 2702000    500.58613    -7311.639   -6532.6067   -589.07631   -7307.8567     3398.456 0.0050875254   0.29372038   0.18487432 
 2704000    505.45257   -7311.5089   -5638.0006   -2321.3087    -6720.544     3309.779 0.0050880892    0.2937886    0.1848697 
 2706000    500.66749   -7311.7964   -6683.8663   -249.52854   -6503.7662    5159.9014 0.0050866389   0.29372647   0.18485383 
 2708000    477.47621   -7310.5482   -4622.1041   -1096.2413   -7325.0108     3637.756 0.0050848653   0.29372204   0.18484248 
 2710000    514.97986   -7308.5557   -7344.7622   -2177.0013   -6505.2836    4916.8299  0.005082523   0.29377902   0.18481144 
 2712000    525.19738   -7310.1738   -2505.4951    4433.9917   -5198.1597    2737.2545 0.0050799216   0.29377224   0.18483936 
 2714000     496.3671    -7309.376   -5222.3701   -1527.6866   -9706.6867    3677.4054 0.0050791433    0.2937714   0.18480079 
 2716000    499.24754   -7308.8885   -6633.2476    2064.9532   -7909.0719    4996.0287 0.0050807054   0.29375083   0.18484295 
 2718000    489.58857   -7308.5196   -5251.7719    1829.2369   -9959.0954    3782.9764 0.0050800946   0.29382961   0.18483581 
 2720000    524.47232   -7310.4182   -4827.6051    634.34804   -6540.7637    5787.9828 0.0050755703   0.29385308    0.1848135 
 2722000     496.0283   -7310.7027   -3730.5719    78.102535    -7846.046    3815.2285  0.005072173   0.29377385   0.18481151 
 2724000    500.78163   -7308.2079   -4154.8666   -1733.3471   -7003.5803    4042.3352 0.0050679009   0.29379582   0.18477928 
 2726000    532.88689   -7308.5343   -3717.6878   -1774.0854   -5740.9073    6105.4089  0.005064354   0.29379547   0.18477295 
 2728000    519.03326   -7309.9585   -4135.3941   -3582.7209   -4565.0972    5060.5363 0.0050697451   0.29383729   0.18479664 
 2730000    495.89363    -7308.878   -1345.3403   -148.22124   -6738.6537    4955.3156 0.0050670462   0.29382817   0.18479552 
 2732000     502.2481    -7308.861   -4477.6955   -3547.7441   -5838.1003    1143.8204 0.0050637318   0.29379696   0.18481369 
 2734000    477.87233   -7310.1061   -3421.5001   -803.68597   -5074.9746    3202.1758 0.0050598457   0.29382889   0.18474723 
 2736000    531.71451   -7311.2162   -4200.3816   -465.81592   -3968.0792    3285.4405  0.005056766   0.29383012   0.18474497 
 2738000     520.9321   -7310.6881   -2993.3389    209.22941    -5858.344    5280.4091 0.0050537658   0.29382183   0.18475238 
 2740000    522.13291   -7309.2223    -6043.591    1051.8137   -6515.7882    4262.7732  0.005051014   0.29382218   0.18475722 
 2742000    537.44556   -7309.5312   -2297.1859   -596.22454   -6958.2367    6337.4317 0.0050509423   0.29386296   0.18478532 
 2744000    485.12375   -7309.5854   -2181.5407    61.397711   -5520.1831    4168.1969  0.005049383   0.29386732   0.18474284 
 2746000    475.60411   -7308.5383   -3856.0472    3138.2653   -7238.7603     6484.357 0.0050458944   0.29387414   0.18471081 
 2748000    495.40848   -7309.6703    -4677.551   -1009.2365   -6695.2257    8122.0423 0.0050418725   0.29385416   0.18469403 
 2750000    511.64546   -7309.2072   -3855.3071    329.42224   -4332.2725     8351.282 0.0050382717   0.29385799   0.18474759 
 2752000     491.9096   -7310.5907   -3595.2513   -3690.3066   -9040.8359    6086.4476   0.00504443    0.2938974   0.18479247 
 2754000    499.22742   -7309.0836   -3546.7419   -675.26076   -4999.2983    4910.1168 0.0050502214   0.29391784   0.18477084 
 2756000    494.80825    -7311.798   -4128.4418   -1075.5307   -9556.5707    3711.8153 0.0050471967   0.29391687   0.18475506 
 2758000    453.71154   -7309.6065    -4175.028   -224.80363   -5147.6479    3893.3812 0.0050416657    0.2939284   0.18473247 
 2760000    491.98154   -7309.3506   -3377.2775    159.05937   -8062.9339    4454.2577 0.0050395732   0.29388994   0.18472477 
 2762000    509.87968   -7309.0881     -5415.76   -1657.5708   -5414.6601    4846.1194 0.0050377195   0.29392091   0.18472631 
 2764000    502.80154   -7310.1861   -3926.2155    1169.9348   -6609.0565    7246.8184 0.0050354259   0.29388653   0.18469419 
 2766000    525.06409   -7311.7289   -4514.6312    1534.1093   -8042.6903    7062.1878 0.0050317826   0.29390337   0.18472198 
 2768000    486.59534   -7310.5234    -4661.838   -906.12364   -5284.5537    4904.8877 0.0050419135   0.29393727   0.18471238 
 2770000    548.00868   -7309.4613   -3759.1464    2704.1666   -6373.5612    7150.6412 0.0050417164   0.29393042     0.184738 
 2772000    494.32421   -7310.9028   -1874.5051    1508.8263   -5432.1881    4179.1162 0.0050385527   0.29396028    0.1847073 
 2774000     487.9641   -7310.4601   -4124.5469   -420.69762   -6525.9927    6139.6153 0.0050354871   0.29393598   0.18470227 
 2776000    476.14781   -7306.8559   -1634.0768    476.48197   -5527.3887    6347.9073  0.005031611   0.29396708   0.18470811 
 2778000    478.38405   -7310.4308   -2577.5619   -1659.6096   -5957.0555    6539.4912 0.0050355601   0.29399472   0.18467636 
 2780000    489.86078   -7308.0966   -3952.9581   -2144.4315   -4793.2146    5549.3963  0.005034071   0.29397211   0.18470243 
 2782000    503.93745   -7309.9334   -6098.0811   -221.98163   -6179.7008    4551.2166 0.0050440216   0.29399801   0.18472506 
 2784000    509.79195   -7310.2306   -4019.3543    547.13216   -3198.1569     1005.429 0.0050412892   0.29399301   0.18473458 
 2786000    513.78029   -7310.2956   -2757.0211   -62.504987   -6346.0975    5672.0436 0.0050415736   0.29401883   0.18473537 
 2788000     502.0177   -7309.1496   -3169.6583   -59.325176   -5777.9129    4761.8941 0.0050394299   0.29402604   0.18473513 
 2790000    509.45726   -7309.4795   -1689.0388   -162.89506   -5543.1569    3253.2819 0.0050385096    0.2940223   0.18471711 
 2792000    482.37755   -7308.5809   -4142.0135    2872.3002   -3515.1523    2458.4847 0.0050347611   0.29404411   0.18468804 
 2794000     515.8416     -7309.14   -3106.6201    786.32591    -4710.623    5415.8314 0.0050316942   0.29402452   0.18470518 
 2796000    504.65094   -7309.1259   -1538.2496    2659.5053   -4458.7957    4400.4562 0.0050282823   0.29406911    0.1847814 
 2798000    498.70625   -7310.4873   -4512.5656   -2920.6047   -6249.8111    2811.8633 0.0050267034   0.29407279   0.18476137 
 2800000    480.46095   -7311.2552   -4978.1127    1154.1872   -3829.0691     5144.284 0.0050355654   0.29409117   0.18474155 
 2802000    524.19368    -7309.627   -3314.7885    86.447158   -6596.9963    3681.6688 0.0050359732   0.29413211    0.1847806 
 2804000    489.35592   -7310.1591   -5394.6702   -1912.0614   -5409.9434    4682.1069 0.0050369416   0.29414854    0.1847722 
 2806000    533.57025   -7310.8594   -4219.9545    4184.0508   -4837.4087    4513.9888 0.0050336733    0.2941223   0.18474414 
 2808000     522.5428   -7309.7831   -4125.8366   -2917.7201   -5211.7473    6726.2568 0.0050327215   0.29411278   0.18469939 
 2810000    502.53704   -7308.8619   -5842.3944    -2110.925   -4704.0964    5655.8822 0.0050422824   0.29417301   0.18471278 
 2812000    499.29055   -7310.2686   -3273.5786    1888.8914   -7311.1228    5395.0529 0.0050494092   0.29419366   0.18479695 
 2814000    484.26282   -7310.3683   -4281.3316    -1391.253   -3143.1661    7639.1549  0.005042427   0.29420404   0.18476713 
 2816000    542.95764   -7310.8873   -1047.9254    1429.6663    -7124.785    1241.0379 0.0050380365   0.29420128   0.18474207 
 2818000    481.18547   -7309.7972   -3283.5511     2144.349   -7136.5182    6984.0457 0.0050386095   0.29424593   0.18471278 
 2820000    486.42105   -7311.1762   -4138.8314    1584.2316    -3093.317    2647.1092 0.0050363684   0.29421502   0.18473235 
 2822000    450.92051   -7311.1643   -2175.5554    2678.6468   -5531.5394    3761.3206 0.0050308262   0.29415361    0.1847209 
 2824000    486.00935   -7308.4373   -3768.2979   -2049.8384   -6196.4949    6254.7126 0.0050282899   0.29416827   0.18471296 
 2826000    517.16637   -7306.4062   -2192.8086    892.79659   -7622.3583    5825.7462 0.0050389272   0.29426868   0.18473637 
 2828000    506.42021   -7309.0873   -2715.2239   -708.87307   -5273.5472     4346.609  0.005060777   0.29430895   0.18473255 
 2830000    469.16681   -7310.0727    -3775.108    1044.1722   -4743.4944    7073.2564 0.0050571566   0.29429762   0.18470067 
 2832000    510.65838   -7309.4164   -3558.5289    412.76862   -5295.8159    7046.1443 0.0050550452   0.29431879   0.18472036 
 2834000    525.04642   -7310.4903    -3691.875    3081.0999   -4326.7226    4188.0358 0.0050545293   0.29429709   0.18472879 
 2836000    488.21597   -7310.9426    -3670.311    -2626.957    -6712.479     6999.166 0.0050511651   0.29428695   0.18474186 
 2838000    485.21007   -7311.5069   -5016.9189    571.29844   -4893.9712    5959.9863 0.0050512182   0.29428837   0.18468915 
 2840000    509.43813   -7310.5133   -5038.7033   -504.33368   -6308.5099    8593.5484 0.0050484001   0.29433407   0.18467198 
 2842000    495.09831   -7308.5759   -4816.6532    796.83673   -4628.1131    3424.2745 0.0050466492    0.2943557   0.18470729 
 2844000    509.43511   -7310.7453   -2244.8116   -1505.0399   -6333.7258    6147.2636 0.0050503238   0.29437481   0.18471432 
 2846000    508.11623   -7308.9086   -1797.1441    77.336126   -3881.2239    2142.2106 0.0050519472   0.29437466   0.18469816 
 2848000     469.8229   -7310.6178   -3851.7134    1701.5256   -7537.5277    4953.4331 0.0050487182   0.29436521   0.18469935 
 2850000    491.24401   -7310.3884   -2147.6857    475.85339   -8005.8206    7365.2855 0.0050453256   0.29433755   0.18467648 
 2852000    459.31841   -7308.7258   -6651.5952   -1171.5009   -4898.3018    6784.3203 0.0050434729    0.2944094   0.18470353 
 2854000     499.8127   -7309.0456    -4946.291   -1048.4726   -7015.8377    10675.435 0.0050425362   0.29442021   0.18469253 
 2856000    519.27289   -7309.4444   -3077.8801   -2087.4974   -7375.1016    4565.9035 0.0050410676   0.29440832   0.18472007 
 2858000    470.44958   -7309.0723   -3281.8431   -1706.0308   -6548.1369     7254.704  0.005037236   0.29445366   0.18466726 
 2860000    517.54881    -7307.525   -4686.2358   -2119.3367   -6278.0952     6116.005 0.0050445623   0.29448134   0.18466567 
 2862000    464.99659   -7309.6693   -5327.0091    -991.3159   -5899.4834    2867.7547 0.0050415324   0.29446514   0.18467809 
 2864000    508.80369   -7310.8658   -1699.5176    1032.8233   -10163.241    3906.0422 0.0050406037   0.29444262   0.18468768 
 2866000    491.61402   -7310.2573    -3732.308   -1350.2682   -7929.8985    3343.0025 0.0050376558   0.29441746   0.18467739 
 2868000    476.86978   -7308.6353   -3393.0548   -2776.2865   -7187.2614    4326.4621 0.0050387811   0.29443542   0.18465553 
 2870000    516.69244   -7307.9926   -1690.7949   -2317.8882   -7145.5179    4765.6941 0.0050382104   0.29447297   0.18464888 
 2872000    504.17367   -7308.4467    -2785.276   -36.369157    -6646.326    5201.0659 0.0050365054   0.29448728   0.18463485 
 2874000    501.19723   -7310.0179   -1673.2743    -2051.693   -9880.8163    4610.5228 0.0050344724   0.29447851    0.1846552 
 2876000    519.23731   -7309.4458   -3829.1409    178.77198   -6381.9013    2608.3171 0.0050311763   0.29453515   0.18466877 
 2878000    511.69647   -7309.2413   -6113.1883   -1106.1425   -7885.4278    4474.1568 0.0050310399     0.294541   0.18466071 
 2880000    497.33851   -7308.9911    -4130.899    870.05503   -7762.1517    4092.8864 0.0050262501   0.29449087   0.18461742 
 2882000    522.31691   -7310.1225   -6940.8719    1082.2972   -8324.0564    5916.7442 0.0050228024   0.29452009   0.18458666 
 2884000    482.39999   -7309.2037   -5682.8782    1306.5848   -5221.5502    5711.0191 0.0050343275   0.29459259   0.18463491 
 2886000    474.92137   -7308.0645   -6678.4548    3476.8043   -5710.8502    5519.7478 0.0050328007    0.2945794   0.18464023 
 2888000    495.79661   -7309.5294   -4901.3531    1156.4449   -3021.5976    2364.6704 0.0050318004   0.29455703    0.1846319 
 2890000    478.28211   -7308.8875   -3817.6654    44.195553   -6915.1266    6503.1885 0.0050297273   0.29456328   0.18461551 
 2892000    521.34082   -7309.4896   -6346.6323      1604.04   -4233.3086    4002.6604 0.0050280069   0.29456664   0.18463399 
 2894000     512.5567   -7309.1515   -5253.0584   -3210.4261   -7597.0999    6921.8414 0.0050237443   0.29461667   0.18462964 
 2896000    525.02191   -7309.1604   -4189.7235   -1308.6753   -7127.9891    6641.9087 0.0050349484   0.29464922   0.18464048 
 2898000    513.41102   -7309.3606   -3025.6886   -371.89616   -8452.1252    6998.9529 0.0050449736   0.29459634   0.18466398 
 2900000    517.12812   -7308.5793   -5446.3189    489.92408   -9161.8709     5222.257 0.0050448517   0.29467725   0.18465309 
 2902000    518.29889   -7311.0891   -6098.4751    653.46113   -5292.7984    6224.2501 0.0050412922   0.29470501   0.18467121 
 2904000    554.84645   -7306.9461   -5144.2776   -1774.4062   -6508.8324    3808.2323 0.0050400385   0.29467334    0.1846657 
 2906000    511.54357    -7310.408   -6934.5769    410.80224   -5512.3654    2058.3855 0.0050357478   0.29469485   0.18464919 
 2908000    522.63026   -7310.4678   -4791.8552   -598.78751   -6199.5821    2584.6361  0.005036638   0.29467323   0.18460894 
 2910000    549.31828   -7307.4385   -4117.0912    1357.0844   -5283.4613    6733.5657 0.0050358797   0.29472496   0.18460768 
 2912000    511.10497   -7310.6445   -8015.9921   -1764.8678   -6970.6186    3844.1302 0.0050319944   0.29469827   0.18463171 
 2914000    505.79368   -7309.8047   -5539.7228   -885.31158   -7722.4052    6025.8107 0.0050382475    0.2946796   0.18469202 
 2916000    464.80639   -7310.0968   -5068.2453   -1050.9738   -7016.3089    3953.2942 0.0050473826   0.29473448     0.184713 
 2918000     537.4787   -7311.5541   -2019.8333    28.155636   -6718.2215     6152.419 0.0050509082   0.29473901    0.1846706 
 2920000     492.2425   -7308.9172   -2953.0782    525.46109   -7794.2912    3373.6088 0.0050457332   0.29472263   0.18466848 
 2922000    488.52216    -7310.822    -1979.591    -2631.873   -4055.4204    5430.9118  0.005044223   0.29474587   0.18461426 
 2924000    518.87889   -7309.3009   -5944.9745    495.25513   -7521.4627    4214.5317 0.0050495893   0.29467067   0.18461383 
 2926000       479.06   -7309.4159   -5515.4743    684.08179   -6371.5627    5426.0377 0.0050492223   0.29466625   0.18465845 
 2928000    492.90702   -7311.4278   -5927.4753    -183.0004   -5575.0399    3593.2064 0.0050459119   0.29470943    0.1846802 
 2930000    466.02887   -7309.5305   -3691.8801   -2286.8121   -7080.3085    3526.5295  0.005052256   0.29471262   0.18467059 
 2932000    556.20518   -7308.9244   -5435.4694   -416.38652   -5129.7837    4598.5856 0.0050672798   0.29477043   0.18463643 
 2934000    507.44357   -7311.1103   -5354.0597    3096.8286   -7377.7922    6518.4479  0.005065202   0.29477644   0.18466598 
 2936000    541.20119   -7308.7167   -7006.8728   -241.01514   -3477.5845    4116.3877 0.0050612471   0.29479875   0.18466906 
 2938000    531.58974   -7308.1954   -6274.8647    3601.6909   -5673.7313    5490.1565 0.0050592299   0.29479843   0.18467011 
 2940000    510.38947   -7309.5937   -6648.1569    507.71765   -8058.0629    3139.1477 0.0050568652   0.29476954   0.18469357 
 2942000    494.39069    -7309.382   -3900.7109   -339.21042   -5486.0944    5039.8049 0.0050538301   0.29475892    0.1846669 
 2944000    513.57031   -7307.2524   -5730.0263   -227.45104   -9286.3826    5764.7674 0.0050606698   0.29477288   0.18465311 
 2946000      479.412   -7309.1639   -5448.2669     975.7382   -6137.5003    5355.4475 0.0050609348   0.29482237   0.18466037 
 2948000    463.24624   -7310.2212   -3136.9908   -1580.1724   -8267.2875    9367.1002 0.0050579544   0.29487417   0.18468358 
 2950000    484.44612   -7310.0088   -1115.9499   -226.48362   -5944.3765    3098.6218 0.0050591664   0.29488004   0.18470516 
 2952000    545.51922   -7310.3913    -2156.419   -681.01031   -8632.9609    5986.8483 0.0050545761   0.29485918   0.18467698 
 2954000    486.33386   -7310.1267   -2677.4194    1410.0533   -6045.6477    3418.7663 0.0050517176   0.29486243   0.18465699 
 2956000    489.29015   -7309.9389    -2541.656   -1634.7052   -5914.4572    3882.8958 0.0050601413    0.2948762   0.18468171 
 2958000    514.61754   -7311.2951   -2613.9135    2709.8654   -8291.0907    3308.0963 0.0050588043   0.29485962   0.18468768 
 2960000    502.10524   -7309.5004   -1413.7662    993.68428   -6116.4772    3661.7342 0.0050582303   0.29487381   0.18469213 
 2962000    453.84119   -7310.8704   -3953.5187   -98.552806   -7139.6983    4103.7099 0.0050557413   0.29489641   0.18470316 
 2964000    559.85734   -7308.0005   -1639.0243   -532.45952   -8791.4456    1477.9535 0.0050530986   0.29484448   0.18467678 
 2966000    464.51684   -7310.4136   -4564.6459   -2001.1717   -7109.9312    4992.5638 0.0050612642   0.29485147   0.18468839 
 2968000    484.00643   -7308.9809   -6145.9052   -498.98506   -6762.3044    5649.4046 0.0050729165   0.29490057   0.18468415 
 2970000    523.72605   -7311.0307   -2485.2707   -4284.6244   -4504.3513    1232.9904 0.0050686601   0.29490611    0.1847113 
 2972000    520.36046   -7309.1736   -3387.3868    1658.6358    -5626.011    9222.6233 0.0050717175   0.29493476   0.18469181 
 2974000    520.76221   -7308.4212   -5878.8672   -741.10443    -2127.121    3170.0784 0.0050671973   0.29493867   0.18469491 
 2976000    512.13677   -7309.2975   -2245.8845   -719.72462   -5072.7061    5626.8533 0.0050690479    0.2949022    0.1846807 
 2978000    499.41259   -7310.1786    -2914.287    -944.6066   -8944.6181    5120.2398 0.0050645986   0.29492186   0.18470628 
 2980000    504.12021    -7309.374   -3091.2944   -1390.0947   -3757.9702    2645.9181 0.0050731184   0.29496222   0.18471329 
 2982000    482.69552   -7308.9232   -1215.7651   -2867.5964   -9901.0525    3076.4234 0.0050716676    0.2949192   0.18472203 
 2984000    489.23805   -7307.1167   -4568.5799   -332.17048   -3451.5627    2455.8705 0.0050723918   0.29494289   0.18476084 
 2986000     485.3723   -7309.8404   -5217.0543     1125.877   -7221.7983     5019.023 0.0050746821   0.29496357    0.1847994 
 2988000    490.73935    -7309.675   -4707.2262    980.50877   -5716.4399    4461.4399 0.0050704705   0.29496802   0.18482617 
 2990000    486.87407   -7309.0764   -4139.6083   -1815.0531   -6626.2608    1961.3031 0.0050674417   0.29496443   0.18478004 
 2992000    491.60647   -7308.7766   -6882.4491   -664.51279   -5735.7994    5381.0391 0.0050637261   0.29495674   0.18479391 
 2994000    477.21981   -7309.8748    -4518.393   -1915.8529   -5236.1106    2871.8281  0.005060632   0.29495894   0.18480303 
 2996000    484.69231   -7309.2542   -3690.9725   -3601.6525    -5965.858    6821.2775 0.0050588279   0.29494742   0.18478813 
 2998000    516.07148   -7309.7235   -4793.2294    289.76549   -3646.7204    4509.7807 0.0050589638   0.29498994   0.18478308 
 3000000    525.10508   -7308.4917   -3150.4548   -3407.8329   -8606.6116    4413.5943 0.0050587898   0.29496921    0.1847894 
 3002000    509.50006   -7310.2884   -4793.4176    1128.2361   -4327.0213    1562.9404 0.0050605758   0.29503961   0.18478306 
 3004000    531.35613   -7309.1943   -4633.2227    248.50925   -6669.1982    3586.5273 0.0050563986    0.2950111   0.18473585 
 3006000    484.13457   -7309.6442   -4566.4232   -258.28257   -6224.8336    2796.8155 0.0050528031   0.29503508   0.18476069 
 3008000     511.1834   -7309.8478    -7131.662   -684.65316   -5255.3343    1202.0355 0.0050493644   0.29502557   0.18477654 
 3010000    528.97338   -7312.2894   -7280.0246   -1481.5422   -6120.1364    1697.7669 0.0050461669   0.29505497   0.18478465 
 3012000    481.08574   -7309.9794   -7083.6301    -895.4729   -6105.1598    4436.9211 0.0050437196   0.29501651   0.18477484 
 3014000    500.61249   -7309.6486   -7363.3949   -575.37991    -6338.032    2453.5846 0.0050395308   0.29501479   0.18475024 
 3016000    500.41349   -7307.7006   -5310.5233   -1924.4638   -7052.4977    4917.0574 0.0050387794   0.29501659   0.18474059 
 3018000    486.30663   -7309.0196   -5306.9908   -833.57991    -6364.055    7350.5486 0.0050376644   0.29503409   0.18472903 
 3020000    520.93772   -7310.8976    -5984.543   -983.78358    -3822.602    5349.4682 0.0050439009    0.2950563   0.18474036 
 3022000    492.18795   -7311.0661   -4661.4919     398.9744   -5885.3025    4811.8304 0.0050429862    0.2950556   0.18473909 
 3024000    532.59488   -7309.3653   -5394.8723   -1973.7926   -5912.6519    3168.9405 0.0050413922   0.29508418   0.18471944 
 3026000    475.16498   -7308.9221   -1753.3205   -775.97651   -6069.4588    4228.3926 0.0050389963   0.29506102   0.18470941 
 3028000    493.66629   -7310.0733   -5013.4066   -1650.0972     -6902.93    1850.9716 0.0050365387   0.29501829   0.18467407 
 3030000    528.84095   -7309.6745   -3383.1975    834.82209   -8087.0659    4354.2135 0.0050358159    0.2950463   0.18468401 
 3032000    526.63352   -7307.6711    -3609.762   -3701.8251    -10487.75    651.68444 0.0050336624   0.29504525   0.18472185 
 3034000    470.27664   -7309.4554   -3904.2412   -1339.4796   -8354.9858    3309.0936 0.0050600427   0.29507771   0.18470736 
 3036000    467.03552    -7308.004   -3656.5057    -1946.784   -9401.5805    2413.3676 0.0050646374   0.29512556   0.18470155 
 3038000    506.81307   -7310.9668   -2604.5387    2003.9206   -6493.7401     3083.352 0.0050617645   0.29511747   0.18468063 
 3040000     526.0733   -7308.9957   -5622.6826    1085.0416   -4329.2317    7600.2045 0.0050584937   0.29510394   0.18467285 
 3042000    505.52121   -7308.7147   -1758.1101    1643.0095   -5585.2514    3937.8552 0.0050558495   0.29506983   0.18467596 
 3044000    483.54876   -7309.8869   -5364.1765   -711.75675   -6327.4662    6583.9746 0.0050545753   0.29504579   0.18466391 
 3046000    487.52729   -7309.9412   -3809.8138   -2372.0194    -6178.045     5216.623 0.0050516765   0.29506325   0.18464429 
 3048000    498.44468   -7308.2177   -1610.2587   -1717.8012   -7792.5668    4288.0259  0.005061599   0.29510527   0.18464174 
 3050000    506.08848   -7309.2555   -4966.0211   -306.37961   -7111.8397    4031.6851 0.0050698973   0.29514592   0.18467005 
 3052000    493.65309   -7309.4654   -4111.1183   -3753.7162    -4716.795    6458.6994 0.0050706137   0.29516567   0.18468342 
 3054000    496.02196   -7311.5196   -4795.0114    1897.9621   -8176.8358    3518.7886 0.0050684014     0.295111   0.18468009 
 3056000    508.64236    -7308.361   -932.61166   -2056.9517   -7245.8508    4373.5564 0.0050641141   0.29511112   0.18465761 
 3058000    521.49617   -7308.9697   -5353.0774   -206.51351    -6968.636    3709.3747 0.0050608114   0.29509145   0.18461817 
 3060000     542.7206   -7308.2547   -4994.5369    -887.4204   -6326.1684    7888.7228 0.0050566325   0.29509671   0.18463363 
 3062000    504.07106   -7309.4847   -6609.4369   -1153.4754   -9034.5563    3291.5671 0.0050585363   0.29511412   0.18467174 
 3064000    486.25512   -7310.5589   -4373.4142    908.58959   -7315.3152     8229.782 0.0050630259   0.29517714   0.18463059 
 3066000    519.27513   -7310.8288   -4869.1019   -1382.2529   -7697.4286    2629.0442 0.0050605248   0.29520061   0.18463921 
 3068000    491.93635   -7310.4752   -5731.0411    832.47673   -3690.8095    7182.7489 0.0050570578   0.29515865   0.18462291 
 3070000    474.42101   -7310.1296   -5582.3265    1296.3657   -7638.0242    3466.1223 0.0050546874   0.29512642   0.18461669 
 3072000    500.77003   -7309.3938   -4435.5648   -3499.1052   -5215.3004     4019.872 0.0050518892     0.295134   0.18459427 
 3074000    509.41965   -7310.9384   -2591.4739   -1631.7056    -6624.701    6518.8723 0.0050516047   0.29516174   0.18458651 
 3076000    475.90399   -7310.1631   -2709.8606   -1096.5264   -6035.6051    2771.2558  0.005055589   0.29519564    0.1845807 
 3078000    525.09471   -7310.1031   -428.52186   -1372.9977   -6289.2131    5004.2307   0.00505603   0.29518603   0.18459208 
 3080000    515.65622   -7311.9855   -3592.9867   -4082.7747   -7264.3687    5670.1959  0.005053701   0.29516494   0.18460577 
 3082000    475.29759   -7309.7882   -3196.3558   -1776.7794    -5976.579    2246.1862 0.0050532508   0.29521657   0.18460768 
 3084000    480.11332   -7310.0781   -4582.7268    1439.7158   -5959.8651    6704.0949 0.0050510724   0.29524466   0.18456959 
 3086000    484.15039   -7308.7229    -2613.065   -483.97502   -5393.6996    177.92133 0.0050476865   0.29520902   0.18458441 
 3088000    489.24029   -7309.7344   -5103.0241    2409.1748   -7054.6283    3369.8132 0.0050451507   0.29517817   0.18454685 
 3090000    477.21126   -7310.0014   -4802.5172    -166.2624   -7269.5849     4853.007 0.0050437292   0.29521215   0.18458152 
 3092000     518.0998   -7309.1421   -2972.4084    2831.9059   -7274.4801    4602.7355 0.0050424709   0.29523658   0.18457285 
 3094000    469.80456   -7308.5468   -5460.8009    -1870.707   -4556.5401    7799.0154 0.0050414968   0.29521245   0.18458592 
 3096000    469.70719   -7310.1957   -3760.9328    3888.1468   -3548.8027    5644.3766 0.0050384344    0.2952095   0.18457197 
 3098000    487.73442   -7308.9285   -5047.0029    -475.2686   -4024.2075    5667.1474 0.0050350849   0.29521377   0.18457517 
 3100000    467.76134   -7310.4942   -2885.7746   -3198.9608   -4806.2813    5627.3171 0.0050351454   0.29523191   0.18458987 
 3102000    518.65341   -7309.8856   -6746.0418    2244.4782    -5606.652    1157.1812 0.0050388637   0.29526047   0.18456601 
 3104000    478.22775   -7308.8575   -4362.5948   -2362.9028   -5869.4516    4441.2156 0.0050397974   0.29530411   0.18457984 
 3106000    532.29203   -7307.7706   -5094.7531   -92.645712   -5670.4392    3316.6136 0.0050395417   0.29532221   0.18461671 
 3108000    502.49851   -7310.0591    -4845.299   -15.471053   -4080.6065     1537.982 0.0050358768   0.29530092   0.18457336 
 3110000    524.44203   -7309.9236   -5565.3494    3643.3419   -10679.709    3049.4126 0.0050336962   0.29532159   0.18458573 
 3112000    506.86965    -7309.985   -3085.1261   -399.94595   -4789.4818      2124.62 0.0050295132    0.2953659   0.18457479 
 3114000    530.70987   -7308.9969   -3848.1171   -973.42776   -4064.0015    3837.0318   0.00502586   0.29532982    0.1845576 
 3116000    521.46178   -7308.8297   -4727.0701    613.67547   -7616.5666    6092.6196 0.0050316062   0.29532814   0.18458019 
 3118000    498.32614   -7306.7251   -3014.4815   -747.18172   -5931.1455    3783.6404 0.0050325172   0.29539048   0.18460548 
 3120000    478.15866   -7310.1675   -658.29402    2336.5329   -6318.5071    3815.9304 0.0050296802   0.29538729   0.18459001 
 3122000    513.53909   -7312.1842   -1994.0647   -1501.5722   -4779.4427    7318.9218 0.0050318834   0.29539237   0.18457051 
 3124000    522.41521   -7310.2521   -5778.8588    1645.6107   -4738.0061    4689.2377 0.0050308011   0.29542848   0.18456783 
 3126000    477.53473   -7311.3177   -3159.3618    54.659825   -5047.4682    4951.0329 0.0050294286   0.29539204   0.18457098 
 3128000    490.69436   -7308.3123   -4411.1582    660.81638   -6987.1435    2738.9541 0.0050270931   0.29537963   0.18456055 
 3130000     477.0949   -7309.9579   -3729.4865    587.40807   -7030.4085     6866.741  0.005023525   0.29541601   0.18457629 
 3132000     510.6662   -7310.9826   -5414.7863    56.279013   -6362.1121    3472.6314 0.0050201704    0.2953806   0.18456199 
 3134000    548.57112   -7309.0878   -3307.9124   -4072.1153   -7407.7143    5011.4044 0.0050218577   0.29537655   0.18456615 
 3136000    536.10194   -7309.6397     -4895.69   -999.46397   -7853.2467    4889.3566 0.0050538287   0.29541261   0.18458926 
 3138000    479.16256   -7310.4421   -2657.1614    1406.3127   -3970.5868    4493.1846 0.0050495299   0.29544739   0.18459297 
 3140000    494.24215   -7309.7969   -3223.4313   -2362.3108   -7181.8763    7184.4239 0.0050467045   0.29544565   0.18456875 
 3142000    483.35446   -7311.3676   -4889.0699    2143.2757   -3847.5515    3616.6087 0.0050466508   0.29541802   0.18457091 
 3144000    506.46191   -7309.7021   -2345.5675    162.54103   -5015.2413    6869.5308 0.0050476682   0.29540275   0.18455221 
 3146000    446.25826   -7309.6223   -3394.0594   -2117.8168   -7679.5511    5876.5238 0.0050420564   0.29540519   0.18455869 
 3148000    493.75879   -7310.8546   -1746.9077    2000.0192   -5464.3329    2517.9781  0.005042491   0.29539105   0.18459243 
 3150000    483.35991   -7310.7001   -4791.5753    212.19797   -5585.5192    6505.3552 0.0050394211   0.29545042   0.18458632 
 3152000    467.10997   -7311.2272   -1915.6499   -2378.5619   -6597.1839    5429.3472 0.0050388074   0.29544505    0.1845598 
 3154000    502.30263   -7308.1729   -2891.7496    943.35289   -6602.2908    4983.0175 0.0050379919   0.29544102    0.1845824 
 3156000    507.55387   -7311.8774   -1924.4199   -2926.3866   -6681.8163     6882.318 0.0050380659    0.2954462   0.18457776 
 3158000    490.35084   -7310.5657   -4761.7452    2303.5093   -6316.7625    7080.3633 0.0050336867   0.29543063   0.18456805 
 3160000    522.80623   -7308.7434   -4049.3622   -657.01376   -4851.6733    4388.7905 0.0050318095   0.29542629   0.18457612 
 3162000    500.42896   -7310.4381   -3293.1442   -1932.2442   -6008.0472    7524.1643 0.0050321234   0.29547783   0.18455806 
 3164000    519.63807   -7309.3246   -3321.4021    3524.9094    -3908.519    5479.9653 0.0050305539    0.2954473   0.18454713 
 3166000    498.75196   -7309.2549   -1674.5765   -2575.4758   -5387.4913    3166.6907 0.0050269441   0.29541471   0.18457338 
 3168000    488.08953   -7309.4129   -2250.1703    2732.7514    -6546.244    3716.0789 0.0050258356   0.29543072    0.1845685 
 3170000    507.02274   -7308.1331   -1843.5216   -3480.7737   -5360.9633    2722.3324 0.0050249874   0.29542615   0.18455769 
 3172000    495.08175   -7309.5561    -3585.748   -1337.4108   -5276.2254    5592.0112 0.0050336075   0.29544434   0.18453258 
 3174000    501.18684   -7309.8287   -2704.6469   -2292.9947   -5943.7984    7386.1357 0.0050418846   0.29544546   0.18455913 
 3176000    461.95635   -7311.2493   -4339.2153   -562.64048   -7701.1833    5419.5434  0.005038858   0.29550456   0.18457694 
 3178000    532.75375   -7308.7534    -4283.296    -588.0084   -5948.4835    7216.8941  0.005035876   0.29545785   0.18457485 
 3180000    522.48321   -7311.8944    -1642.395   -2663.3378   -6147.3085    2729.8876 0.0050328397   0.29543952   0.18458091 
 3182000      496.157    -7309.491    -2721.402     1347.731   -5801.0358    5774.7307 0.0050273883   0.29546696   0.18455763 
 3184000      478.882   -7310.5691   -4255.6113   -1636.4816   -5641.4839    5640.5463  0.005029304    0.2954595   0.18457534 
 3186000     479.7238   -7310.5276   -2741.3573   -2600.6517   -5474.5813    2150.2007 0.0050253283   0.29544448   0.18455709 
 3188000    478.78293   -7309.1274   -3745.9099   -1283.7632   -7335.0711    4124.2163 0.0050345598   0.29546136   0.18455391 
 3190000    479.69727   -7310.1028   -4219.3788   -2964.1632   -7620.2192    3810.2821 0.0050463139   0.29548114   0.18456643 
 3192000    532.29655   -7311.8013   -4646.8315     307.1336   -3254.2571    4982.2198  0.005041092   0.29552898   0.18456418 
 3194000    494.01308     -7309.32   -5061.4825    -1214.366   -7126.4835    4056.4236 0.0050387386   0.29549951    0.1845738 
 3196000    520.50982   -7308.6961   -5377.0346   -2460.7247   -4890.5551     5196.147   0.00503517   0.29548829   0.18460177 
 3198000    504.31673   -7308.9501   -4171.0741   -1693.8732   -7806.6241    5682.4304 0.0050316829   0.29549476   0.18457563 
 3200000    529.28132    -7311.736   -6189.5879   -100.48527    -2608.905     3355.003 0.0050278238   0.29551265   0.18452147 
 3202000    524.55277   -7309.0845     -5586.54    239.81248   -6121.5539    5876.6327 0.0050239326   0.29548555   0.18453954 
 3204000        475.2   -7309.6063   -6350.0292    656.59831   -4528.5208    3997.4482 0.0050217991   0.29548981   0.18458801 
 3206000     559.4374    -7311.547    -7823.747   -2828.7451   -7239.7587    5467.4668 0.0050228186   0.29552259   0.18460241 
 3208000    503.85971   -7308.4031    -4719.207   -3050.6359   -7347.8884    3143.2366 0.0050295765   0.29554905   0.18461373 
 3210000    496.15821   -7310.3074   -5590.7345    2568.4578    -7451.481    5080.6919 0.0050439711   0.29553804   0.18460325 
 3212000    506.26352   -7308.8044   -3443.8284   -2058.0683   -6981.0054    3855.0486 0.0050378835   0.29554583   0.18462325 
 3214000    492.68414   -7308.6564   -4328.7675    2911.0772   -7041.6238    2393.2122 0.0050376777   0.29551644   0.18458413 
 3216000    502.76524   -7308.8128   -5074.8279   -3128.8796   -7607.4481     5817.616 0.0050344914   0.29551362   0.18457565 
 3218000    517.91927   -7310.0548   -5801.7427   -1935.8578    -6627.687    2007.9003 0.0050355193   0.29549414    0.1845741 
 3220000    539.89116   -7310.5511   -4703.2351   -22.983098   -5703.0042    4574.7978 0.0050338809   0.29553461   0.18458559 
 3222000    504.80471   -7309.7795   -3377.4549   -1559.3042   -4413.4609     6748.128 0.0050416712   0.29555597   0.18461384 
 3224000    504.39968   -7310.3813   -4349.4568    2346.2152    -7352.433    2786.7569  0.005041783   0.29557329   0.18461957 
 3226000    481.48825   -7310.7023   -4624.3048    1883.2026   -6967.2842    4966.1027 0.0050385276   0.29556893   0.18458497 
 3228000    496.25123   -7309.4555   -2941.7449    -3095.859    -7209.846    4381.3431 0.0050362414    0.2955848   0.18455284 
 3230000    554.65219   -7310.0464    -5399.579   -1639.4522   -4044.2766    4310.0935 0.0050357165   0.29555426   0.18456459 
 3232000    511.86506   -7309.0347   -6268.3648    1469.8196   -7540.2942    5081.2313 0.0050329308   0.29555941   0.18460286 
 3234000    471.77957   -7307.8372   -4348.7012   -993.80128   -4217.1777    1434.0828 0.0050303728   0.29561176   0.18460105 
 3236000    478.41334   -7310.4228   -4042.4598   -900.52512   -6785.9114    1541.6268 0.0050376179   0.29560229   0.18457357 
 3238000    505.18497   -7309.9719   -2993.8526   -695.37559   -6002.3738    3983.9202  0.005037747   0.29556577   0.18457445 
 3240000    503.12673   -7308.9728   -3997.4344    391.92124   -5123.8315    2156.4175 0.0050362619   0.29561737    0.1845778 
 3242000    493.01093   -7309.3632   -1277.8973   -1513.3468   -5134.8395    3715.5509 0.0050365618   0.29561357   0.18460486 
 3244000    508.90931   -7309.1277   -6746.3656    -1343.437   -5737.0633    3979.4694 0.0050370051   0.29562127   0.18459809 
 3246000    478.71353   -7310.5279   -6242.4181    516.14436   -2584.1247    5092.9825 0.0050409918   0.29568819   0.18462172 
 3248000    480.41861   -7310.6267   -7647.0098    228.68016   -4016.9327    6320.1267 0.0050364188   0.29564092   0.18461096 
 3250000     531.6853   -7309.0868   -5610.9007    298.85917   -4358.9592    5515.3902 0.0050372114   0.29562232   0.18462607 
 3252000    485.80281   -7310.2642    -6897.081    470.32593   -5238.6016     7485.306 0.0050348767   0.29561935   0.18462363 
 3254000    502.26245   -7310.6145   -6883.3666    707.23343   -4632.7307    5171.3616 0.0050316069   0.29565264   0.18462808 
 3256000    529.61864   -7308.6159   -3642.8605    183.62163   -4689.4796    5576.2217 0.0050292244   0.29565605   0.18461985 
 3258000    482.37766   -7309.3877   -3269.6821   -463.40704   -5338.3371    4703.7329 0.0050271218   0.29561985   0.18461687 
 3260000    531.93033   -7311.9829    -4507.636   -525.39829   -6378.9329    4811.9935 0.0050282566   0.29566079   0.18464271 
 3262000    493.12687   -7310.4082   -3511.6106   -1481.3508   -6524.9592     6872.702 0.0050333289   0.29566913   0.18470386 
 3264000    523.97362   -7310.3578   -4061.5267    766.10341    -4286.335    223.54804 0.0050330076   0.29568255   0.18470109 
 3266000     481.5445   -7310.2131   -2714.1142     949.2901   -7170.1173    5706.7485 0.0050302188   0.29567415   0.18466649 
 3268000    503.51098   -7310.4311    -3544.975    -698.4153   -3995.6533    4111.8783 0.0050269862   0.29568886    0.1846735 
 3270000    459.70668   -7312.0494   -6141.8308   -1455.5985   -8014.8145    4719.3997 0.0050260698   0.29565714   0.18466984 
 3272000    514.85686   -7311.2124    -7144.112   -2296.9725   -5239.8599    6967.0357 0.0050229163   0.29566391   0.18466412 
 3274000    506.08846    -7310.043   -8198.2199   -4404.1468   -5973.8124    4751.9194 0.0050273756   0.29570026   0.18467125 
 3276000    480.33851   -7310.9694   -3703.5425    281.22626   -7253.9333    5399.2636 0.0050391647   0.29567917   0.18467362 
 3278000    512.66884   -7311.2325   -8291.3418    89.999706   -4174.8277    4331.0308 0.0050403946   0.29570494   0.18469126 
 3280000    483.96998   -7308.4174   -5544.6231    589.66861   -6863.3629    4567.7064  0.005037365   0.29571711   0.18468911 
 3282000    520.73088   -7310.6825   -5396.4586   -897.91101   -6218.2297    2528.7922 0.0050355875   0.29572799    0.1847024 
 3284000    461.61452   -7309.6054   -4704.2951   -2437.4851   -5069.7113    2749.6067 0.0050332156   0.29573465   0.18467615 
 3286000    471.62806   -7309.8604   -2605.1931    231.90713   -5707.2698    5020.3127 0.0050296269     0.295722   0.18466886 
 3288000    463.95144   -7310.5495   -6432.5415    -733.5823   -6283.2402     4874.436 0.0050294895   0.29574236   0.18469049 
 3290000    501.76152   -7310.1818   -3796.8848   -2137.7475   -7206.7801    6302.4063 0.0050314457   0.29572623   0.18470302 
 3292000     478.9114   -7310.0131    -7146.105   -200.66535   -7326.8579     4356.699 0.0050307246   0.29573377   0.18470209 
 3294000    517.76306   -7310.9904   -5191.3673   -1669.1534   -4626.4277    4995.6152 0.0050275398   0.29572657   0.18469148 
 3296000    533.34315   -7309.3243   -3624.3177     728.5089   -9133.5783     4053.067 0.0050268196   0.29573853   0.18468642 
 3298000    505.18233   -7308.5258   -3192.7611   -1342.6258   -4420.1147    5292.3927 0.0050298054    0.2957757   0.18467739 
 3300000    483.69779   -7311.0327   -4620.7855    744.07942   -4170.4965    4767.0793 0.0050272979   0.29577616   0.18468027 
 3302000    501.61281   -7309.0538    -6547.477    2536.7889   -7105.9731    6475.8037 0.0050304621   0.29575647   0.18466911 
 3304000    505.52787   -7311.8705    -7520.534    84.572966   -5552.5335    4773.9778 0.0050275763   0.29577377   0.18464312 
 3306000    482.88658    -7310.945   -4162.9434    2894.6845   -6487.6669    7116.0084 0.0050259224   0.29575672   0.18463502 
 3308000    486.74592   -7310.3933   -3642.8001    312.67536   -6488.6913    3064.9725  0.005023068   0.29579218   0.18463613 
 3310000    515.00968   -7310.5224   -859.11063   -2883.3512   -7706.2655    6352.0548 0.0050274677   0.29575701   0.18461661 
 3312000    477.19853   -7310.8371   -1136.3697   -700.28174   -4753.0876    4698.3307 0.0050324338   0.29576606    0.1846285 
 3314000    503.56476   -7309.4455   -2901.5266   -3134.0681   -10476.244    7091.7833  0.005037515   0.29577513   0.18463131 
 3316000    536.02724    -7308.136   -3652.6181   -1111.3236   -5246.7218    5642.2571 0.0050350702   0.29585067   0.18462231 
 3318000    520.93241   -7309.3878   -2822.8876    1470.8839   -7739.3054    7094.0887 0.0050334543   0.29582891   0.18462151 
 3320000    495.03867   -7310.1557   -3770.6166     111.2749   -6651.3287    5359.3984 0.0050314189   0.29580514   0.18460854 
 3322000    474.50194    -7309.726   -4114.4817    2602.6578      -5794.6    6981.7132 0.0050300736   0.29579348    0.1845808 
 3324000    506.91741   -7309.7325    -5905.262   -554.62307   -8154.5157    7452.8248 0.0050273873   0.29580161   0.18458085 
 3326000    507.63173   -7308.4653   -3096.5169    873.12428   -3997.7317    2912.4418 0.0050257313   0.29581861   0.18457961 
 3328000     498.5544   -7311.1148   -3604.1999   -379.98488   -5113.4993    6781.7203 0.0050250271   0.29581563   0.18457351 
 3330000     511.0035   -7309.2307   -7849.5504   -1108.6151   -6451.1385    5537.6085 0.0050243437   0.29583583    0.1845917 
 3332000    487.82621    -7309.152   -3409.1347   -1449.4816   -5896.4618    3398.2495 0.0050220813   0.29585579    0.1846097 
 3334000    474.62773   -7311.0977   -5261.6176    -149.4883   -5606.8789    4848.9254 0.0050221954   0.29584296   0.18459452 
 3336000     480.9857   -7309.3248   -2604.0399   -4003.2358   -7113.8601    5441.4975 0.0050173836    0.2958327    0.1845786 
 3338000    492.53146   -7309.5828   -2856.8946   -471.90513   -6612.5465    4613.1028  0.005013934   0.29584082   0.18457631 
 3340000    515.32829   -7308.7563   -3985.7968   -2233.5698   -4621.6222    4326.1403 0.0050112828   0.29582388   0.18455973 
 3342000    495.20311   -7310.2468   -1429.1537    842.82006   -3443.4489    4922.6644 0.0050086741   0.29581852   0.18456037 
 3344000    530.65432   -7309.6719   -3077.7643   -255.29025   -4463.4061    5086.6804  0.005012143    0.2959003   0.18458723 
 3346000    487.56337   -7309.6199   -2789.1012    1004.0615   -5295.7483    5480.3171  0.005012208   0.29588031   0.18459806 
 3348000     470.4932    -7309.043   -2789.2906    387.13107   -6480.5906      5685.63 0.0050126338   0.29588402   0.18457471 
 3350000    501.06021   -7308.8513   -5420.8295   -5.8341748   -7541.3309    6425.5892 0.0050097918   0.29591174   0.18454428 
 3352000    508.96273    -7307.907   -2577.7467    2691.9282   -4760.6039    6021.7646 0.0050069371   0.29589656   0.18455836 
 3354000    493.28359    -7310.844   -4057.0981   -636.81897   -6359.1091    4432.1612 0.0050047708   0.29587867   0.18456576 
 3356000    492.91551   -7309.7737   -5402.6227    1796.2269   -9761.2056    7499.4793 0.0050010165   0.29585095   0.18456522 
 3358000    506.23465   -7308.4201   -3919.2414    -1578.599   -5142.0691    2722.6748 0.0050000275   0.29589242   0.18460928 
 3360000    487.56212   -7311.4018   -6068.9447    -2723.358   -6334.0177    7598.2788 0.0050064358   0.29592816   0.18457966 
 3362000    505.03114   -7312.0672   -4100.4198    247.56505   -6122.6847    7995.5731 0.0050119315   0.29594661   0.18457413 
 3364000     486.3497   -7309.4595   -4352.2869   -1200.3091   -4722.3382    5352.9458 0.0050085708   0.29595738   0.18455917 
 3366000    512.51419   -7308.2274   -1326.2873   -1317.2613   -5564.3899    9076.6772 0.0050058786   0.29592195   0.18458408 
 3368000    530.32675   -7310.7185   -1430.6479    -194.0171   -3961.2445    5238.8109 0.0050029528   0.29588153    0.1846032 
 3370000    493.38494   -7310.0511   -2121.7985   -1418.8642   -4214.4979    5105.3814  0.004999436   0.29590894   0.18458862 
 3372000    500.17136   -7310.6472   -3783.2552   -904.27352   -6071.2999    4525.4423 0.0049956543   0.29593014   0.18457597 
 3374000    498.46745   -7309.0508   -1394.8006   -2899.9238   -4107.6675    5515.4736 0.0049942962   0.29593427   0.18457606 
 3376000    518.26786   -7307.9202    -1913.486   -4385.0475   -6792.6303     4678.474  0.004996694   0.29594258   0.18455346 
 3378000    507.00752   -7307.9278   -3600.1436    1916.2999   -4551.0272    6722.5369 0.0049986599   0.29596482   0.18455292 
 3380000    510.13501   -7310.8903   -4554.9569   -315.76332   -6376.0748    4879.1862  0.004994461   0.29596052   0.18454176 
 3382000    511.32536   -7310.1121   -3778.9228    883.43574   -3946.3423    3558.9069 0.0049930272   0.29596344   0.18453788 
 3384000    508.27746   -7310.5696   -4883.3761    1594.8144   -6289.5559    4720.4301 0.0049917987   0.29598151   0.18453862 
 3386000    514.06144   -7309.3456    -3909.153    1091.2545   -8257.8796    2006.0399 0.0049887508     0.295965    0.1845151 
 3388000    467.77975   -7310.6914   -3697.9344      2964.74   -3499.1875    6194.8618 0.0049848607   0.29599434   0.18451382 
 3390000    475.20344   -7310.4522   -3998.3938   -1053.1683   -9004.4237    6131.5939 0.0049827101   0.29596995   0.18451611 
 3392000    509.39006   -7309.6143   -2280.6574    2368.3334   -2142.4334    4592.2392 0.0049818216        0.296   0.18449328 
 3394000    486.15513   -7310.9301   -4649.2425     1659.678    -7773.745    4220.9654 0.0049857927   0.29599209   0.18454545 
 3396000    469.89067   -7311.3361   -3771.9482   -1039.7635   -8348.2789    3775.1511 0.0049844107   0.29600065   0.18454374 
 3398000    485.65958   -7310.6236    -2455.536    702.55729   -3261.8683    2154.6867 0.0049876533   0.29601023   0.18452167 
 3400000    473.68575   -7309.7657   -2668.6083    1435.0684   -5505.6081    4434.1677 0.0049869555   0.29598188   0.18449528 
 3402000    506.33769   -7308.4928   -4110.7875    490.20407   -2893.5192    4772.0788 0.0049853822   0.29602509   0.18449524 
 3404000    519.33717   -7308.7244    -2071.301    2453.5139   -4066.1241    3804.5716 0.0049819028    0.2960271   0.18449421 
 3406000    504.52228   -7310.0903   -5668.6323    810.08964   -3323.2034    6804.7828 0.0049789625   0.29603245   0.18450169 
 3408000    512.42791   -7307.6419   -4103.6635   -722.74506   -7753.6223    5076.8774  0.004981224   0.29600658   0.18451364 
 3410000    488.90727   -7311.1406   -4367.3537   -1507.2711   -7150.9992    5004.1297 0.0049823302   0.29605759   0.18451214 
 3412000    509.74315   -7309.5542   -6284.2245    153.93689   -7703.4825    5398.6654 0.0049836652    0.2960827   0.18449384 
 3414000    491.70944   -7308.1034   -5052.2586   -1161.5504   -7364.4941    7175.7886 0.0049802007   0.29607688   0.18448212 
 3416000    482.72064   -7311.8366   -5720.5465    348.68836   -8372.8056    6115.6777 0.0049798435   0.29606847    0.1844774 
 3418000    493.88436   -7309.3187   -6203.9321    20.101845    -2838.551    3665.7248 0.0049785913   0.29609449   0.18450616 
 3420000    507.07243   -7307.7804   -5247.4814   -1458.9655   -7099.8792     5313.826 0.0049747819   0.29608918   0.18449118 
 3422000    518.99277   -7310.9224   -5552.2926   -903.82606   -2977.0692     6557.694 0.0049726277   0.29611367   0.18448282 
 3424000    494.00652   -7308.9355   -5954.5022     3023.248   -5905.1481    3633.4756 0.0049712072   0.29608137   0.18450381 
 3426000    484.06844    -7311.551    -4137.407   -1013.8867   -4813.6167    4066.5925 0.0049683532   0.29610818   0.18448964 
 3428000    536.17734   -7307.6998    -5133.896   -2773.2439   -6477.6949    3989.4021  0.004967971   0.29612245   0.18447834 
 3430000    534.19608   -7309.0066   -6226.3889    -2375.758   -4396.0618    5609.8175 0.0049790257    0.2961296   0.18445441 
 3432000    506.90313   -7309.0791   -6474.5815   -1468.9183   -7308.1424    4532.7859 0.0049807224   0.29613334   0.18444376 
 3434000    475.04112     -7309.07   -8548.8022      828.021   -4864.4808    4889.9638 0.0049809052   0.29615073   0.18448144 
 3436000    513.85878   -7310.9444   -7284.6354   -104.85989   -7645.8488    3060.9356 0.0049786182   0.29617514   0.18451084 
 3438000    536.56564    -7309.702   -6920.9407   -2441.6017   -6494.8824    2276.6573 0.0049751678    0.2961527   0.18447552 
 3440000    475.83669   -7309.7796   -5010.5026    1306.4412   -6787.4043    2910.3433 0.0049736122   0.29614207   0.18446665 
 3442000    466.05357   -7312.0013   -5591.4601   -2955.4885   -8668.0203    5793.5195 0.0049719296   0.29613415   0.18446134 
 3444000    505.97406   -7309.5443   -4279.8097   -740.98998   -7693.8489    6484.8906 0.0049711725   0.29615193   0.18447742 
 3446000    518.88004   -7309.2186    -3601.406   -246.34876   -4370.9127    6243.3767 0.0049726852   0.29613515   0.18445348 
 3448000    508.54287    -7309.391   -5077.0042   -1055.7212   -7677.6033    8327.5494 0.0049723328   0.29613095   0.18448592 
 3450000    490.81823   -7310.4744   -5447.3854    944.06202   -4530.4531    5220.7977 0.0049782928   0.29620474   0.18449315 
 3452000    495.39526   -7310.8042   -3879.2547   -2138.8235   -5738.6805    3450.6156 0.0049750238   0.29621522   0.18448394 
 3454000    506.57954   -7308.8773   -5263.7708    2308.7044    -6408.762    4408.4165 0.0049722582   0.29617694   0.18447041 
 3456000    485.10415   -7310.2649   -6480.3945   -2342.6931   -5823.5834    6905.6169 0.0049714533    0.2961493    0.1844681 
 3458000    457.88535   -7311.0191   -6106.2509    1619.8363   -7849.6214    5149.7637   0.00497262   0.29614581   0.18447386 
 3460000    540.75435   -7309.6416   -6363.2032   -3058.8642   -7448.6532    6991.9914 0.0049677157   0.29618608   0.18449709 
 3462000    517.30491   -7310.2148   -6630.9717   -149.19539   -4191.1413    3720.5184 0.0049647705   0.29617531   0.18447487 
 3464000    459.34617   -7311.0255   -5496.4679    -3597.451   -10075.182    7386.4049 0.0049634925    0.2961466   0.18445104 
 3466000    498.35452    -7308.217   -3290.6781    -1709.714   -8482.9665    5272.8229 0.0049749142   0.29620258   0.18446092 
 3468000    511.22765   -7310.1455   -2983.3747   -1621.6369   -5174.4537    6341.3092 0.0049791926   0.29621514   0.18444326 
 3470000    506.86998   -7309.7513   -5148.3584    434.67917   -8566.0223    5558.0452 0.0049768477   0.29621233   0.18444106 
 3472000    496.10276   -7309.5502   -2952.0333   -822.39474   -4432.9835    3823.2152 0.0049739355   0.29619375   0.18441681 
 3474000    494.34734   -7309.7338    -4739.447   -643.93276   -4307.9776     4779.791 0.0049710652   0.29617599   0.18442185 
 3476000    473.82174   -7310.2028   -4787.9599   -523.33676   -6541.3547    3366.0285  0.004970414   0.29616679   0.18442674 
 3478000    532.15612   -7309.8648   -3635.8282   -2345.7598   -6322.5766    4590.8787 0.0049663987    0.2962108   0.18441816 
 3480000    476.42593   -7309.6849    -6570.319    320.53698   -6688.6211    3937.5991 0.0049677639   0.29625646   0.18440784 
 3482000    489.27788    -7308.565   -5182.5841   -4464.4665   -4368.6092    4485.4829 0.0049833041   0.29627824   0.18439894 
 3484000    485.48518   -7310.4435   -7326.0836    1370.8641   -6390.3427    5397.0478 0.0049828698   0.29627818   0.18440981 
 3486000    493.55649   -7309.9833    -4714.512   -3896.0524   -4269.8827    4776.2152 0.0049806983    0.2962773   0.18444369 
 3488000    517.67921   -7308.8556    -5249.136   -2418.3762   -5702.3707    5318.0972 0.0049785764   0.29628464   0.18444592 
 3490000    485.94171   -7310.3755   -4579.8676   -1066.2331   -5425.1934    5895.8025 0.0049768534   0.29625226   0.18443843 
 3492000    498.89884    -7309.465   -4849.5257   -5290.6803   -8049.5488    1803.3313 0.0049745807   0.29631832   0.18441983 
 3494000    499.48521   -7310.2846   -2764.8757   -3099.7972   -5670.2692    6352.1702 0.0049757642   0.29633116      0.18437 
 3496000    484.49438   -7309.3381    -5299.201   -2683.7123   -5226.3537    1303.9542 0.0049786545    0.2962911   0.18436302 
 3498000    502.88674   -7309.5514   -3150.1916   -3353.4459   -8650.3567    7835.3607 0.0049759435    0.2963134   0.18437813 
 3500000    506.99252   -7309.8448   -1218.9043   -2722.1855   -5782.8022    3189.3373  0.004978515    0.2963644    0.1844236 
 3502000    445.95731   -7313.0302   -3196.0376   -1760.6118   -5732.0771    4703.9416 0.0049792326    0.2963353   0.18443058 
 3504000    506.17914   -7307.9077   -531.33913    484.82027    -5529.483    3238.5426 0.0049763667   0.29634673   0.18440883 
 3506000    556.38651   -7309.7493    -6334.889   -452.17862   -6080.9979    4404.2366 0.0049736443   0.29632302   0.18438411 
 3508000    512.80713    -7310.533   -4769.6739   -2803.0211   -6926.2727    5689.4971 0.0049697073    0.2963274   0.18440223 
 3510000    491.49824   -7311.1291   -8066.9725     323.9686   -6344.9397     5388.795 0.0049668239   0.29632858    0.1843748 
 3512000     486.7527   -7309.0342   -5304.2093   -1726.2953   -8427.5601    6015.5046 0.0049638893   0.29632412   0.18438684 
 3514000    483.16809   -7309.5658   -5947.6992   -2503.7165   -5436.7714    5424.2082 0.0049671775   0.29635074   0.18441316 
 3516000     525.6985   -7308.3231   -7227.6687   -3721.7898   -6576.3974     3186.205 0.0049732399    0.2963643    0.1844415 
 3518000    505.44575   -7309.9787   -4110.6968    -1965.794   -4824.0679    4342.9206 0.0049771641    0.2963539   0.18442375 
 3520000     519.8069   -7308.2993   -8044.2999    376.39129   -5052.8318     3869.597  0.004973186   0.29634505   0.18438347 
 3522000    501.47643   -7310.1709   -5891.1819    1154.1604   -3715.5468     7679.526 0.0049713087   0.29633649   0.18437342 
 3524000    478.91184   -7310.4642   -6720.3526    1428.1956   -5387.3953    4725.2869 0.0049692221   0.29634933   0.18440155 
 3526000    478.97339   -7311.1989   -5021.4422   -256.25469    -3304.138    4795.9369 0.0049675259   0.29636378   0.18439056 
 3528000    480.64582   -7309.6825   -5312.8689    783.50958   -4226.6178    4847.9545 0.0049689837   0.29633864   0.18439263 
 3530000    478.80916   -7309.6696   -4902.3486    2316.4431   -6764.7307    2644.0005 0.0049687693   0.29632957   0.18440271 
 3532000    497.21697   -7310.6285   -3744.8647   -231.70297   -3709.3839    4936.2725 0.0049715446   0.29638923    0.1843955 
 3534000    471.10322   -7311.7275   -4336.0055   -152.72673   -3274.2345    4420.8429 0.0049685206   0.29635347   0.18436721 
 3536000    532.19272   -7310.2589   -5251.7354    276.53355   -3855.4337    2251.1946 0.0049682059    0.2963733   0.18436386 
 3538000    503.04903   -7310.1294   -3145.4331   -3134.3811   -4630.3167    4089.1435 0.0049690759     0.296357   0.18437067 
 3540000     493.3294   -7310.0058   -4392.7381   -2877.2881   -5980.2411    5371.3918   0.00496725   0.29637439   0.18439073 
 3542000    509.74661   -7311.3392   -4611.9346   -2222.9941   -6774.0122    4120.3957 0.0049682875    0.2963704   0.18437855 
 3544000    460.62145   -7310.9867   -3262.7336   -1275.3214   -7130.4524    5445.0538 0.0049659918   0.29637486   0.18437385 
 3546000    487.54028   -7309.8422   -5752.6338   -465.60452   -7605.7658    7561.4024 0.0049632232   0.29635714   0.18436132 
 3548000    483.84598   -7310.7336   -6003.0467    1167.4998   -6040.6327    6550.6949 0.0049607192   0.29637093   0.18435726 
 3550000    501.99818     -7310.69   -5610.1551   -1175.5448    -5688.168    5513.0865 0.0049591065   0.29639453   0.18435642 
 3552000    501.63808   -7309.2434   -5196.1242   -1218.9373   -5548.5236    7789.7122 0.0049578769   0.29639022   0.18433564 
 3554000    483.00942   -7311.2702   -5501.7569   -2489.8378   -5178.1476    2975.4537  0.004960909   0.29637972   0.18432688 
 3556000    472.32949   -7309.9145   -5213.8704    742.89702    -5098.528    7153.9958 0.0049595626    0.2964067   0.18429962 
 3558000    495.79674    -7309.073   -5466.2768   -681.85264   -5821.6637    2863.7091 0.0049576532   0.29641708   0.18435273 
 3560000    475.50899   -7311.3347   -5517.1307    68.735991   -4505.1531    5063.3417 0.0049549149    0.2964166   0.18433107 
 3562000    479.66844   -7311.4358   -3295.8568    33.946539   -7915.9174    2623.4377 0.0049544965   0.29642062   0.18432111 
 3564000    534.69699   -7310.2943   -4523.1481   -5411.8133   -5029.7205    3526.0056   0.00495477   0.29642797   0.18428736 
 3566000    478.76432    -7311.236   -3569.2388   -507.01781   -6584.1512    5543.9891 0.0049835342   0.29639674   0.18427714 
 3568000    536.27749   -7310.2626    -7532.147    659.83143   -4339.4328     4887.575 0.0049822732    0.2964581   0.18429039 
 3570000    464.63136   -7309.8625   -1974.8027    2223.2733   -3972.5674    5213.4648 0.0049851047   0.29647004   0.18431196 
 3572000    483.65102   -7310.1792   -2932.6239   -2295.2716   -5705.1012    6214.8305 0.0049840164   0.29643489   0.18429588 
 3574000    489.85997   -7307.5569   -3583.2373    373.93076   -6537.9449    3618.1459 0.0049982763   0.29641922   0.18430948 
 3576000    490.31209   -7311.4009   -2487.9506    1574.6081   -7399.0696    5895.0395 0.0049962462   0.29645244   0.18428526 
 3578000    527.26769   -7309.7625    -5958.431   -736.70293    -5440.913    2464.2123 0.0049972275   0.29648153   0.18427971 
 3580000    465.22295   -7310.3332   -5052.3923    3371.6222    -6638.761    2224.4333 0.0049941715    0.2964715   0.18429256 
 3582000    496.33924   -7311.0948   -6262.0574    139.03745   -5407.7352    4062.3105 0.0049917684    0.2964725   0.18430043 
 3584000    542.12477   -7309.6293   -1875.8294    64.919767   -6521.1942    1111.6271 0.0049911349   0.29646262    0.1842826 
 3586000    507.62402   -7308.9498   -5054.6658    415.49203   -4357.4296    3226.3796 0.0049878875   0.29645337   0.18423003 
 3588000    464.80335   -7309.3368   -4470.0106   -2151.7564   -5031.4335    5333.2891 0.0049867878   0.29648316   0.18424393 
 3590000    552.17908   -7310.2545   -5794.8586   -488.36681   -4034.2354    5483.9936 0.0049905563   0.29651079     0.184263 
 3592000    494.22133    -7310.229   -5996.3049    1110.7317   -5419.4283    4431.1091 0.0049894661   0.29650997   0.18429362 
 3594000    507.29488   -7309.2906   -2508.1384   -757.59678   -5320.6009    4695.1089  0.004986369   0.29652568    0.1842644 
 3596000    448.96335    -7309.406   -1235.7904   -2047.6814   -5392.9211    4322.4807 0.0049821761   0.29653826   0.18424512 
 3598000    498.95861   -7311.2302   -3681.5314   -1555.9212   -7079.8979    4413.3673 0.0049805573   0.29653027   0.18424856 
 3600000    499.86306   -7308.0476   -3445.9705    26.258234   -4509.1309     4989.411 0.0049820525   0.29651043   0.18422821 
 3602000    500.62765   -7310.8563   -3198.4684   -808.60499   -6907.0313    3681.8664 0.0049803765   0.29653375   0.18424518 
 3604000    499.53879   -7309.7282   -1908.9368   -1180.4279   -6521.9664    2120.2228 0.0049771894   0.29654738   0.18423777 
 3606000    490.54968   -7310.2381   -3904.7467   -3387.2396   -5663.8797    3837.3683 0.0049756642   0.29653746   0.18422684 
 3608000    526.64243   -7308.9011   -4010.9157      1284.55    -10280.05    4093.9654 0.0049732099   0.29653334   0.18423693 
 3610000    537.86472   -7310.5115   -2408.5033   -1901.1436   -6047.6573    3826.5134  0.004970634   0.29654312   0.18421965 
 3612000    455.81003   -7311.0237   -4104.9924   -2763.6008   -11123.321    4414.6608 0.0049692105   0.29654961   0.18422496 
 3614000    492.04003   -7309.2926   -796.98437    1045.9253   -4002.3313    5475.9363 0.0049677579   0.29656389   0.18424207 
 3616000    504.77609   -7308.5456   -4628.9362   -1486.1909   -5153.5411    4286.3659 0.0049672754   0.29653917   0.18423534 
 3618000    499.29482   -7309.6259    -697.2911    1150.9059   -4497.0269    4251.9111 0.0049666628   0.29654855   0.18423555 
 3620000    490.27378   -7308.9099   -2764.2211    153.82479   -7232.7338    5652.7812 0.0049681963    0.2965268    0.1842469 
 3622000    529.93786   -7310.0183    -2636.717   -3735.3641   -6661.6409     7002.363 0.0049714595    0.2965943    0.1842423 
 3624000    487.74917   -7309.4755   -3009.1922    581.60592   -4444.8953    4660.0029 0.0049681984   0.29659998   0.18426515 
 3626000    528.79306   -7310.9762   -3282.1391   -455.61832   -6479.4076    8143.0022  0.004965823   0.29658398   0.18425255 
 3628000    506.20894   -7308.1691   -1503.1337    -1315.119   -6069.2428    4408.3528 0.0049642335   0.29659147   0.18424244 
 3630000    459.27011   -7308.7024   -4679.5304   -294.19348   -4191.6079    6013.4206  0.004962912   0.29658676   0.18423016 
 3632000    504.04898   -7307.9928   -1568.0173   -1290.0042   -8118.2501    3717.8392 0.0049612834   0.29658008   0.18424499 
 3634000     506.9106   -7307.9596   -3570.3308   -2732.1162   -3388.5977    6124.5641 0.0049606124   0.29661023   0.18424704 
 3636000    510.97247   -7310.6077   -3059.0661   -966.35156   -6061.0056    3568.8843 0.0049719102   0.29661098   0.18427563 
 3638000    497.64109   -7310.4382    -2887.752    2102.1184   -3721.4478     2887.826  0.004970176    0.2966303   0.18426838 
 3640000     502.6828   -7311.0454   -6039.1994    1161.9158   -5578.6393    4915.8361 0.0049677432   0.29659748   0.18422197 
 3642000    492.55004   -7310.3056    -4097.346    2732.9877   -2894.1611      6009.04 0.0049697203   0.29655976   0.18420683 
 3644000    501.35527   -7309.3345   -4583.0899   -1558.6066   -7493.2669    6670.2719 0.0049674479   0.29656745   0.18424921 
 3646000     524.6954   -7311.5697   -3835.7771    628.17007   -3885.0375    5016.8177 0.0049718893   0.29657807   0.18426619 
 3648000    529.27388   -7309.6917   -1477.6134   -2896.6272   -4968.5213    7385.6862 0.0049741535   0.29660456   0.18426091 
 3650000    482.68484   -7309.5645   -2513.5079   -982.64154   -5961.4387    6246.4578 0.0049816891   0.29661573   0.18425186 
 3652000    493.81325   -7310.6738   -2669.2868    727.06399   -5135.1942    5953.8422 0.0049789297   0.29660924   0.18426565 
 3654000    486.15505   -7309.7843   -2144.7319    614.66337   -7303.5053    2767.1691 0.0049764259   0.29658438   0.18426175 
 3656000    489.69573   -7309.8469   -2405.1258    777.82251   -8656.1187    3367.1106 0.0049727476    0.2965778   0.18424432 
 3658000    468.19866   -7307.5561   -4116.6975   -3134.7924   -7874.5146    5993.5293 0.0049732559   0.29656106   0.18423142 
 3660000    517.76321   -7310.5911   -3675.8821    107.37816   -7063.2088    5790.6588 0.0049735558   0.29657165    0.1842645 
 3662000    512.08411   -7309.0878   -4996.2192   -710.45534   -7628.8229    4039.1487 0.0049720569   0.29658009   0.18428002 
 3664000    526.75437   -7309.9377   -4735.2019   -806.21864     -6535.47    3506.0787 0.0049699002   0.29656493   0.18427785 
 3666000    502.18158   -7310.2475   -6260.0087   -581.76196   -6032.2486    3538.4915 0.0049666749   0.29657752   0.18423634 
 3668000    523.31528   -7309.4146    -3725.837   -2652.9032   -4118.1185    6066.0186 0.0049653724   0.29661196   0.18421208 
 3670000    505.86629   -7309.6823   -5422.9448    861.15373   -5884.4751    4991.3653 0.0049625318   0.29659118   0.18421363 
 3672000    492.76466   -7309.9235   -3672.3696   -1076.9605   -3642.2346    5517.9401 0.0049600502   0.29657357   0.18422943 
 3674000    492.02715   -7311.5121   -4100.6461   -634.17941   -6069.2809    3318.0526 0.0049608282   0.29654754   0.18424443 
 3676000    504.78523   -7309.0558   -6094.0905    4425.8799   -7735.3173    3590.8245 0.0049637158   0.29657663   0.18425575 
 3678000    512.90068   -7309.5986    -3360.541    684.04308   -4211.2416    6606.3728 0.0049611932   0.29660825   0.18425139 
 3680000    468.71977    -7309.321   -4174.9491     2587.059   -7847.4684    3761.5991 0.0049590422   0.29658995    0.1842438 
 3682000    521.68079   -7309.5731    -1769.154   -337.35466   -4997.7047    4420.8925 0.0049566394   0.29658822   0.18424274 
 3684000    510.86106   -7310.8547   -3467.8564    589.49324   -6794.3363    5216.3044 0.0049546769   0.29656398   0.18421179 
 3686000    486.26048   -7311.5272   -5105.9575   -3167.6436   -4639.4521    4922.6518  0.004950269   0.29657219   0.18424098 
 3688000    510.09618   -7309.8153   -2980.7379   -2316.6694   -6955.0109      4452.91 0.0049516662   0.29657203   0.18425876 
 3690000    514.74249   -7309.1703   -3013.0357    355.10767   -5401.8685    1579.4441 0.0049545872   0.29660716   0.18427499 
 3692000    476.98054   -7309.8321   -5029.0365    -959.0808   -6478.8737    2299.8046  0.004953448   0.29659744   0.18427147 
 3694000     511.4477   -7309.8323   -2859.0519    -2317.567   -7166.2742    5483.3032 0.0049543649   0.29661682   0.18426433 
 3696000    470.90979   -7310.2275   -6739.8394    371.74013   -5751.4258    3434.2158 0.0049526173   0.29663695   0.18425971 
 3698000    496.80719   -7308.9728    -3300.606   -280.60636   -6504.1651    3962.2336 0.0049500073   0.29661736   0.18426016 
 3700000    531.30825   -7309.1124    -6864.438    2038.6793   -1524.4675    6976.3255 0.0049502451   0.29657848   0.18427448 
 3702000    500.82541   -7309.5324    -6477.071     208.5269     -7302.23    6178.6001 0.0049499899   0.29658706     0.184271 
 3704000    508.13055   -7310.0417    -6066.996    209.04479   -8163.4755    6086.8549 0.0049533261   0.29665834   0.18425897 
 3706000    501.30191   -7308.7927   -8311.2386   -1089.6556   -6051.1077    5385.9547  0.004963085   0.29664596   0.18427246 
 3708000    448.18923   -7310.2251   -4393.1987    370.10949   -7773.6077    4920.2104 0.0049638123   0.29668004   0.18428001 
 3710000    508.43572    -7308.606   -5240.3985   -571.60444   -4896.9013    5907.3298  0.004960765   0.29668892   0.18428376 
 3712000    450.77394     -7309.11   -6547.9132   -915.33107   -5629.6743    2428.4126 0.0049583394   0.29667177   0.18427844 
 3714000    455.13514   -7310.1732   -5797.6424    -965.1707   -6363.3158    4869.3431 0.0049575136   0.29662265   0.18423593 
 3716000    472.53292   -7308.8234   -7370.8727   -1427.1701   -4338.3029     6148.469  0.004955219   0.29661268    0.1842611 
 3718000    471.79594   -7309.8648   -4988.7034   -1392.9828   -9012.1097    4237.5539 0.0049569827   0.29664444   0.18426007 
 3720000    518.57701   -7309.4316   -5038.3553   -5106.0139   -8267.2419    5600.3964 0.0049622195   0.29665809    0.1842866 
 3722000     495.8033   -7310.1796   -4490.3123    428.37804   -6252.1409    3507.2629 0.0049693718   0.29667242   0.18425767 
 3724000    510.05069     -7309.05   -3749.4345    -2613.519    -6367.334    6308.1572 0.0049638211    0.2966957   0.18425162 
 3726000    508.48823   -7310.3465   -6290.1996    3746.2996   -5146.0907    4596.3706 0.0049606639    0.2966751    0.1842866 
 3728000    510.03209   -7309.6464    -4605.308    639.12952    -4546.063     3236.957  0.004960066   0.29665503   0.18427133 
 3730000    515.26693   -7307.8751   -4726.3381   -2782.5438   -7218.4968    4539.2601 0.0049606643    0.2966458   0.18425221 
 3732000    503.49571   -7310.0605   -5071.7457    2529.5181   -9417.2548    3784.2484  0.004963468   0.29662952   0.18425175 
 3734000    529.17464   -7309.9296   -3836.0918   -3576.4798   -7084.4812    5014.5453 0.0049627107   0.29669817   0.18425491 
 3736000    497.65157   -7311.0117   -3622.4833   -240.83043   -5483.0698    4231.7207 0.0049610601   0.29670971   0.18427125 
 3738000    521.54163   -7307.9828   -3089.1664   -3543.2388   -8450.6527    3994.8946 0.0049621947   0.29668813   0.18429697 
 3740000    490.82309   -7309.7369    -3644.159   -1716.5347   -4628.5081    3104.4083 0.0049606146   0.29670001   0.18427492 
 3742000    542.67808   -7310.3689   -5436.5778    473.61729   -7481.4565    3067.5582 0.0049574749   0.29669531   0.18425086 
 3744000    509.57662   -7308.3645   -5401.9531   -3736.3431   -7815.6128    5157.2595 0.0049550215   0.29667839   0.18424384 
 3746000    513.04675   -7310.7675   -8233.6866    1.2029334   -7658.5876    5179.6886 0.0049538193   0.29669636   0.18426049 
 3748000    519.28116   -7311.3743   -6326.1606    214.40569   -5491.0226    7150.9286 0.0049530437   0.29672678   0.18426448 
 3750000    501.96629   -7308.9694   -4150.8432    38.236127   -4192.2752    5360.3315 0.0049548056   0.29672427   0.18425394 
 3752000    506.95116   -7310.0531    -7922.421    4379.0946   -4025.1874    8089.3551 0.0049561476   0.29670967   0.18422047 
 3754000    520.67299    -7311.003   -3216.3394    66.454228   -3070.6975    7421.8997 0.0049550478   0.29672329   0.18422993 
 3756000    496.28561   -7308.9654    -5535.818    91.740223   -5584.8556     4380.818 0.0049519799   0.29672451   0.18423287 
 3758000    496.54639    -7308.732   -2645.9591   -910.20327   -4443.2054    6957.1417 0.0049502286   0.29671846   0.18424836 
 3760000    505.60859   -7311.0735   -3550.8701   -2875.8366   -6627.7394    5406.5315 0.0049480827   0.29672582   0.18422091 
 3762000    501.62176   -7308.4502   -115.28062   -3428.3945   -3662.7446    3199.3223 0.0049513999   0.29669915   0.18422481 
 3764000    500.44811   -7309.1233   -2355.7649   -584.55409   -9439.2292    4976.4474 0.0049491641   0.29668191   0.18423567 
 3766000    504.32214   -7310.5914   -1328.0067   -3666.4465   -6673.3464    1669.7229 0.0049464017   0.29677533   0.18423226 
 3768000    517.05886   -7310.7763    -4826.203    -1479.595     -9095.22    1414.3566 0.0049432915    0.2967309   0.18423333 
 3770000    500.11886   -7311.0562    -4961.537   -3071.5776   -7259.7334    2773.4703 0.0049408796   0.29671186   0.18424978 
 3772000    498.02782   -7309.8994   -1945.7944   -1311.0509   -5805.2747    407.66458 0.0049396221   0.29668614   0.18424642 
 3774000     516.8393   -7308.0125   -5678.6678    -2079.688   -8168.6362    4862.9442 0.0049362191    0.2967173   0.18422909 
 3776000    508.03918   -7309.7162    -4096.455   -611.82881   -5901.8945    1954.0224 0.0049338064   0.29670429   0.18421213 
 3778000     484.6888    -7308.189   -5752.6847   -4386.5752   -4819.1361    6207.9726 0.0049355289   0.29669528   0.18422408 
 3780000    479.93809   -7310.3013   -5208.8713    -345.5252   -8456.3361    4411.3195 0.0049383892   0.29674823    0.1842486 
 3782000    509.62709   -7308.5695   -5318.2728   -878.54706   -3441.4174    4521.1932  0.004936368   0.29678132    0.1842552 
 3784000    465.23012   -7309.5404   -4791.5066    -58.13786   -8761.9828    1573.1981 0.0049338043   0.29673815   0.18423958 
 3786000    486.96285   -7310.4242   -5542.4095   -1627.4342     -4288.36    6360.6432 0.0049313397   0.29673003   0.18420658 
 3788000    526.71529   -7308.7395   -4208.8647    1278.0313   -5184.8248    2603.1021 0.0049295098   0.29671162   0.18421611 
 3790000    467.50733   -7309.5059    -6330.703   -284.91016   -4955.4688    5332.9666 0.0049270059   0.29672432   0.18420062 
 3792000     514.0369   -7311.2749   -3146.1295   -1624.0018   -7001.3556    5473.7283 0.0049240108   0.29670616   0.18422458 
 3794000    539.23997   -7309.9921   -6234.0965   -2295.0265   -6052.3775    1807.4112 0.0049343155   0.29673538   0.18422193 
 3796000    519.23851   -7311.0265   -5255.3018   -2168.2481    -5451.859    7755.0274 0.0049493203   0.29680796   0.18423026 
 3798000    458.51573   -7308.8113   -7252.2028    115.72229   -4098.2445    2376.4636  0.004949138   0.29678745   0.18424106 
 3800000    510.69021   -7309.8612   -3777.4376    953.49873   -7075.7194    4117.6833  0.004950292   0.29674138   0.18421785 
 3802000    496.97041    -7310.179   -5232.4496   -1419.4244    -7551.615    2009.4703 0.0049502265   0.29674728   0.18420243 
 3804000    505.69766   -7309.5344    -5491.027   -1851.3871   -5591.6064    3102.5877 0.0049477658   0.29675609   0.18418085 
 3806000    511.73835   -7310.0595   -4022.4895   -1936.3795   -6036.7369    2314.5738 0.0049536304   0.29675268   0.18417929 
 3808000    489.02047   -7307.6691   -5525.5424    1258.1135   -3191.8852    6862.9629 0.0049504873   0.29676037   0.18416783 
 3810000    500.25596    -7308.189   -1734.2059   -3646.9344    -5085.665      2794.42 0.0049484434   0.29678039   0.18419249 
 3812000    502.48537   -7308.7765    -3663.642   -236.98774   -6308.9597    4864.1633 0.0049557762   0.29678841   0.18419393 
 3814000    489.01227   -7310.8923   -2582.2818     834.6234   -3668.8106    3277.3608 0.0049543664    0.2968186   0.18418931 
 3816000    527.64961   -7309.1489    -3050.041   -301.56306   -5640.1052    4103.0849 0.0049538216   0.29680116   0.18416574 
 3818000    508.31571   -7307.0206   -4340.4466    598.01657   -2701.0699    3690.8332 0.0049514934   0.29679317   0.18415897 
 3820000    480.15378   -7310.9467   -4060.5429   -3085.2178   -7613.3472     4365.645 0.0049510501    0.2967789   0.18418219 
 3822000    486.40482   -7309.3573   -2740.9156   -1669.4289   -9279.4007    4987.8772 0.0049496422   0.29681978   0.18421617 
 3824000    480.98897   -7309.6594    -6375.331   -1052.0782   -6230.2133    3743.9346 0.0049477646   0.29685909   0.18420888 
 3826000    511.21468    -7309.513   -3333.9758   -1332.4636   -6491.3466     5700.662 0.0049462744   0.29684859     0.184174 
 3828000    515.87998   -7308.8178   -3253.9038   -936.62035   -8247.2823    6657.9576 0.0049434542   0.29683184   0.18418558 
 3830000    524.42823   -7312.3172   -2819.3148    1544.1091   -8740.1807    4917.8374   0.00494422   0.29683208   0.18420436 
 3832000    508.95543   -7310.6038   -3207.6637   -308.87778   -5302.6571    6542.0717 0.0049407969   0.29685607   0.18419442 
 3834000    529.71247   -7308.5606   -4446.5154   -2984.4688   -5076.1491      6706.75 0.0049457199   0.29683395   0.18419544 
 3836000    496.64384    -7310.232   -1385.5788   -1955.9657   -8457.3363     5338.445 0.0049485602   0.29685725     0.184197 
 3838000    535.91143   -7310.2355   -5013.4768   -741.76234   -3156.1647    4347.8014 0.0049464477   0.29689617    0.1842074 
 3840000    520.82816    -7310.215   -2112.5741   -1795.6285   -4260.2394    5896.8218 0.0049444503   0.29687199   0.18420786 
 3842000    500.75088   -7308.5534   -5276.2648    436.76731   -5319.5377    3541.8002 0.0049413428   0.29687621   0.18418075 
 3844000    519.39931   -7309.8422   -4153.8556   -2218.6835   -5297.2553    3593.5033 0.0049397186   0.29689486     0.184193 
 3846000    494.75254   -7308.7327   -4442.5573   -3332.0472   -6559.3996    2370.4201 0.0049452568   0.29690222   0.18418053 
 3848000    515.58591   -7308.6015   -6736.5239    1675.4019   -4842.7355    2415.8588  0.004941145   0.29688182   0.18418235 
 3850000    478.40034   -7310.1299   -5826.4861    1185.5411   -6245.4542    4593.0337 0.0049378111   0.29689751   0.18417591 
 3852000    514.11351    -7310.464   -6038.4541   -796.98595   -5712.7341     4297.806 0.0049383695   0.29689207   0.18420019 
 3854000    470.18334   -7311.2347   -2367.8272    1649.5039   -6347.6606    3344.7461 0.0049363046   0.29690586   0.18420146 
 3856000    542.05679    -7310.782   -3501.3529    856.35418     -5436.14     3556.582  0.004934712   0.29693526   0.18416605 
 3858000    533.02282   -7310.3872   -6797.6324    1360.2135   -3364.9714    4891.1455 0.0049316484   0.29691446   0.18415222 
 3860000    498.92382   -7311.1226   -2648.5626   -1126.6476     -4352.49    8053.8598 0.0049300102   0.29689397   0.18419079 
 3862000    519.73739   -7307.8815   -4726.7388   -952.13732   -4705.3921    3349.3731 0.0049300139   0.29689394   0.18421333 
 3864000    483.03339   -7309.5707   -3162.9643   -200.28492   -6366.0845    3231.1264 0.0049277192   0.29693014   0.18419724 
 3866000    479.06782   -7311.5593   -4692.9052    -1705.753   -5213.7071    3611.5657  0.004927578     0.296927   0.18418996 
 3868000    500.94993   -7310.5784   -6975.3573   -529.93881   -3616.8924     5436.443 0.0049272802   0.29692105   0.18419021 
 3870000    467.99679   -7309.2124   -2690.3125   -464.04263   -6969.9914    4290.8781 0.0049316922   0.29690635   0.18419158 
 3872000    468.75614   -7308.9491   -5631.3815   -688.21792   -6120.0656    2750.5212 0.0049300576    0.2969426   0.18419694 
 3874000    494.26836      -7309.1   -2040.7897    2833.9114   -3691.4868    5172.8322  0.004927389   0.29694984   0.18416826 
 3876000    490.20187   -7309.6202   -6020.8845   -2434.3898   -6334.3472    5187.8529 0.0049259335   0.29690241   0.18418242 
 3878000    448.80361   -7311.4426   -5581.9922   -519.66195   -9323.5416     4130.373 0.0049232689   0.29690369   0.18419042 
 3880000    485.75188    -7309.945   -4061.2201   -226.89672   -5607.8274    5125.0787  0.004921935     0.296889   0.18419015 
 3882000    523.81551   -7310.5719   -5260.0712    -2567.232   -8811.0258    5707.4088 0.0049210929   0.29689633   0.18417074 
 3884000     485.2986   -7309.9144   -6274.2723   -2073.6844   -7500.8017    5331.8361 0.0049190762   0.29692298   0.18415893 
 3886000    519.16986   -7311.0182     -5523.86    -1846.059   -6054.6644    7289.7657 0.0049217113   0.29692648   0.18415881 
 3888000    511.79718   -7310.1942   -4642.7125   -623.58371   -5905.3866    6355.7209 0.0049211443   0.29693117   0.18420047 
 3890000    472.08544   -7308.4636   -2114.7637   -1162.0371     -3740.98     8614.357 0.0049172698   0.29691598   0.18420345 
 3892000     519.1478   -7311.2222   -3188.3146   -1958.2481   -3401.6355    3345.0246 0.0049145371   0.29695257   0.18421749 
 3894000    512.94628   -7309.5209    -287.1672   -1070.3423   -3694.5213    5934.6012 0.0049174048   0.29695728    0.1841959 
 3896000    511.77598   -7310.7202   -4101.7898    460.14137   -6226.8607    5153.2115 0.0049150671   0.29695997   0.18417717 
 3898000    501.22956   -7307.4785   -4169.6542    1445.3756   -3785.3444    3352.2624 0.0049129187   0.29702813   0.18416637 
 3900000     496.4607   -7309.1798    -2366.592   -2364.8204   -5840.6775    5106.0349 0.0049129216   0.29701255   0.18416861 
 3902000    507.34192   -7309.8277   -3352.5468     2373.632   -6553.5402    3905.2856 0.0049231513   0.29698585   0.18415576 
 3904000    449.99947   -7308.6796   -5532.2533    1932.1756   -5218.0073    4322.5189 0.0049196966   0.29701307   0.18418465 
 3906000    521.52889   -7311.3744   -4691.4805    1091.4848   -4457.3881    5308.1236 0.0049176514   0.29704337   0.18419495 
 3908000    484.55938   -7309.8169   -3936.8913    731.86803   -5866.3783    963.11557 0.0049166582   0.29697713   0.18417635 
 3910000    479.69411   -7309.2161   -5745.9212    354.90348   -6477.1934    9039.4283 0.0049144618   0.29701946   0.18416212 
 3912000    475.95214    -7310.553   -3760.3076    1099.3589   -5842.5417    4868.9292 0.0049126297    0.2970697   0.18419817 
 3914000    495.14101   -7308.6044   -3748.5223   -659.29694   -4235.1248    6109.3496 0.0049108384   0.29707032   0.18419918 
 3916000    502.73894   -7310.3753   -2657.8168   -457.22997   -5737.8018    6453.2847 0.0049105696   0.29704522   0.18419281 
 3918000    499.71894   -7309.1588   -2654.6007   -1212.6503   -8331.2137    7569.5428 0.0049090744   0.29707428    0.1842053 
 3920000      539.866   -7311.2293   -1410.6901    860.16499   -6403.1217    3185.3089 0.0049072438   0.29713152   0.18422003 
 3922000    474.95853   -7309.3753   -2140.9272   -1156.1426   -7579.6435    4438.2313 0.0049067866   0.29709155    0.1841902 
 3924000    496.00469   -7310.5056   -3101.3319    1683.7788    -6355.764    6243.7132 0.0049044892   0.29707818   0.18416935 
 3926000    486.21062   -7309.0207   -2196.7385    1959.6927    -6077.612    3547.4364 0.0049022984   0.29709071   0.18417586 
 3928000     507.5443   -7309.3642   -3261.6767   -3652.8099   -4621.2793     6111.365 0.0049010147   0.29712372   0.18419204 
 3930000    506.23135   -7309.8614   -4362.2144    710.19122   -8044.8018    3919.5396 0.0049057935   0.29708943   0.18421834 
 3932000    523.22805   -7310.1308   -4553.8807    504.18038   -5933.6512      6288.33 0.0049019099    0.2970849   0.18419849 
 3934000    520.45031    -7310.553   -4201.1226   -1622.5116    -6433.049    4836.2738 0.0049001656   0.29710815   0.18420753 
 3936000    460.18126   -7306.8144   -1858.1271    908.49507   -6975.8912    5244.3781 0.0049006188   0.29711654   0.18418526 
 3938000    495.33477   -7309.2333   -4276.2944   -1622.2673   -7587.9699    5109.2151 0.0048987429   0.29708893   0.18417569 
 3940000    525.41798   -7309.7203   -3531.1886    201.72558   -7476.1692    7604.9226 0.0048963881   0.29714461   0.18415652 
 3942000    482.74181   -7309.8477   -5303.6329   -3381.2267   -7541.8651    6853.0963 0.0048966149   0.29715503   0.18419491 
 3944000       499.76   -7309.8897   -3290.3291   -1278.6138   -5630.4273    8374.3538 0.0049040414   0.29716539   0.18421728 
 3946000    507.26405   -7309.0974   -5121.2255   -435.00979   -5464.8738    3244.7263 0.0049006255   0.29715098   0.18421637 
 3948000    476.95377   -7309.1803   -2877.1442     625.9973    -6126.044    5191.4733 0.0048980693   0.29716051   0.18417922 
 3950000    468.93512   -7310.8821   -4698.8614    233.31521   -3970.4803    5443.0209 0.0048967766   0.29716715   0.18416741 
 3952000      487.767   -7309.3982   -3526.4861    -782.2017   -7381.9554    3580.4534 0.0048928835   0.29717142   0.18418574 
 3954000    488.61664   -7310.4816   -2566.0268    717.70777   -4119.2079    3627.0247 0.0048911323   0.29717861   0.18420638 
 3956000    499.71416   -7309.4945   -2925.7957     506.8237   -3762.2509    1794.8518 0.0048901476   0.29716516   0.18419288 
 3958000    498.69112   -7312.4685   -757.65775   -1574.3255    -5158.795    3954.2277 0.0048897003   0.29711851   0.18419915 
 3960000    520.92764   -7309.8635    -1389.166     1711.334   -6521.2072    3794.5773 0.0048900391   0.29716822   0.18417697 
 3962000    459.47771   -7310.6716   -2634.0812   -1083.0096   -6475.9034    4101.1643 0.0048875813   0.29717577   0.18417703 
 3964000    470.74306   -7308.8055   -3005.4443    1094.5552   -8068.5002    5249.0128 0.0048853808    0.2971687    0.1841726 
 3966000    512.95364   -7312.9355   -4973.4687   -1986.0663   -7800.9394     6460.211 0.0048831787   0.29715434    0.1841927 
 3968000    529.64119   -7309.1087   -2524.2024    543.46385   -6197.3701    7300.6982 0.0048809404   0.29717123   0.18417864 
 3970000    501.58176   -7308.7493   -4462.8386   -1697.8902   -8123.4251    5896.6679 0.0048802617   0.29716058   0.18417769 
 3972000    497.63462   -7308.8645   -4006.9686   -4173.7584    -4033.391    6625.4112  0.004879262   0.29717479   0.18417172 
 3974000    498.44655   -7308.0486   -3878.8874    1587.6927   -6435.9034    4951.7794 0.0048780054   0.29716383   0.18419718 
 3976000    508.74002   -7309.6032   -4177.9284    -3671.025   -3033.1789    6100.1435 0.0048775653   0.29719216   0.18421718 
 3978000    483.88148   -7309.8342   -4407.1236   -67.837025    -3261.955    5211.5455 0.0048754949   0.29718731   0.18418865 
 3980000    499.41468   -7308.8876   -4359.0373    445.74674   -5629.8658      7166.67  0.004873283   0.29718349   0.18419861 
 3982000    502.10798   -7309.7369   -3348.2102   -1559.4413   -2833.2828    5744.8895 0.0048721128   0.29721251    0.1842186 
 3984000    510.08339   -7310.2013   -4996.5114   -930.94026   -7555.3469    2117.8596 0.0048758611   0.29718399   0.18423123 
 3986000    521.95888   -7309.4137   -1485.1806   -571.50069   -5978.4885    6776.0376 0.0048726414    0.2971979   0.18420774 
 3988000    485.15401   -7310.3925    -3094.513    -2434.256   -4722.3418    4715.8654 0.0048713686   0.29723065   0.18421385 
 3990000    507.80402   -7308.8643   -428.20277   -1218.3257   -7011.1449    4937.0987 0.0048683851   0.29722306   0.18420727 
 3992000    506.43666   -7308.5703   -4084.9634    1270.5303   -3481.5902    4817.8027 0.0048663602   0.29723029   0.18418646 
 3994000    488.72466   -7308.7977   -1808.7163   -1114.6007   -9160.9805    6265.1366 0.0048631433    0.2971932   0.18421487 
 3996000    508.91607   -7308.4058   -2362.9714   -2309.8365   -6292.5152    6449.8553 0.0048663328   0.29723373   0.18420887 
 3998000    502.36266   -7307.2584   -2318.1381   -1776.3766     -6205.71    5499.6265 0.0048679821   0.29725844   0.18420696 
 4000000    518.12937   -7308.5247   -3486.8914   -1812.4726   -6181.0764    4024.2057 0.0048686088   0.29725219   0.18421149 
 4002000     514.4781   -7308.8382   -5423.0339    1360.0471   -2978.8146    7826.3556 0.0048730054   0.29729568   0.18420154 
 4004000    499.35738    -7309.103   -5863.1779   -275.32957   -5092.7331    5887.4787 0.0048691924    0.2972791    0.1842086 
 4006000    483.51738    -7309.958   -6920.3622    2813.3144   -4396.0278    4312.6753 0.0048696234   0.29725779    0.1841979 
 4008000    530.99927    -7311.054   -7510.5606    1613.2571   -5433.5375    5205.0219  0.004865795   0.29724757   0.18419798 
 4010000    487.71077    -7309.829   -4877.8551   -641.22576   -7737.6239      4553.22 0.0048636853   0.29727414   0.18422387 
 4012000    507.70154   -7309.6865   -5373.7458    1648.5141   -8820.7267    1350.1676 0.0048664271   0.29728779   0.18421296 
 4014000    479.64343   -7309.0431   -2876.1729    1396.8143   -6373.3201    3212.3771 0.0048645152   0.29726522   0.18417465 
 4016000    517.55036   -7310.8679   -5630.0882     657.3802   -8508.1617    3354.4019 0.0048630145   0.29726364   0.18417513 
 4018000    480.14968   -7309.0659   -2099.2737   -3643.9762   -7160.9745    6678.0344 0.0048626997    0.2972897   0.18419615 
 4020000    473.46147   -7311.1819   -2077.0443   -2100.9942   -3830.2718    5773.3444 0.0048630538   0.29727568    0.1842028 
 4022000    510.44254   -7309.5343   -4957.5603   -3539.0119   -7537.6654    5207.4436 0.0048613062   0.29726373   0.18420126 
 4024000    498.87604   -7310.4024   -1876.1773   -1149.7483   -5121.6665    6485.5493 0.0048598402   0.29728753   0.18419776 
 4026000    476.89104   -7307.6533   -6396.5795   -4151.3356   -5807.6173    4113.6491 0.0048580112    0.2972775   0.18422201 
 4028000    490.77285   -7309.3593   -1962.8098   -3112.3471   -6868.6301    3544.7052 0.0048562978   0.29727039   0.18420729 
 4030000    492.29452   -7310.8218   -5372.5942    1647.2977   -8029.3346    5379.8467 0.0048540427   0.29727615   0.18418444 
 4032000    496.46532   -7309.3331   -4053.2445   -1710.1371   -5549.2175    3821.2348 0.0048510415   0.29730689   0.18417104 
 4034000     506.3321   -7310.4723   -4356.2403    1598.2433   -8507.0742    5228.3425 0.0048567264   0.29730328   0.18418208 
 4036000     497.6482   -7309.9787   -4877.6647   -864.09718   -5664.5501   -307.41391 0.0048544865    0.2972982   0.18420274 
 4038000    494.94616   -7310.2886   -4404.7869   -137.74458   -6624.4313    1164.6861 0.0048525322   0.29731647   0.18418599 
 4040000    501.48569   -7310.8918   -3833.9443   -648.80917   -5967.3893    1191.9826 0.0048505725   0.29731484    0.1841583 
 4042000    457.96691   -7308.3948    -3841.975   -1541.7232    -7548.315    3680.7883 0.0048484481   0.29727517   0.18414961 
 4044000    527.75598   -7308.7751   -2680.4937   -1349.6765   -10391.674    2606.5638 0.0048468349   0.29727538    0.1841666 
 4046000    522.09458   -7310.0999     -5164.29   -598.93484   -5940.0777   -683.19323 0.0048440279   0.29727418    0.1841592 
 4048000    476.16145   -7309.1717   -2271.4194   -3661.9376   -6094.1854     6258.238 0.0048455016    0.2972515   0.18414203 
 4050000    486.13194   -7309.0155   -7470.5826   -1790.5083   -4758.6163    3247.0127 0.0048504058   0.29728413   0.18413001 
 4052000    468.71564   -7309.7487   -2668.0362   -1738.1052    -4944.876    3815.4455 0.0048477041   0.29732693    0.1841561 
 4054000    490.24715   -7307.2629   -10554.872    -92.19682   -4150.0768     2114.021 0.0048451987   0.29729125   0.18414879 
 4056000    518.00761   -7310.9907   -5222.9397   -884.58794   -6044.4949    3670.8112  0.004842727   0.29726816   0.18412984 
 4058000    487.90955   -7308.9089   -7276.5457   -1430.1758   -6648.7827    3074.2033 0.0048408653   0.29731774   0.18412006 
 4060000    510.93163   -7311.1394   -6754.1982    896.87728   -5561.8248    5747.5057 0.0048442748   0.29732684   0.18412582 
 4062000    506.89918   -7308.5178   -8093.3951    245.89918   -6405.5802    3304.3256 0.0048420604   0.29729496   0.18416264 
 4064000    477.23007   -7310.8987    -9074.478   -916.20801   -6674.4009    3007.7302 0.0048406116   0.29730088   0.18414429 
 4066000    507.61716   -7309.9326   -3406.5737   -1643.1781   -6197.5504    4758.1352 0.0048401645   0.29734336   0.18413154 
 4068000    508.56659   -7309.5535   -5348.4208   -3874.9994   -4740.7111    3302.7623 0.0048466797   0.29734573   0.18411966 
 4070000    476.05232   -7310.5679   -5524.4746    529.95324   -6052.7945    6611.8673 0.0048509821   0.29734037   0.18411346 
 4072000    476.34066   -7308.5007   -4465.0445    625.96721   -5083.8053    5067.5843 0.0048487568   0.29737264   0.18415951 
 4074000    487.65878   -7308.7999   -4001.2043   -580.91904   -8013.4415    5028.7871  0.004846712   0.29736199   0.18415566 
 4076000    502.07368   -7311.1614   -1077.5027   -1945.2292   -4501.3351    4039.1429  0.004848436   0.29735956   0.18413167 
 4078000    496.52801   -7308.1525   -5669.5721   -791.81536   -7098.0616    6512.2654 0.0048464863      0.29737   0.18413564 
 4080000    474.05491   -7309.8457   -4233.6765   -2284.8434   -7427.6377    3169.5405 0.0048445807    0.2973769   0.18413863 
 4082000    490.87321   -7309.6464   -4396.7003   -988.04666   -6379.2588    5765.6705 0.0048439893   0.29736005   0.18412156 
 4084000    486.90492   -7309.2667   -4792.7766   -4011.4156   -7542.9618    6625.0859 0.0048496522   0.29736723   0.18410265 
 4086000    503.97014   -7308.7325   -7194.2751    2013.8521   -4932.3602    6694.7455 0.0048531554   0.29739048   0.18413227 
 4088000     493.8174   -7310.0386   -5767.6256    1152.3352   -5643.5857    3539.7747 0.0048505591   0.29740797   0.18414268 
 4090000    496.86533    -7309.581   -6611.3563   -144.68815   -4835.8282     2977.181 0.0048484571   0.29737303   0.18412669 
 4092000    517.87105   -7307.1087   -3496.4997     2719.116   -8876.3765    5012.1259 0.0048481858   0.29735683   0.18412217 
 4094000    477.10425   -7310.4072   -4212.3236    759.80713   -3102.0769    2766.2484 0.0048465234    0.2973965   0.18410958 
 4096000    537.08259   -7307.9412   -2316.8308    1558.5741   -7064.9056    5846.5257 0.0048440138   0.29739188   0.18407723 
 4098000    499.62633   -7311.4549   -4354.7579    -712.9353   -4352.4099    6180.0632 0.0048430761   0.29735711   0.18411993 
 4100000     489.9211   -7309.1917   -212.74781   -2308.8927   -8509.4457    8407.5921 0.0048400094   0.29735419   0.18412556 
 4102000    528.82111   -7311.2519   -1997.2731   -2353.3282   -6174.8592    4830.5215 0.0048407523   0.29735967   0.18414642 
 4104000    537.90051   -7309.4987   -2206.7488   -6182.5759   -6305.5559    3090.7421 0.0048497281   0.29737505   0.18412628 
 4106000    482.52372   -7307.7466   -2410.0545    714.74365    -6333.172     3981.983  0.004849159   0.29737073   0.18410608 
 4108000    491.14275   -7310.3891   -6281.8544   -1708.8219    -5963.704    3404.0017 0.0048471485    0.2973829   0.18408578 
 4110000    495.16227   -7308.1786   -5470.5524    1611.0014   -6444.0635    3233.9978 0.0048470028   0.29738796   0.18411397 
 4112000    492.39534   -7310.2107   -5122.0435   -673.62745    -3178.817   -86.696085  0.004845316    0.2973767    0.1840936 
 4114000    514.54802   -7308.4089    -4900.207   -838.12502    -7599.582    4253.3751 0.0048503617   0.29736908   0.18408355 
 4116000    499.82995   -7309.9183   -4780.9497    953.13101   -6268.9483    5146.9592 0.0048474153   0.29737037   0.18407961 
 4118000    522.48859   -7310.9528   -5361.3321    -1115.094   -4791.6951    3149.4363 0.0048478123   0.29739458   0.18411515 
 4120000    474.03917   -7309.6815   -3400.6906    -2566.377   -6540.0918      4972.32 0.0048464047   0.29740227   0.18409303 
 4122000    496.46193   -7308.6975    -3009.473    1065.7404   -4214.0906    1864.0868  0.004845601   0.29741388   0.18409008 
 4124000    479.36793   -7309.2846   -2607.3915   -249.72357   -4386.6158    4957.1225 0.0048427018   0.29739961   0.18406401 
 4126000    470.34492   -7309.7066   -5329.3181   -1253.7177   -9412.8035    7592.2242 0.0048491366   0.29737826   0.18405302 
 4128000    512.30397   -7311.0231   -3286.5744    1515.5222   -6060.4802    3556.8947 0.0048468375   0.29743732   0.18409657 
 4130000    535.85121   -7309.6991   -5249.0352   -1841.8221   -6968.2709    6035.5304 0.0048446563   0.29741877   0.18410832 
 4132000    482.82351   -7310.4307    -3717.129    1069.6352    -4048.196    1930.0236 0.0048431798   0.29741936   0.18410648 
 4134000    477.68923   -7308.5518   -3730.8787    -670.5793   -5018.6632    5783.9969 0.0048405936    0.2974171     0.184058 
 4136000    470.12017   -7309.9639   -6850.2436   -2154.1119    -5032.715    6131.5614 0.0048406097   0.29744006   0.18404686 
 4138000    506.20333   -7309.3091   -6446.5695   -2422.9766   -4606.4839    8668.4349 0.0048412056   0.29744577   0.18405304 
 4140000    490.73661   -7310.3163   -8353.7309   -2736.8083   -8347.4958    3555.0014 0.0048426378   0.29744068   0.18409768 
 4142000    525.04678   -7311.3239   -4555.0007   -1514.9548   -2654.7114    4929.5767 0.0048412379   0.29747088   0.18408556 
 4144000    519.03908    -7310.391   -5553.8369   -660.76436   -8856.4025    2794.1377 0.0048389613   0.29745731    0.1840728 
 4146000    529.99577   -7309.0717   -3960.7538    814.73074   -5143.6591    2104.0456 0.0048370614   0.29742609   0.18404863 
 4148000    487.33302   -7309.1697   -4578.6524   -3928.1377   -9554.2687     3700.608 0.0048352109   0.29744668   0.18403844 
 4150000     484.1169   -7310.2306   -5691.3945   -1346.0629   -6773.8573    3420.9637 0.0048361516    0.2974485    0.1840422 
 4152000     487.0372    -7310.055   -2365.7153    -1006.735   -5339.6934    4365.5129 0.0048339769   0.29744433   0.18405922 
 4154000    503.58052   -7310.6195   -3790.1612    1366.2652    -6502.534    6196.5351 0.0048347188   0.29747067    0.1840869 
 4156000    462.81762   -7310.0654   -2804.1126    -622.9311   -4289.3145    3178.9589 0.0048351651   0.29747675   0.18407312 
 4158000    494.24622   -7308.2472   -3831.8304    2917.8962   -5700.1236      4453.49 0.0048330887   0.29746544   0.18404751 
 4160000    485.41861   -7311.3176   -7493.2219      1141.52   -4571.2664    4318.3953 0.0048308749   0.29743738   0.18405101 
 4162000    472.05134    -7307.094   -4219.2022    1062.8385   -5726.0335    5007.8328  0.004828474   0.29745521   0.18405608 
 4164000    505.34013   -7309.9368   -8610.9624   -1167.3237   -7500.7828    6350.5369 0.0048262471   0.29748545   0.18404753 
 4166000    481.36489   -7307.7114    -5605.786   -1676.0656    -4518.369    7028.6965 0.0048252761   0.29747776   0.18404932 
 4168000    503.28077   -7308.7396   -6560.4958    680.00029   -6421.3062    3115.7249  0.004823439   0.29745872   0.18406781 
 4170000    495.90655   -7309.4201   -6647.7732   -2200.4661   -4509.8824    7327.3716 0.0048209448   0.29746802   0.18406854 
 4172000    467.88762   -7309.0291   -4606.4546   -1256.2313   -8763.7149    2312.6362 0.0048242017   0.29747196   0.18409596 
 4174000    495.36031   -7310.2497    -5919.806    2109.0684   -3487.4197     5160.092 0.0048255535   0.29751366   0.18407494 
 4176000    486.72675   -7310.1618   -5908.5656   -1051.8827   -6650.3422    4429.1776 0.0048233476   0.29750754   0.18407843 
 4178000    473.43204   -7310.1477     -4849.72    2340.6252   -4544.5223    4215.0371  0.004821967   0.29751592   0.18405959 
 4180000    502.17427   -7310.4758   -3997.5709   -366.25955   -2379.0093    6471.4033 0.0048192087   0.29748114   0.18406539 
 4182000    458.39957   -7311.2799   -3674.9439     1610.524   -6423.0054    6264.3899 0.0048217549   0.29744757   0.18406758 
 4184000    502.94494   -7307.2569   -4431.9204      1064.02   -3835.2759    6189.5964 0.0048193695   0.29750648   0.18413696 
 4186000    502.31094   -7312.4171   -2905.9342   -1787.8737   -5857.0281    5134.2493 0.0048182964   0.29753629   0.18415363 
 4188000    490.92344   -7310.0839   -3612.4642    459.91621   -4537.4382    4291.1576  0.004816101   0.29752827   0.18412446 
 4190000    497.93701   -7308.6956   -4085.6688   -2144.9343    -8075.832     3753.666 0.0048163007   0.29750127     0.184105 
 4192000    476.51423   -7310.4713   -5326.2989    -1243.188   -6101.5214    7456.6932 0.0048164541   0.29750062   0.18410023 
 4194000    507.38125   -7308.2001   -2202.7367    -750.5892   -6831.1943    2086.0075 0.0048185854   0.29750656   0.18410348 
 4196000    496.46146   -7309.7592   -5097.1976   -2779.4048   -8875.6784     3692.587 0.0048186579   0.29751078   0.18411163 
 4198000     519.6687   -7308.8946   -4480.6262   -3589.9586   -5787.2948    4267.2077 0.0048190858   0.29750653   0.18413702 
 4200000    518.85607   -7309.4745   -3305.7986   -191.15667   -4918.2777     2206.991 0.0048318961   0.29751892   0.18412974 
 4202000    478.69811   -7309.7438   -1431.4921    868.75743   -6757.0309    2512.5918  0.004829524   0.29751104   0.18410503 
 4204000    520.58857   -7309.7445   -5176.1313    628.83574   -6781.6847    6549.4266 0.0048279107   0.29750587   0.18408036 
 4206000    484.64842   -7309.1042   -3624.9666   -1841.5074   -5674.6969    5813.5559 0.0048258842   0.29752407   0.18410477 
 4208000    491.15435   -7310.1066   -1888.0761   -603.42826   -2816.7491    7605.2395 0.0048255143   0.29749716   0.18411236 
 4210000    485.24666   -7311.2729   -3290.8995     942.5195   -6499.7347    7874.5409 0.0048264008   0.29750168   0.18414153 
 4212000    460.71618   -7309.3568    -1321.284   -1993.0551   -3399.0601     2851.174 0.0048250341   0.29751774   0.18412739 
 4214000     525.4543   -7309.4333   -4255.8037   -3363.4059   -4663.7321    6535.4035 0.0048237445   0.29751731   0.18408788 
 4216000    486.09008   -7309.5194   -4009.0329   -1447.9839   -8019.2508    5204.2772 0.0048204968    0.2975492   0.18408437 
 4218000    465.36911   -7309.4402   -4548.6118   -2161.7179   -4345.0786    8040.6403 0.0048192463   0.29754827   0.18408849 
 4220000    505.96423   -7311.4145   -5027.3388    230.22401    -6633.585    3938.0659 0.0048172842   0.29751743   0.18410639 
 4222000    504.30392   -7308.7539   -6179.4845   -4704.7065   -5586.0777    6130.7243 0.0048161595   0.29753225   0.18409439 
 4224000    500.27858   -7310.0897   -5772.7625   -2905.2895   -7515.9041    3865.3133 0.0048264136   0.29753861   0.18409541 
 4226000    521.63232   -7309.7256   -5555.8392   -1056.6754   -7146.7525    2525.6906 0.0048273186   0.29756862    0.1840822 
 4228000    512.85653   -7309.6648   -4674.3945    2153.7905   -4454.0098    5405.3647 0.0048254547   0.29755622   0.18408246 
 4230000     508.4523   -7308.7703   -4039.5123    1841.4408   -3099.7994     3951.681 0.0048235843   0.29755433   0.18407071 
 4232000    505.13068   -7309.4981   -4920.7496    637.93896   -7120.5086    4660.6202 0.0048232182   0.29756597   0.18406299 
 4234000    486.22512   -7307.4279   -1851.2376   -1530.5552   -4541.1117     4223.494 0.0048208438    0.2975932   0.18407479 
 4236000    519.28988   -7309.4855   -2990.6796    -412.7396   -4001.7612    7734.0851 0.0048290557   0.29759369   0.18405708 
 4238000    515.20457   -7309.0904   -2478.2939   -225.85467   -5307.5015    6980.5422 0.0048363497   0.29756786   0.18407066 
 4240000      481.168   -7310.2531   -5828.5933   -95.901754   -5459.0946    6346.7824  0.004834364    0.2976306   0.18405941 
 4242000    501.89205    -7309.869   -6149.4707   -749.79406   -6088.4381    8529.0342 0.0048321237   0.29762765   0.18405817 
 4244000    538.44645   -7311.8409   -2897.7493   -115.83288   -6601.7734    6481.6341 0.0048292325   0.29759652   0.18407063 
 4246000    536.11167   -7311.3668    -6803.972   -1997.2115   -8289.7573      5214.42 0.0048266605   0.29758521    0.1840555 
 4248000    482.20883   -7308.3658   -4652.6556    585.11863   -7060.0169    6474.2649  0.004825455   0.29761678   0.18404532 
 4250000     448.1236   -7309.3261   -5495.1269   -2395.4745    -7213.225    2695.0096 0.0048236396   0.29764774   0.18405547 
 4252000    512.78436   -7309.1305   -4319.4613   -4645.4035   -6714.6009    3427.3897 0.0048279759   0.29763848   0.18406962 
 4254000    508.00544   -7312.2827   -5851.6782    2339.5774   -9500.4165    3579.2567 0.0048281924   0.29764233   0.18405021 
 4256000    494.63672   -7309.9278   -3878.6286    1683.3345   -7433.3993    3757.1499 0.0048257582   0.29763612   0.18404445 
 4258000    526.53108   -7307.8875   -3749.4096   -59.300478   -2932.8682    6095.4769 0.0048237749   0.29763065    0.1840309 
 4260000    526.79078   -7310.1331    -5271.051   -877.27365   -6844.4855    6247.7135 0.0048224766   0.29764584   0.18403107 
 4262000    466.22493    -7309.748    -2557.907   -1276.4445   -3028.8395    5558.1685 0.0048226295   0.29766015   0.18404712 
 4264000     526.1226   -7310.5769   -4154.6872    -1434.049   -4925.5276    5003.6156 0.0048210783   0.29768563   0.18404356 
 4266000    500.45071   -7308.8956    -1953.499    -55.26916   -3976.4574    4995.5282 0.0048176007   0.29763014   0.18403291 
 4268000     504.0807   -7309.4757   -7261.2758    299.55773   -6115.1948    4954.2701 0.0048151592   0.29765672   0.18402357 
 4270000    483.41319   -7307.9563   -4058.9379   -2355.0345   -5549.2327    3998.4126  0.004816392   0.29766933   0.18402421 
 4272000    519.19148   -7309.0895   -9366.3186   -1956.8767   -7718.4607    4292.4198 0.0048145464   0.29765091   0.18402821 
 4274000    522.25165   -7310.2935   -8102.7025   -243.83994   -7983.7393    5135.1146 0.0048149502   0.29766262   0.18403389 
 4276000    526.43939   -7308.8265   -6694.1987   -1489.6972   -6976.5498    3333.8947 0.0048132637   0.29765209   0.18403556 
 4278000    534.75002    -7308.805   -5787.5192    720.96438   -7611.1153    579.72123 0.0048110282   0.29765043   0.18402428 
 4280000    509.94934   -7310.3737   -4732.2168   -1497.9077   -2571.4381    4290.3318 0.0048091742     0.297653   0.18402219 
 4282000    507.61022   -7309.1616   -6526.7565    330.87075   -4676.5073    2604.1778 0.0048068593   0.29763593   0.18401155 
 4284000    486.43513   -7310.0197   -3586.9429   -3057.2883   -6402.9278    6245.9972 0.0048048922   0.29766227   0.18402183 
 4286000    532.17988   -7310.1652   -1274.4125    -502.4448   -2229.1536    6099.9653 0.0048045998   0.29768341   0.18405094 
 4288000    531.85421   -7309.3568   -1574.8755   -1707.5472   -5249.5183    5083.7149 0.0048024455   0.29770286   0.18406568 
 4290000    513.99916   -7310.0969   -1745.5478    -902.2271   -5743.0283    5148.9294  0.004803492   0.29767814    0.1840487 
 4292000    500.82101   -7309.0325   -5300.6265   -600.67152    -5839.549    4881.7695 0.0048017258   0.29764956   0.18403626 
 4294000    512.44862   -7310.2273   -2506.3474    413.32215   -6100.4637    5589.9658 0.0047992398   0.29768508   0.18404519 
 4296000    480.20477   -7310.7158   -4049.9986   -3525.4323    -5494.479    3307.3056 0.0047999426   0.29770382    0.1840689 
 4298000    512.67444   -7309.1779   -2405.5226    1709.8495   -7031.1771    3111.1148  0.004804018   0.29769153   0.18405106 
 4300000    476.60553   -7308.6233    -2460.651   -387.11046   -6763.4041    3192.1418 0.0048023328   0.29768141   0.18404905 
 4302000    496.98768   -7311.3601   -3408.5025     106.1402   -8895.9487    3920.5361 0.0047983592   0.29768813   0.18405737 
 4304000    486.77692    -7308.817   -5102.9954    1469.4791   -6245.9453    7016.0669 0.0047970181   0.29769226   0.18406812 
 4306000    526.21509   -7309.3254   -2513.0744   -947.17558   -7522.6808    3177.5985 0.0047940619    0.2976671   0.18405225 
 4308000    473.11183   -7309.3588   -7920.8841   -1265.7528   -6223.6686    3761.2939 0.0047964085     0.297694   0.18405199 
 4310000    511.54515   -7310.9029   -3932.8542   -1156.3965   -5901.5092    4774.8874 0.0047940076   0.29768316   0.18405079 
 4312000    497.14155   -7307.1877   -5651.8168    23.702248   -5062.6957    4049.8587  0.004795483   0.29769066   0.18405525 
 4314000    522.05569    -7310.925   -5841.1422    209.42808   -4760.1523    5755.5107 0.0047969175   0.29772096    0.1840639 
 4316000    486.76025   -7309.2017   -4161.5485   -1776.7026   -3356.3219    1656.6533   0.00479533   0.29771524   0.18404445 
 4318000    506.36398   -7310.3327   -1628.5045   -2180.0486   -5126.0744    4023.8563  0.004794941   0.29772097   0.18403298 
 4320000     521.8926   -7309.2695   -6152.1955   -829.81593   -7939.8178    5252.7389 0.0047935583   0.29769239   0.18402523 
 4322000    491.84675   -7308.1452   -2850.9161   -985.08199   -8492.4646    4127.9198 0.0047915475   0.29769778   0.18401307 
 4324000    483.06973   -7308.4243    -5209.859   -1394.9451   -5962.5946    4376.6247 0.0047964269   0.29771596   0.18402415 
 4326000    540.27712   -7311.1649   -5233.6842     558.7333   -5245.1423    6973.5538 0.0047989854    0.2977363   0.18402653 
 4328000    486.73325    -7307.916   -3662.2041       1518.9   -5690.5692    2690.1591 0.0047965939   0.29771241   0.18403367 
 4330000    491.72907   -7308.9198   -5768.8839    2086.3838   -3711.6557    4146.0639 0.0047937848   0.29770284    0.1840081 
 4332000    538.04629   -7309.2516   -2265.4141   -1760.2334   -7418.2656    3709.1628 0.0047936711    0.2976885   0.18399336 
 4334000    495.72271   -7308.8457   -5695.4552    1457.3038   -3643.7639    3857.4375 0.0047907501   0.29770295   0.18399801 
 4336000    499.68926    -7310.306   -2735.3129   -3024.9685   -5522.4647    5557.8752   0.00478853   0.29770075   0.18400333 
 4338000    508.67131   -7310.4127   -2681.9037   -567.23356    -6778.819      3805.69 0.0047893648   0.29767139   0.18400973 
 4340000    512.25495   -7310.4566   -2709.0039   -2588.2535   -4633.2579    5021.6112 0.0047954039   0.29770602   0.18400309 
 4342000    506.94475   -7309.2721   -3201.1747   -92.726824   -5351.6284    5591.4965 0.0048003185   0.29772529   0.18399232 
 4344000    519.35309   -7308.6773    -1990.578   -973.68614   -5866.5745    4724.4406 0.0047993857   0.29772427   0.18400665 
 4346000    544.36351   -7309.6663   -3188.9901    1540.3195    -5292.717    5466.8997 0.0047973725   0.29775268   0.18398588 
 4348000    470.44949   -7310.4365   -2462.9159   -2407.9726   -4876.7672    4841.4544 0.0047951351   0.29772865   0.18398294 
 4350000    458.26895   -7310.1344   -5656.7075    1206.6484   -5664.1421     2328.376 0.0047957613   0.29771842   0.18396994 
 4352000    538.42847   -7310.3502   -5414.1323    380.27636   -5560.5442    5157.4175 0.0047934867   0.29774296   0.18396829 
 4354000    510.49424   -7310.4919   -7075.6257   -2141.5402     -4558.15     3897.446 0.0047916267   0.29775071   0.18398333 
 4356000    481.79962   -7309.6642   -5592.0812   -1396.8037   -7656.9558     3055.335 0.0047900584   0.29773958    0.1839715 
 4358000    530.52408    -7310.509   -4447.7498   -1262.1718   -5163.5195    5177.7067 0.0047910097   0.29772166    0.1839673 
 4360000     482.9516   -7309.9466   -4788.4442   -1136.3599   -6461.2296    3160.6305 0.0047903051   0.29775899   0.18395883 
 4362000    529.22418   -7309.7172   -4103.5298   -3220.0488   -4686.1306    6780.7637 0.0047910196    0.2977612   0.18394897 
 4364000    512.05167   -7309.8041   -6500.2636   -156.43395   -3908.4329    6718.2844 0.0047907954   0.29775701   0.18395742 
 4366000    501.50868   -7308.6262   -1540.8037    434.32559   -6483.2368    8863.4902 0.0047897591   0.29777909   0.18398322 
 4368000    517.32435   -7308.7429   -2803.5277   -263.13915   -2872.4652    3177.3582 0.0047880189   0.29777932   0.18400976 
 4370000     460.0744   -7311.4824   -2482.6984    3123.0263   -5910.3778     4386.531 0.0047869345   0.29776427   0.18397689 
 4372000    532.38266   -7308.4418   -2713.7644   -3380.8514   -5714.0488    4093.6766 0.0047855976    0.2977665   0.18395321 
 4374000    525.80527    -7309.898    -1880.186    949.91519   -8334.7268    3318.9272 0.0047943091   0.29777442   0.18393943 
 4376000    481.68847   -7308.7274    -1779.248    1204.9805    -6644.407    3163.3133 0.0047966736   0.29778964   0.18392527 
 4378000    488.78589   -7308.6578   -3876.4922   -379.42547   -7015.5843    3890.2543 0.0047935658   0.29777254   0.18392913 
 4380000    469.60419   -7309.6063   -3274.1116   -2771.0003     -9397.34    1967.7955 0.0047915442   0.29776557   0.18395165 
 4382000    496.69151   -7308.9079   -376.46165   -2089.6647   -5632.2909    2009.0799 0.0047914522   0.29780316   0.18395055 
 4384000    476.90101   -7309.3519   -4635.3511    -1540.336   -8268.7392    4994.2691  0.004789905   0.29779166   0.18394557 
 4386000    494.77039   -7310.8873   -2578.7644   -1101.6388   -7787.8558    3986.1202 0.0047876819   0.29780758   0.18393854 
 4388000    536.47721   -7308.7399   -5172.6306   -249.61667   -6282.6929    3836.0087 0.0047856811   0.29784464   0.18394865 
 4390000    471.41589   -7309.0641   -4713.2653    621.97301   -6437.9025    5626.4135 0.0047843919   0.29784025   0.18393007 
 4392000    516.69715   -7308.5947   -3903.8744     1274.051   -1969.5633    2060.7686 0.0047825418    0.2978191   0.18393422 
 4394000    501.76518   -7312.1519   -5958.1492   -117.08353   -5942.9794    2303.4242 0.0047806039   0.29780194   0.18393415 
 4396000    529.78014   -7308.1168   -4699.8191    1134.2405   -4161.6528    8047.9269 0.0047857161   0.29784144   0.18393454 
 4398000    497.69353   -7309.0446   -5891.6273   -71.831881   -6606.0158    4543.3851  0.004795977   0.29784388   0.18396623 
 4400000    542.07129   -7309.9103   -5776.9914   -402.84824   -2936.8159    4133.6522  0.004791778   0.29784625    0.1839448 
 4402000    512.44144   -7309.3755   -4384.7807     917.7502   -5527.2714    3740.4747 0.0047902344   0.29784281   0.18392996 
 4404000    504.28914   -7309.6619   -3215.9438   -2860.0089   -5791.5726    4975.1381 0.0047883812   0.29784972   0.18392533 
 4406000     501.4778   -7311.5995   -5434.5072    1085.5168   -6100.7432    6838.5737  0.004788443   0.29781933   0.18392602 
 4408000    482.34949   -7308.9366   -3704.3621   -2470.4804   -8235.3572    5313.7603 0.0047871937   0.29781834   0.18392458 
 4410000    490.24683    -7308.578    -4177.406   -3251.0403   -4793.1389    5905.5306 0.0047957677   0.29783556   0.18393881 
 4412000    509.97123   -7309.5659   -6550.8906   -181.17071    -6558.424     1861.268 0.0048119968   0.29785604   0.18394273 
 4414000    468.05899    -7310.245   -5596.4477    1667.0086   -7615.2722     1296.368 0.0048117272   0.29786453   0.18393427 
 4416000    508.63439   -7311.1422   -5947.2314    44.948415   -4121.5606    2837.4245 0.0048117121   0.29785075   0.18392686 
 4418000    481.42805   -7311.1726   -4005.5673    1325.3473   -6367.5941    1021.4194 0.0048132099   0.29783688   0.18394726 
 4420000     492.2988    -7308.635   -3374.6036    -3679.029    -4162.417     4589.042 0.0048137409   0.29782027   0.18394242 
 4422000    481.86387   -7309.4731   -2110.8943   -2121.5826   -6691.6477    3803.3426 0.0048148747   0.29783524   0.18393372 
 4424000     494.2485   -7308.9392   -2607.0291   -488.67981   -3257.6105    6339.4843 0.0048127836   0.29784185   0.18393174 
 4426000    491.82209   -7310.8296   -4190.8581   -617.08964   -4358.8276    8009.2284 0.0048153553   0.29783954   0.18392009 
 4428000    453.44596   -7309.1158   -5440.6537    3984.7343   -6043.8844    5600.4321 0.0048162783   0.29785964   0.18393935 
 4430000     504.2092   -7310.2406   -5422.7067     281.9262   -5790.7711    4552.3535 0.0048142227   0.29784824   0.18393147 
 4432000    526.20689   -7309.4521   -5811.9274    1629.3192    -8802.446    8016.4865 0.0048132669   0.29783932   0.18391226 
 4434000    549.11587   -7311.4672   -5529.5756    837.09189    -7947.529    3477.7586 0.0048122752   0.29784204   0.18389921 
 4436000    530.16759   -7307.3879   -7721.1589   -2142.5061   -6196.2425    4140.8443 0.0048111709   0.29784454   0.18388697 
 4438000     482.6643   -7310.2921   -3894.3219    363.34582   -6311.7164    5813.5369 0.0048108516   0.29785089   0.18390451 
 4440000    492.50031   -7309.2548   -7230.1896   -893.06785   -6831.2861    2779.1903   0.00480996     0.297845   0.18390483 
 4442000    502.01268   -7308.7223   -6400.5467   -2013.1762   -5025.7092    3962.5324 0.0048077889   0.29786083   0.18390804 
 4444000    471.50084   -7309.6514   -5804.4296   -2256.3191   -5363.2784    4491.5821 0.0048080249   0.29786985   0.18389862 
 4446000    486.60798   -7308.7312    -4918.668   -4646.0139     -4645.99    2955.0272 0.0048127085   0.29786028   0.18389267 
 4448000    511.04757   -7309.7116   -3877.0128   -1059.7549   -5210.8482    3644.7637 0.0048125195    0.2978797   0.18387906 
 4450000    515.87847   -7310.6984   -5495.3812    1981.5993   -4431.3626    3800.9363 0.0048118349   0.29786998   0.18388313 
 4452000    471.81519   -7310.1181   -6336.5943   -1583.5072   -4801.1209    4275.8351 0.0048097865    0.2978291   0.18389685 
 4454000    533.51491   -7308.7231   -4087.5824     559.6782   -6387.2565    3150.1613 0.0048105139   0.29784631   0.18391021 
 4456000    492.32485   -7310.4208   -6385.9333   -77.548514   -6908.8243    3655.6175 0.0048082103   0.29787797   0.18389632 
 4458000    493.31994   -7309.1697   -4983.3307   -1645.8348   -4559.5716    5040.2872 0.0048073983   0.29785632   0.18388062 
 4460000     496.1383    -7309.866   -4828.2059     117.8588   -7073.3474    4378.1056 0.0048125406   0.29787792   0.18387885 
 4462000    496.89941   -7307.3015   -5616.7752   -1024.5163   -4278.1863    4843.9644 0.0048126071   0.29788396   0.18388559 
 4464000    508.38282   -7308.5233   -332.24682    -2647.479   -4845.8843    4501.1517 0.0048100948   0.29786335    0.1838705 
 4466000    510.42729   -7310.5262   -4327.7211   -933.26013   -6391.5164    3150.2582 0.0048087113   0.29784335   0.18385166 
 4468000    476.95077   -7309.9542   -3709.5738   -527.53679   -6466.7202    5621.8428 0.0048063383   0.29784477    0.1838776 
 4470000    529.22199   -7309.3346   -2906.4861     296.0874   -6231.3352    3132.3442 0.0048043606   0.29783275   0.18388954 
 4472000    539.01474   -7309.2296   -5153.0075   -1139.8946   -6510.0554    3688.1628 0.0048036863   0.29783699   0.18385004 
 4474000    482.52616   -7311.4701   -5365.0729   -3130.6316   -5122.4303    6130.8268  0.004801449   0.29784348   0.18383463 
 4476000    475.11737   -7309.3939   -4999.6207    -1511.844   -5418.2008    7121.4728 0.0048019738   0.29785434    0.1838391 
 4478000    514.40331   -7308.2918   -8645.8635    1654.2861   -3251.9592    4075.2402 0.0048001036   0.29784424   0.18387373 
 4480000    531.57246   -7311.5582   -7923.6561   -418.52851   -6485.9971    4953.4843  0.004798043   0.29782369   0.18386996 
 4482000    481.28586   -7307.9276    -6239.086   -427.38391    -7394.487    5904.0408 0.0047967095   0.29782924    0.1838665 
 4484000    490.64959   -7310.2058   -9282.8956   -2989.7981   -7075.1174    2687.0139 0.0047967291   0.29785417   0.18385417 
 4486000    502.80199   -7309.5562   -7982.1566    4591.5729   -7097.2096    2933.5312 0.0047998979   0.29784914   0.18385104 
 4488000    521.48738   -7311.4401    -7424.813    874.66006   -9021.1988    3058.2207 0.0047992187   0.29788207   0.18385388 
 4490000    522.98439   -7309.3663   -6086.0283    -3205.433   -8066.3771    4142.0574 0.0047987444   0.29786815   0.18385827 
 4492000    549.05194   -7309.7221    -5036.893   -2717.9638   -6272.9529    2725.8883 0.0047985222   0.29784999   0.18387445 
 4494000    529.89786   -7309.5225   -5271.5499   -901.28927   -7438.2713    4669.7428 0.0048006787   0.29783131   0.18385515 
 4496000    548.43617   -7308.8562   -4122.5991    -1415.117   -8143.7618    869.48597 0.0047981737   0.29782637   0.18383393 
 4498000    483.98739   -7310.1817   -5210.1739   -3852.1533   -6734.5932    8448.4448 0.0048006425   0.29784399   0.18384414 
 4500000    500.62193   -7311.0436   -6037.4972   -334.41943   -7089.2541    7193.3919 0.0048035977   0.29789385   0.18387065 
 4502000     501.6998   -7311.4142   -4013.7366    1883.7438   -4869.1257    4148.5679 0.0048016155   0.29788488   0.18385976 
 4504000    530.03212   -7309.4506   -5576.5708   -2314.6921    -6006.327    6386.1914  0.004800686   0.29785178   0.18385621 
 4506000    486.87538   -7310.1561   -2310.3223   -830.75745   -4656.6422    3927.5728 0.0047985754   0.29784331   0.18384435 
 4508000    477.00023   -7309.6231   -5917.2059     1285.661   -8917.5172    4283.0401 0.0047973236   0.29785854   0.18385281 
 4510000    466.14769   -7309.2123   -6292.0276   -134.09808   -6589.0621    5453.2606 0.0047981443   0.29785511   0.18384878 
 4512000    465.12566   -7310.3135   -6935.7733   -1242.5352   -8031.4929    2062.5698 0.0047970277   0.29785786   0.18385557 
 4514000    517.09805   -7308.0069   -4162.5148    254.69854   -9121.8226    5252.4162 0.0047973195   0.29786963   0.18384295 
 4516000     512.6398   -7310.9285   -6981.0138    495.98325   -5942.2261    2907.7004 0.0047958713   0.29787786   0.18384958 
 4518000    491.31011   -7311.2727   -5389.1326    1122.2786   -6983.4266     5448.305 0.0047935872   0.29786326   0.18384155 
 4520000    475.55854   -7309.6344   -4042.1618     -1616.97   -5567.9254    3419.8076 0.0047917347   0.29784162   0.18386124 
 4522000    497.50851   -7309.7664   -3810.8441   -957.71291   -4511.9474    5737.5798 0.0047891953   0.29786186   0.18385261 
 4524000    519.53669   -7309.8454   -1984.6782   -1921.9655   -5586.6122    6418.6226 0.0047872085   0.29785607   0.18385557 
 4526000    489.16466   -7310.3852   -5311.8364   -1734.0059   -8035.9546    6984.2996 0.0047902384   0.29785141   0.18383816 
 4528000    514.89178   -7309.6707   -3923.9125   -3465.8244   -3884.8864    5887.7925 0.0047943644   0.29790338   0.18384508 
 4530000    485.72503   -7308.0476   -4395.0288   -1739.9099   -6415.4525    8408.2584 0.0047946873   0.29789473    0.1838608 
 4532000    521.74374   -7309.2278   -2121.6662    736.10884   -9054.4502    5331.6835  0.004792585    0.2979169   0.18387127 
 4534000    512.40986   -7308.3388   -3730.6444   -2655.0642   -4693.1762    4451.6743 0.0047934849   0.29790923   0.18386063 
 4536000     467.4751   -7309.3236   -5622.4698   -913.34054    -7714.365    4446.0146 0.0047916014   0.29789762    0.1838472 
 4538000    486.94031   -7309.9652   -4630.7685   -1077.2351   -9419.8586    2725.3272 0.0047899492   0.29790431   0.18383165 
 4540000    494.46312   -7307.2092   -5817.1021    230.40579   -5415.0001      5377.08 0.0047875599   0.29787819   0.18383227 
 4542000    492.75538   -7307.7254   -4537.0675   -337.43803   -7374.6889    7349.3932 0.0047862896   0.29786491   0.18384629 
 4544000    514.83522   -7309.8766    -6081.794   -883.94186   -6865.4159    6122.9156 0.0047951789   0.29791001   0.18384863 
 4546000    516.52683   -7310.1165   -3081.9222   -2053.0997   -7411.7317    5118.6952 0.0047943446   0.29793519   0.18384385 
 4548000    488.90233   -7310.4888    -4861.611    1310.5126   -7814.8167    4301.3541 0.0047946106   0.29793118   0.18384164 
 4550000    562.41096   -7310.4334   -1874.3955   -2713.3421   -3749.4226    8451.3528 0.0047920278   0.29794816   0.18385393 
 4552000    507.27529    -7309.771   -5331.5258    2244.2666   -5577.8768     4740.931 0.0047903958   0.29791352    0.1838491 
 4554000    475.09015   -7310.2843    -1195.362   -5081.3063   -4098.1679    6685.3814 0.0047884945   0.29788908   0.18383485 
 4556000     511.4256   -7310.1476   -3087.6301    1154.6636   -4606.4526     5951.696 0.0047911702   0.29793874   0.18383805 
 4558000    481.16892   -7307.8966    -4005.598     901.7542   -3367.5902    5263.9624  0.004789104   0.29793832   0.18384877 
 4560000    512.70316   -7310.4716    -3448.929   -704.48307   -5568.7656    6404.2325  0.004788254   0.29789483   0.18386153 
 4562000     482.4006   -7309.8368   -6834.8508    1454.6351   -7116.9043    4214.1455 0.0047886065   0.29792237   0.18386092 
 4564000    488.01795   -7307.9862   -4694.3583   -258.99862   -6691.7987    3934.4519 0.0047872304   0.29796459    0.1838592 
 4566000    536.19876   -7308.8825   -4277.9609    933.82809   -6140.0781    3567.7845 0.0047855084   0.29794225   0.18384772 
 4568000    509.84682   -7309.5053   -4565.1793    879.40318   -8613.5442    3671.1582 0.0047830103   0.29793566   0.18383684 
 4570000     505.4034   -7310.8256   -3092.6653   -11.692673   -7587.5138    4078.5935  0.004783537    0.2979179   0.18385279 
 4572000    505.50133   -7310.4185   -1343.4556   -1349.2364    -7480.214    4736.3926 0.0047803819   0.29793062   0.18387158 
 4574000    512.03424   -7310.0565   -4170.3461   -996.54421   -8821.9096     5294.438 0.0047789478   0.29791847   0.18385076 
 4576000    510.81373      -7308.2    -2620.031   -236.92263   -8087.7452    6580.7058 0.0047768541   0.29791948   0.18385618 
 4578000    485.24233    -7309.378   -2966.3503    331.06516   -6020.7387    1177.4659 0.0047754717   0.29795701   0.18387216 
 4580000    509.01509   -7309.8727   -1631.1132   -1514.3825   -4021.7018    5577.7651  0.004773153   0.29795375   0.18386625 
 4582000     539.3593    -7310.305   -4149.2044   -1169.7111   -7176.1906    2435.7699 0.0047726423   0.29793717   0.18385072 
 4584000    508.13953   -7310.6186   -4847.6789   -370.31204   -5327.5754    7493.5115 0.0047705396   0.29794163   0.18384537 
 4586000    487.07803   -7309.2088   -2984.1172   -3654.0935   -6495.9292    5461.0637 0.0047687235    0.2979342   0.18384415 
 4588000     538.0845   -7309.2987   -5655.5764   -16.465167   -5134.6272    2482.2188  0.004768239   0.29794149   0.18388128 
 4590000    487.47268   -7307.4628   -2569.9352   -1260.9276   -7131.5542    4721.8727 0.0047663206   0.29792923    0.1838754 
 4592000    520.56648   -7311.0089   -7685.0558     -363.155   -6240.0047    3768.9895 0.0047652974   0.29792757   0.18386393 
 4594000    481.81772   -7309.0756   -5596.3078    -940.6994   -5817.9398    4818.0429 0.0047639163   0.29793804   0.18384529 
 4596000    506.86424   -7309.2224   -6220.5215   -963.37405   -6692.8344    4448.6135 0.0047624333    0.2979616   0.18384798 
 4598000     507.8238   -7309.9261   -3569.5767    1970.2371   -6577.7336    3790.9694 0.0047607166   0.29795206   0.18383672 
 4600000    519.80571   -7309.6031   -3001.2448   -2377.5181    -4407.558    6225.8295 0.0047595266     0.297928   0.18384085 
 4602000    505.00532   -7310.8033   -2714.0568   -1484.5103    -5217.704    3126.8688  0.004768672   0.29792073    0.1838526 
 4604000    504.07381    -7310.166   -4397.3693    1544.9697   -6127.3045    7442.1761 0.0047670951   0.29793049    0.1838502 
 4606000    480.07315   -7309.8508   -1576.2633   -1587.6288   -3118.4743     1208.013 0.0047674953   0.29795074   0.18385926 
 4608000    519.05166   -7310.7517   -1463.0981   -1074.5673   -4875.7004    4097.7669 0.0047685017   0.29793573   0.18382304 
 4610000    494.75583   -7310.7524   -4434.5238    2318.3042   -4573.5262    5621.7214 0.0047696141   0.29794375   0.18381582 
 4612000    489.00504   -7310.3672   -3480.8117   -2965.8909   -5308.2878    6060.0859 0.0047672525   0.29793359   0.18382323 
 4614000    483.66974   -7307.9743   -3105.6045    2038.1832    -6752.478    5143.1251 0.0047681374   0.29793403   0.18384732 
 4616000    542.55232   -7310.8215   -4443.8824   -3067.7086   -5876.0977    4781.0651 0.0047691222   0.29794966   0.18385862 
 4618000    505.00389   -7307.9297   -3968.6292   -424.67064   -6705.2484    1531.3314 0.0047656459   0.29793281   0.18386175 
 4620000    514.33195   -7307.8692   -5467.1985   -2425.0741   -6254.5224    1521.0948 0.0047638357    0.2979528   0.18384135 
 4622000    475.67323   -7308.9195   -4557.3448    217.24455   -7541.5998    2232.6192 0.0047642948   0.29794607   0.18382353 
 4624000     488.5094   -7308.0217   -6606.8722   -452.60956   -6140.0955     6448.426 0.0047600826   0.29795917   0.18382968 
 4626000    547.21581   -7309.3906   -3226.9592    110.24047   -4187.3015    5565.8286 0.0047597274   0.29796497    0.1838392 
 4628000     511.2368    -7308.294   -2048.2524   -1205.9916   -7913.5381    8287.9208 0.0047578573   0.29795337   0.18385872 
 4630000    510.71778    -7309.788   -3039.0412   -256.40709   -4622.1395    5001.0466 0.0047596481   0.29798596    0.1838462 
 4632000    461.99426     -7308.97   -4923.3194    1658.2245   -6655.7473    3028.8316 0.0047603583   0.29797532   0.18383428 
 4634000    514.38198   -7308.1605    -4277.078    -472.8034   -3453.1673    5794.6759 0.0047581988   0.29797727   0.18383717 
 4636000    490.71649   -7309.5094   -2850.0901   -2015.2816   -6980.7975    5087.9163 0.0047586178     0.297987   0.18382107 
 4638000    482.43289   -7308.7543   -3188.8469   -1814.2663   -2506.4102    4393.7315 0.0047589724      0.29801   0.18382335 
 4640000    486.50287   -7309.9432   -3228.1974    2797.8346   -3149.3637    6575.8898  0.004757797   0.29800689   0.18384147 
 4642000    506.09411   -7310.2258   -4700.6217   -2540.3148   -5813.4934    7712.6928 0.0047554202   0.29796884   0.18383615 
 4644000    497.36554   -7310.3421   -5467.8971    1481.4136   -5421.1838    3076.7991 0.0047551782   0.29795647   0.18384051 
 4646000    476.24021   -7309.5929   -5471.2901    112.81807   -6139.2033    4068.7557 0.0047528919   0.29796763   0.18383092 
 4648000    509.62758   -7309.6627   -4302.9913   -2737.8055   -4694.4426    1369.8995 0.0047512224   0.29798847   0.18381019 
 4650000    491.20251   -7308.3887   -3802.0237    -699.5889   -6262.9269    3558.1488 0.0047552006   0.29799201   0.18382137 
 4652000    507.76299   -7309.3699   -3107.9387    769.45495   -4814.9742    5167.2861 0.0047539479   0.29797506   0.18383366 
 4654000    503.86335   -7309.3727   -2402.5785    -3391.281   -6047.8555    1747.2497 0.0047517812   0.29798713   0.18382806 
 4656000     521.7746   -7310.7597    -4468.514   -1025.7837   -5880.9428    4645.9391 0.0047503413    0.2979747    0.1837991 
 4658000    536.02715   -7308.7186    -2203.047   -3890.9911   -7403.3627    2329.6549 0.0047482862   0.29796211   0.18378585 
 4660000    467.11989   -7307.4145   -1854.9742   -45.631829   -4602.5219    6145.8155 0.0047473953   0.29795628   0.18378905 
 4662000    490.98232   -7310.6812   -3312.6756   -646.61086   -6694.9616    3313.8199 0.0047456909   0.29795688   0.18382297 
 4664000    528.33602   -7309.8221   -7.1136475   -2681.0454   -5114.7453    4112.3059 0.0047444654   0.29798393   0.18382192 
 4666000    508.81207   -7309.7571   -3383.1646    362.50729    -6643.583    5677.6242 0.0047450987   0.29799607   0.18380469 
 4668000    504.40847   -7308.5408   -3718.6182    1886.3319   -6151.9801    5602.6886 0.0047437235   0.29798842   0.18380199 
 4670000    510.66628   -7309.6855   -4096.2116    1275.8488   -4372.7971    6708.4171 0.0047418721   0.29797443   0.18379389 
 4672000    494.64104   -7310.7625   -5327.7444   -840.97893   -7021.8639    8195.2736 0.0047404435   0.29795992   0.18379904 
 4674000    484.39257   -7308.6279   -4830.3316   -1556.4505   -8731.6453    7101.2988 0.0047406579   0.29799374   0.18380035 
 4676000    523.08288   -7310.3433   -6928.7995   -1682.1002   -8907.7785    4387.6581 0.0047419294   0.29797279   0.18380509 
 4678000    521.49954   -7308.4867   -3713.1587   -2351.8827   -5048.7991     6276.122 0.0047432651   0.29799675   0.18379408 
 4680000    535.13271   -7309.3531   -4774.7154   -405.67417   -9283.8618    4538.1788 0.0047448226   0.29799049   0.18382449 
 4682000    533.26827   -7310.3373     -4128.12   -699.05706   -7441.8817    6439.0058 0.0047432084   0.29800337   0.18382001 
 4684000    515.94962   -7309.6641   -2854.2946    2733.1342   -6630.4679    5419.7122 0.0047423965   0.29800774   0.18380573 
 4686000    493.66435   -7308.5552   -4367.6733   -2067.8481     -6661.49    6791.3736 0.0047421151   0.29799042   0.18379403 
 4688000     506.6939   -7310.2619   -4652.2928   -54.997389   -3993.3568    5347.5332 0.0047428697   0.29798897   0.18381111 
 4690000     468.0093   -7309.6026   -3547.2028    2803.5479   -3447.2906    4818.6377 0.0047414516   0.29799245   0.18381653 
 4692000    502.13874   -7310.2708   -3846.4847   -1926.5164   -5673.9624     4664.913 0.0047390136   0.29796868   0.18379819 
 4694000    496.76443   -7309.8943     -1148.15   -1788.9186   -6811.7538    5888.0224 0.0047389829   0.29799342   0.18379685 
 4696000    483.91892   -7310.2663   -3616.3334   -1002.3309   -4588.4787    5674.2368 0.0047452382   0.29801614   0.18381269 
 4698000     467.5659   -7310.2372   -1533.3279   -823.14114   -8160.3779    3190.2913 0.0047432851   0.29799506   0.18381869 
 4700000    446.36264   -7309.9332   -2982.8844   -871.84429    -6397.508    1946.7909 0.0047411246   0.29799352   0.18379406 
 4702000    532.76361   -7312.4596   -5089.1893   -1683.0737   -7950.5451    5196.6414 0.0047398724   0.29799776   0.18378977 
 4704000    512.10025   -7308.6754   -6021.6147    318.39032   -5874.4948    5073.9642 0.0047378091   0.29800707   0.18381003 
 4706000    540.96946   -7307.5833   -4376.6284    1009.7283   -6894.5409    4020.2148 0.0047358204   0.29801095    0.1838177 
 4708000    493.35731   -7311.0094   -3950.8729   -1293.8058   -5404.9014    3560.3961 0.0047329493   0.29799096   0.18380912 
 4710000    545.69295   -7310.5817   -5290.5376   -1735.8425   -5830.1507    2897.0931 0.0047381642   0.29799707    0.1837912 
 4712000    532.75192   -7309.7573   -5131.0008   -886.74227   -7415.5115    7830.9374 0.0047367897   0.29802754   0.18379611 
 4714000    486.85853   -7309.5772   -5562.6487   -1650.2432   -4834.4193    5601.2785 0.0047358724   0.29804196   0.18381463 
 4716000    497.95235   -7310.7003   -4495.9274     561.4868   -7334.4054    3920.5342 0.0047370926   0.29801288   0.18381883 
 4718000    471.46317   -7310.0716   -2244.8153   -549.46198    -4594.891    5804.2835 0.0047361136   0.29800674   0.18381995 
 4720000    490.88379   -7309.2121   -1914.4389    726.72053   -7104.0029    5014.0182 0.0047342381   0.29803094    0.1838193 
 4722000    508.99911   -7309.5228   -2544.0801   -862.01346   -3722.8407    4838.6011 0.0047322173   0.29804698   0.18380305 
 4724000     482.1312   -7308.0028   -3593.5887     4503.907   -3719.6364    3518.4517  0.004729952   0.29802602   0.18380057 
 4726000    501.20351   -7311.4256   -2857.3236   -2984.8296   -5099.8617    5913.0014  0.004730355   0.29802325   0.18380131 
 4728000    479.63419   -7310.8005   -4788.7688   -147.17652   -4835.9553    1496.2694 0.0047304923   0.29801292      0.18379 
 4730000    480.16988   -7310.5449   -4360.7102   -2302.5222   -6216.5043    4186.6228 0.0047324961   0.29803775   0.18379864 
 4732000    502.07539   -7309.6783   -4361.3665    213.19122   -9170.5354    403.58438 0.0047358363   0.29804185   0.18381557 
 4734000     501.2303   -7309.9748   -4129.2891    386.80942   -4356.1185    3504.5683 0.0047338903   0.29802779   0.18381668 
 4736000    525.39502   -7309.9026   -1451.3992   -237.13397   -8450.5947    3507.1554  0.004731866   0.29800966   0.18380068 
 4738000    501.33548   -7310.1576   -6655.2532   -1843.2075   -6203.3791    2680.1817 0.0047301718   0.29801514   0.18379773 
 4740000     480.6255   -7308.3413   -2518.3077   -320.09185   -3738.1409    5306.3133 0.0047287017   0.29802775   0.18379044 
 4742000    493.56275   -7310.5712   -3069.1342   -3139.6798   -449.63284    5136.7608 0.0047266062   0.29804251   0.18381073 
 4744000    480.62018   -7309.9445   -4034.3154    -1396.244   -3835.9354    6234.4338 0.0047280486   0.29803166   0.18380805 
 4746000    524.39662   -7310.2615   -2386.4651   -2786.7904   -1101.3691    6940.7572 0.0047294877    0.2980272   0.18381072 
 4748000    528.71581   -7308.7823   -5129.7015   -1590.0706   -5606.4547    2886.9515 0.0047306498   0.29802436   0.18380785 
 4750000    470.74516    -7307.798   -2196.8483    2003.5301   -6344.8136    4273.5179 0.0047302129   0.29802781    0.1837827 
 4752000    506.07362   -7310.4201   -3092.0588   -1365.3398   -5729.3061    3279.8069 0.0047335683   0.29805303   0.18378476 
 4754000    479.05294   -7308.4812   -6167.3818    -5086.544   -8029.8029     1997.556 0.0047343339   0.29805135   0.18379206 
 4756000    505.58937   -7308.9054    -6570.684    1273.8922     -4454.67    2937.8516 0.0047401092   0.29804548   0.18378798 
 4758000     456.7942   -7310.4851   -7132.4585   -738.45005   -7371.2628    188.45979 0.0047388298   0.29802412   0.18378825 
 4760000    506.63948   -7308.6545      -7238.3   -198.60039   -4352.3844    3494.0616  0.004737688   0.29806186   0.18379154 
 4762000     533.6345   -7310.6726   -6155.8083   -66.643225   -5021.5964    3706.2259 0.0047357963   0.29806814   0.18378873 
 4764000    488.95239   -7309.5322   -8143.2049   -2883.6495   -4521.5513    2415.8213 0.0047336547   0.29804606   0.18377033 
 4766000    505.25261   -7311.1079   -5235.8391    -2557.923   -5521.7936    4721.0219 0.0047371108   0.29805444   0.18375767 
 4768000    465.27573   -7309.5436   -6163.4448   -630.02425   -4966.3354    4058.0464 0.0047395829   0.29808582   0.18375799 
 4770000    489.89576   -7309.8463   -5147.1871   -567.63562   -4632.7119     5074.813 0.0047421656   0.29810744   0.18377553 
 4772000    501.82795   -7309.4508   -4926.4336   -1729.0997   -5222.0988     5774.688 0.0047394275     0.298099   0.18377272 
 4774000    509.72444    -7308.656   -3677.5604   -649.38965   -4101.1749    3158.7293 0.0047386242   0.29806773   0.18377687 
 4776000    473.59285   -7309.1144   -3132.6602    710.37141   -7502.1101    5431.7177 0.0047363365   0.29807012    0.1837537 
 4778000    508.42851   -7309.3281   -3513.3209     676.8206   -6653.8278     2549.165 0.0047343191   0.29806359   0.18374409 
 4780000    542.49137   -7308.5224   -2204.6815   -2410.5741   -9024.8782    4666.2309 0.0047331944    0.2980847   0.18375858 
 4782000    474.13677   -7309.7149   -3325.3667   -1390.6337   -7722.1277    4489.1877 0.0047351074   0.29811269   0.18375205 
 4784000    482.28094   -7310.6722   -3042.6508   -3706.4089   -4782.0849    2683.9344 0.0047408765   0.29812036   0.18377316 
 4786000    478.29264   -7311.0193   -3077.2014     500.0694   -4630.3627    4827.4503 0.0047413088   0.29809559   0.18376672 
 4788000    489.36049   -7310.1644   -5364.2578    916.95926   -5491.4204    3817.9656 0.0047392781   0.29809924   0.18376071 
 4790000    480.81175   -7309.8103   -5616.0663    3565.0937    -4649.926    6589.1292 0.0047374424    0.2980986   0.18375521 
 4792000    491.07448   -7309.2842    -6087.557    165.39072   -5786.7061    4313.4685 0.0047353901    0.2981036   0.18377019 
 4794000    521.38264   -7308.9957   -3874.4304    151.39632   -5317.5155    1993.1213 0.0047339672   0.29808415   0.18374341 
 4796000    501.10821   -7309.2489    -7286.027   -3561.0719   -7344.6541    3623.5608 0.0047340707   0.29809326   0.18373561 
 4798000    513.61298   -7309.0758   -5760.6415   -503.90026   -7687.7684    3334.5088 0.0047363886   0.29812057   0.18374159 
 4800000    527.15117   -7310.8276   -6733.6292   -985.38942   -5536.7973    2953.6369 0.0047346143   0.29813708     0.183761 
 4802000    515.24016    -7310.485   -4995.3966   -586.23836   -5645.4224    7481.9764   0.00473591   0.29814109   0.18376607 
 4804000    485.81155   -7308.1101   -4925.9143   -1125.5826   -5716.9341    2533.9739 0.0047341979   0.29811686   0.18375691 
 4806000    470.12377    -7309.229   -3623.9027    1316.8222    -7219.062    2771.0129 0.0047323392   0.29811021    0.1837299 
 4808000    496.19402   -7309.0368   -4665.1485   -3094.9603   -7192.3696    4750.6703 0.0047304871   0.29812243   0.18372528 
 4810000    502.32927   -7309.3503   -3837.2628    755.41497   -9775.9237    4851.9508 0.0047307981   0.29813249   0.18373607 
 4812000    517.49472   -7309.6357   -1426.1363   -1709.7238   -8056.4228    4137.0186 0.0047287389   0.29815939   0.18376478 
 4814000    550.25785   -7310.8454   -3641.6139    1887.3883   -6428.1451    3975.5429 0.0047287534   0.29817022   0.18375019 
 4816000    522.90527   -7308.2523   -2351.0394   -2025.9153   -7499.5181    1203.3294 0.0047301805   0.29817297   0.18375427 
 4818000    497.64791   -7310.3608   -4344.0291   -804.70757   -4005.2409    5955.4475 0.0047295086    0.2981876   0.18373086 
 4820000     491.3427   -7310.6248   -3232.4341   -3996.2537    -7352.821    8133.5267 0.0047279917   0.29816256   0.18373744 
 4822000    506.20369   -7308.2348   -3672.1297   -872.60595   -6907.4862    3065.0407 0.0047280321   0.29817555   0.18374336 
 4824000    495.29526   -7309.4708   -4219.2484   -2754.9152   -9148.4802    4595.9105 0.0047281294   0.29819876   0.18374026 
 4826000    496.40995   -7309.3641   -4762.3991   -3342.6355   -4816.1504    3390.9822 0.0047245281   0.29821749   0.18372368 
 4828000    510.77415   -7310.0576   -4669.9489   -2878.6609   -6761.8106    4966.4652 0.0047218679    0.2982367   0.18373536 
 4830000    499.25713   -7310.5441   -5904.7398    3317.2389   -6379.3055    4637.4393 0.0047197579    0.2982274   0.18372817 
 4832000    479.06695   -7308.7701   -3024.6754    47.117113   -4052.5808    5091.0262 0.0047178704   0.29822842   0.18371788 
 4834000    471.07204   -7310.6045   -5444.0766   -1055.1652   -7116.9151    4230.8862 0.0047193762   0.29822183    0.1837328 
 4836000    492.31531   -7308.9067   -3402.8961    4122.9207   -5133.2653    6614.8898 0.0047172908   0.29822651   0.18372918 
 4838000    484.11245   -7309.2652   -3404.2695   -1692.7479   -7224.5441    3281.2842 0.0047155937   0.29823432   0.18373165 
 4840000     497.0797   -7310.0012   -2178.4832   -836.61695    -8509.625    7839.1637 0.0047158392   0.29823108    0.1837144 
 4842000    516.67827   -7309.3291   -4529.0829   -194.92158   -5524.3493    5164.9271 0.0047161326   0.29824103    0.1837196 
 4844000    503.79034   -7311.4573   -4340.7078    -797.3462   -5755.8339    4110.9794 0.0047170505   0.29823306   0.18369891 
 4846000    511.15537   -7309.8782   -5057.6437   -232.36877   -4526.5512    4868.5446 0.0047153972   0.29822016   0.18371633 
 4848000    492.06072   -7309.2073   -5730.8816   -86.616293   -6498.6467     6056.622 0.0047125808    0.2982283    0.1837333 
 4850000     506.6706   -7309.7415    -5768.066   -2255.0841   -6728.6897    174.17073 0.0047113424   0.29824835   0.18374546 
 4852000    554.27496   -7309.5265   -4949.7441    34.887745   -9132.8578    5626.1962 0.0047099145   0.29821617   0.18371347 
 4854000    497.71233   -7309.0446   -6271.2359   -1998.0055   -4577.1705    3286.4272 0.0047092692    0.2982393   0.18369014 
 4856000    504.60538   -7308.7198   -5308.6803    113.17831   -7194.7455    5548.8768  0.004714412    0.2982492   0.18368487 
 4858000    510.33061     -7308.16   -5472.8613    -2787.843    -6140.608    7114.4792 0.0047126641   0.29825194   0.18370612 
 4860000    458.23203   -7310.5854   -5416.7125   -1045.2752   -7954.3715    4966.6457 0.0047132892   0.29824395   0.18371195 
 4862000    491.29772   -7310.9455   -3435.1093    -2446.401   -4988.5063    5145.4606 0.0047112467   0.29824641   0.18370634 
 4864000    459.83517   -7310.3738   -2536.7014   -2286.4379   -6345.1108   -992.85033 0.0047101609   0.29820553   0.18367628 
 4866000    506.45258   -7309.2147    -3316.838   -245.70908   -5512.5196    5005.5648 0.0047093165   0.29820882   0.18366803 
 4868000    501.96601   -7310.3118    -2894.759   -12.468512   -8891.6644    4741.6475 0.0047090913   0.29826978   0.18368508 
 4870000    515.62424   -7308.8947   -2467.7504   -2838.8285   -6052.7888     3895.697 0.0047088957   0.29828603   0.18369618 
 4872000    516.50395   -7310.4681   -3657.2951    1008.2023    -4404.201    5582.7885  0.004708562   0.29828202   0.18369033 
 4874000    493.58253   -7310.5226   -4665.2886    506.78537   -7067.2271    5317.5434 0.0047065172   0.29827713   0.18367357 
 4876000    515.44347    -7310.355   -3733.5324   -1185.5748   -4468.2844    5825.9363 0.0047052377   0.29826146   0.18367605 
 4878000    517.22124   -7310.0361   -6402.0363    899.76037   -6841.5296    5527.2372 0.0047045346   0.29823686   0.18367264 
 4880000    472.15496   -7308.9922   -6225.3767     700.8876    -3277.856    6407.9344 0.0047024522   0.29828533   0.18366714 
 4882000    456.72044   -7308.5548   -3351.8344   -410.77697    -6319.681    3946.2013 0.0047007471   0.29825973   0.18366579 
 4884000    494.28996   -7310.9466   -5155.8849    675.92249   -5846.1736     4607.148 0.0046994912   0.29826182    0.1836547 
 4886000    513.85963   -7309.2525   -5291.0708    2310.7865   -5263.1123    5793.5298 0.0046976329   0.29826477    0.1836538 
 4888000     531.4366   -7311.0073   -5381.1962   -95.810683   -8883.5786    6144.7327 0.0046958429   0.29826712   0.18366878 
 4890000    534.91387   -7309.4296   -1789.6501    -156.8259   -6071.8395    5368.4058 0.0046959408   0.29827036   0.18366808 
 4892000    520.67405   -7311.2762   -3869.4271    190.87001   -6751.1477    3748.9857 0.0046948341   0.29825879    0.1836839 
 4894000    499.87405   -7308.1806   -65.444321   -1685.8562   -9286.9157    3748.9698 0.0046961768   0.29826744   0.18367637 
 4896000    502.18592   -7308.1427   -1708.4082    1370.7419   -3928.3785     5599.434 0.0046944489   0.29828134   0.18366671 
 4898000    487.84118   -7310.7194   -1895.5768   -3272.4029   -7692.2757     4236.476 0.0046932061   0.29827759   0.18366314 
 4900000    482.67283   -7309.4522    -2768.193   -290.24934   -6305.6506    5859.9596 0.0046930085   0.29829839   0.18366896 
 4902000    502.60895     -7309.45   -1925.0285   -4214.7464   -2888.0578     3785.462 0.0046909174   0.29829981    0.1836753 
 4904000    523.63456   -7310.1744   -6111.2043   -1439.2644   -6288.3883    2769.8945 0.0046959647   0.29829001   0.18365549 
 4906000    493.46116   -7308.4475   -1311.5439   -417.16607   -5001.3253    6193.8773 0.0046943209   0.29829861   0.18366901 
 4908000    484.43605   -7309.0659   -5393.9517    817.14766   -5426.3446    1849.4879 0.0046928092   0.29827479   0.18367679 
 4910000    463.38418   -7308.7404   -2551.0732   -717.55562   -6094.0944     2399.501 0.0046920334   0.29828212   0.18368314 
 4912000    502.11286    -7308.853   -2534.5852   -587.76329   -5211.0419    1630.2551 0.0046904348   0.29829675    0.1836517 
 4914000    490.02456   -7308.6164    -4774.331   -641.16175   -8158.5058    3264.6686 0.0046887668   0.29829155   0.18365228 
 4916000     501.1471   -7309.9409   -1761.5727   -636.90592   -6037.0594     3513.218 0.0046903728    0.2983216    0.1836534 
 4918000    498.61582   -7309.0502   -6614.7578    1866.4382   -8382.4262    4821.2103  0.004688408   0.29832492   0.18364305 
 4920000    500.23858   -7309.0369   -3863.8409    196.98074   -6911.7925    4322.5386  0.004686831   0.29831901   0.18364974 
 4922000    531.95638   -7308.2976   -2202.2555   -3295.9863   -6585.8947    4632.7432 0.0046848039   0.29831068   0.18362287 
 4924000    494.75727   -7309.6548   -5888.8141   -173.16692   -6661.5771    4957.8111 0.0046844393   0.29831054   0.18360678 
 4926000    528.14297   -7310.1209   -4439.4993   -2150.0239   -4980.0216    3639.9192 0.0046833291   0.29830875    0.1836353 
 4928000    465.62375   -7311.5863   -4281.2381    1203.0399   -4763.0698    3980.7918 0.0046831612   0.29832101   0.18363205 
 4930000    529.40355   -7310.5376   -3530.2335   -542.36836   -6208.3531    3120.8875 0.0046822555    0.2983212   0.18361662 
 4932000    517.02688   -7310.3814   -3936.8233   -599.68229   -5264.8173    2935.9677 0.0046805288   0.29829282   0.18361921 
 4934000    520.55416   -7310.5422     -4580.33    2342.2082   -5346.5456    5151.6011 0.0046787891   0.29830136   0.18361943 
 4936000    476.15291   -7310.4792   -4769.4851   -1189.5924   -6198.6499     3746.598 0.0046772676   0.29828824   0.18361911 
 4938000     507.1515   -7310.7023   -4988.5303    -933.1661   -5191.0403    5409.6943 0.0046797188   0.29829755    0.1836086 
 4940000    504.69462   -7308.6574   -3047.9263   -554.81483   -5418.8522    6150.2964 0.0046833867   0.29829788   0.18359437 
 4942000    555.04744   -7311.0492   -3380.7764   -532.48589   -5018.7011    5629.9086 0.0046837338   0.29833067   0.18360948 
 4944000    479.66636    -7308.702   -6498.8476    1453.8856    -5153.204    7464.9533 0.0046833052   0.29832383    0.1836027 
 4946000    529.33032   -7310.1935   -5580.3518   -378.03787   -4272.1679     4247.415 0.0046809896   0.29834679    0.1836216 
 4948000    477.94172    -7308.629   -2410.6862    3231.8362    -5519.418    5473.2618 0.0046802437   0.29832485   0.18361453 
 4950000    526.73732   -7310.1392   -4148.7553    1539.0793   -6734.6938    3628.9371 0.0046777301   0.29832631   0.18358732 
 4952000    526.15986   -7309.9594   -2534.5581    2424.8325   -4516.6456    5854.1889 0.0046757981   0.29831013   0.18356051 
 4954000    471.54045   -7310.6797   -6988.1378   -1669.2513   -5064.5517    5583.5521 0.0046740251   0.29829437   0.18353815 
 4956000    544.94217   -7308.3307   -2736.9506   -350.49014   -7641.2749    3272.0439 0.0046747418   0.29832113   0.18356498 
 4958000    477.21712   -7309.6483   -6734.0798   -1320.2974   -5830.1316      6500.91 0.0046760864   0.29835319   0.18359159 
 4960000    477.58819   -7311.1602   -3641.0106    1914.9425    -5798.182    3946.1267 0.0046756691   0.29835203   0.18359211 
 4962000    523.93607    -7309.967    -2775.118   -1345.8033   -5960.1675    2965.0582 0.0046746884   0.29836195   0.18356264 
 4964000    463.50419    -7310.271   -4935.1213   -111.55666   -6774.2168    2762.0644 0.0046736397   0.29835106   0.18355363 
 4966000     520.5895   -7308.5576   -2258.2092   -705.40135   -6497.2118    2433.5045 0.0046719673   0.29833234   0.18357084 
 4968000     482.9818   -7309.2947   -6033.5076   -1204.2623   -6867.2684    6323.5565  0.004670239   0.29834237   0.18358766 
 4970000    520.46577   -7308.7941   -2086.2267   -105.80352   -8671.5972    1295.1751 0.0046680712   0.29832916   0.18359278 
 4972000    519.98427   -7308.0094    -4761.857   -480.52936   -7726.1854    5839.4604 0.0046685851   0.29833657   0.18358641 
 4974000    532.90176    -7311.708   -3472.3661   -4058.3246    -6885.662    5817.0455 0.0046732927   0.29837486   0.18358884 
 4976000    500.23582   -7310.5974   -3726.2767   -232.87235   -6428.6217    3635.7158   0.00467206   0.29836906   0.18359008 
 4978000    469.30896   -7309.6496   -3319.3913   -1381.3428   -7636.4659    2802.2337 0.0046701486   0.29835834    0.1835866 
 4980000    481.21471   -7309.3432   -2393.4933    106.98571   -5797.6079    3136.1738 0.0046688194   0.29837382   0.18358111 
 4982000    505.15559   -7307.7506   -1965.3025   -1683.9424   -7204.2626    6088.3131 0.0046689904   0.29837984   0.18359263 
 4984000     513.4462   -7310.4405   -4339.1885   -1434.6808   -5718.8304    5864.5306 0.0046677401    0.2983717   0.18358226 
 4986000      491.419   -7309.9655   -5266.1737    660.25625   -5360.1264    4903.1222 0.0046665632   0.29838386   0.18357252 
 4988000    467.59318   -7309.0868   -944.69479   -3606.4197   -7797.8795    6806.4632 0.0046671624   0.29839816   0.18356294 
 4990000    528.42395   -7309.3565   -3792.3137     1480.596   -3729.0295    5489.2098 0.0046678021   0.29843346   0.18356056 
 4992000    533.43105   -7308.5086   -913.54247    2169.9696   -3358.6361    5797.0795 0.0046665179   0.29841637   0.18357387 
 4994000    475.15422   -7309.1669    -3708.105   -140.03881   -3488.6286    5826.4714 0.0046636736   0.29840342   0.18356002 
 4996000    518.19889   -7309.5393   -2142.2577   -649.74567   -4525.6121    6213.2133 0.0046616854   0.29841204   0.18355388 
 4998000    490.24287   -7309.3281   -1043.5859   -668.36808   -6001.0418    3168.0506 0.0046613702   0.29842166   0.18357834 
 5000000    531.32382   -7310.2217   -5210.2752   -3126.5115    -7849.355    6977.2555 0.0046633985   0.29842755   0.18357156 
 5002000    516.78788   -7308.8536   -2553.9304   -155.69414   -6477.3546     4170.864 0.0046645412   0.29843684   0.18356676 
 5004000    473.32321   -7308.5664   -3264.6626   -128.21183    -7844.759    2514.3781 0.0046628333   0.29846444   0.18354663 
 5006000    487.95487   -7309.5538   -1935.0491   -1444.5784    -8131.266     7851.964 0.0046613477   0.29848047   0.18355988 
 5008000    490.47595   -7309.0406   -2866.2892    4.1674712   -4828.0847     3168.421 0.0046600988   0.29843475   0.18356064 
 5010000     481.4403   -7309.8655   -5432.0438   -1518.1046   -8062.8701     6241.193 0.0046585996   0.29842473   0.18357441 
 5012000    491.94826   -7309.1399   -2535.0319   -526.82837   -5760.8067    2560.0571 0.0046583934   0.29844673   0.18355549 
 5014000    491.46401   -7311.3638   -3334.2229    774.46446   -4704.7457    6658.2897  0.004657105   0.29847292   0.18355769 
 5016000    483.96458   -7309.7998   -3042.7349   -806.91199   -4560.6563    3901.4808 0.0046565221   0.29846904   0.18356886 
 5018000    456.08326   -7309.3425   -2407.0902    474.13807   -6612.5697    5304.3746 0.0046579601   0.29844952   0.18357161 
 5020000    504.66181   -7310.8747   -3975.8285   -1320.0493   -4100.0696    4672.3254 0.0046577361   0.29846211   0.18356857 
 5022000    497.41529   -7312.2497   -2145.2003   -3425.0844   -9074.5711    3247.9375 0.0046556703   0.29847358   0.18354311 
 5024000    494.22752   -7311.1976   -2735.3389   -3405.9279   -7026.8034    5708.8623 0.0046558683   0.29847721   0.18355738 
 5026000    479.25571   -7308.2964   -4728.2138    -2320.198   -4379.3498    6880.7435  0.004657015   0.29846566   0.18357098 
 5028000    517.83713    -7311.523   -4803.8796   -1177.9474   -7735.5855    4462.2044 0.0046557375   0.29844865   0.18355575 
 5030000    497.03194   -7310.4292   -7106.7909   -3484.1173    -5542.312    8505.0428 0.0046539265    0.2984662    0.1835658 
 5032000    515.79825   -7310.4923   -5784.4294    -2223.633   -5124.8487    3280.2207 0.0046529019   0.29848567   0.18357284 
 5034000    526.26831   -7309.4701   -5666.9327    2712.6266   -6088.0329    4722.4223 0.0046518323   0.29847355    0.1835591 
 5036000    489.24738   -7310.2426   -5004.4718    1869.8663   -3880.9096    4381.8417 0.0046504567   0.29847916   0.18355497 
 5038000    511.70038   -7310.5239   -5139.3897   -520.07981   -5625.4982    6820.0529 0.0046501107    0.2985012   0.18354532 
 5040000    512.95576   -7308.5721   -4257.7719     1397.007   -6046.2265    4874.6872 0.0046534706   0.29846605   0.18356203 
 5042000    500.06438   -7310.8785   -4414.1222    617.16327   -6964.8417    5657.2385 0.0046507782   0.29847598   0.18354937 
 5044000    522.88813   -7308.8528   -6777.5472    993.57206   -6447.2909    3784.4479 0.0046486876   0.29848301   0.18355826 
 5046000    493.64227   -7309.1272   -5892.1768   -868.44358   -6973.9584    5405.7102 0.0046475952   0.29848491   0.18355522 
 5048000    515.00405   -7309.6094   -3957.7315   -2671.4892   -6976.1913    3444.4968 0.0046535275   0.29850751   0.18355951 
 5050000    494.61797   -7309.0813   -1075.7662    2190.1065   -7383.1824    4995.5703 0.0046537112   0.29849291   0.18355597 
 5052000    486.50875   -7308.9997   -4721.0319   -3282.8204   -6291.0189    4447.7792  0.004653152   0.29849676   0.18354818 
 5054000    483.84384    -7311.009   -4055.3605    326.72343   -6210.8066    3414.6777 0.0046513347   0.29849936   0.18355419 
 5056000     497.4108   -7310.4089   -3583.5272    1073.3729   -8459.7122    4947.8161 0.0046501976   0.29849825   0.18355289 
 5058000    523.60108   -7311.0712   -4195.3299   -2303.2549   -7419.5308    4077.1419 0.0046490295   0.29847807   0.18354587 
 5060000    479.78978   -7310.3422   -3729.9924     -831.327   -8998.6768    4467.0951 0.0046486873   0.29850667   0.18355367 
 5062000    492.00128   -7310.7293   -3454.3793   -2837.7128   -5328.5752     7554.075 0.0046562411   0.29851674   0.18355431 
 5064000    497.72841   -7310.7103    -5607.768    965.16232   -5507.1541    3777.6578  0.004656379   0.29851459   0.18354544 
 5066000    499.30585   -7309.7781   -5179.6422     60.22068   -3834.2392    5646.2156 0.0046556603   0.29851023   0.18354847 
 5068000    489.14712   -7308.9846   -6081.5897     676.9802   -4094.0006     6902.729 0.0046537748   0.29850171   0.18356184 
 5070000    500.53709   -7310.3582   -6285.5054    988.39602   -4381.0281    4469.0407 0.0046519507   0.29851297   0.18358165 
 5072000    499.17042   -7308.3268     -2201.31    497.81375   -3995.2609    3421.1897 0.0046534185   0.29849391   0.18357478 
 5074000    511.16089   -7308.8149   -4689.0842    1510.0862   -6734.7713    6443.7512 0.0046573986   0.29849632   0.18355547 
 5076000     482.0559   -7309.9172   -4770.5013   -258.73092   -6565.6819    2456.8056 0.0046554422   0.29852676   0.18356323 
 5078000    478.03703   -7308.9733   -5873.9071    1495.1956   -5638.0542    5616.6955 0.0046535526   0.29851333   0.18355692 
 5080000        515.3   -7311.0074    -6989.803   -867.48698   -6677.0163     4075.787 0.0046514943   0.29851876   0.18355243 
 5082000    484.27149    -7310.595   -5086.4064    1629.3544   -6525.6382    5810.7153 0.0046501017   0.29849095    0.1835483 
 5084000    514.68484   -7309.6815   -6432.6435   -4903.6435   -6627.0716    4309.3238 0.0046492532   0.29849779    0.1835578 
 5086000    525.83594   -7310.3746   -6161.4686    1394.0415   -5615.3073    4509.5242 0.0046575943   0.29852386   0.18356841 
 5088000    464.74732   -7309.5922   -7223.8724   -326.65686   -7002.3288    3416.8494 0.0046606386   0.29854855   0.18357092 
 5090000    464.68292   -7311.4373   -4857.0209   -153.35974   -4029.4915     5351.177 0.0046585672   0.29855526   0.18356487 
 5092000    532.07943   -7309.7407   -3663.2023    1711.8072   -4969.2382    3091.2705 0.0046579028   0.29855749   0.18357682 
 5094000    494.21304   -7310.4983   -4248.9099    834.04653    -3937.189    2379.6727 0.0046560407   0.29856174   0.18355705 
 5096000    493.83678   -7309.1785   -3245.3633    631.85558   -5449.6799    6022.0649 0.0046542834   0.29854186   0.18355502 
 5098000    524.66447   -7311.1206   -5272.9254    1336.6525   -6879.0658    2409.0653 0.0046528702   0.29855461   0.18356121 
 5100000     491.2093    -7312.334    -2700.735    -1920.748   -5830.5106     4032.472 0.0046530038   0.29857554   0.18354864 
 5102000    521.98613   -7308.6307    -7180.925   -688.11512   -7464.3187    4486.9123 0.0046578357   0.29858107   0.18353888 
 5104000    491.05576   -7312.0613   -4861.0254   -1870.3293    -4225.316    6612.1985 0.0046573812   0.29856412   0.18354128 
 5106000    485.09081   -7310.3099   -5316.9738    704.89033   -5052.1108    6422.7666 0.0046555834   0.29857533   0.18356081 
 5108000    494.81447   -7311.5821   -6251.9725   -3716.6334   -7186.5276    3825.1152 0.0046536638   0.29856776   0.18354786 
 5110000    522.24264   -7309.4952   -3706.1253   -1297.5518   -5962.8871    5791.0937 0.0046536019   0.29856852   0.18354663 
 5112000    486.46493   -7310.0268   -5683.9429   -660.37103   -8185.4919     2451.534 0.0046534157   0.29855629   0.18353567 
 5114000    497.72756   -7309.6078   -2828.3941   -768.26997   -4127.5017    2901.4107 0.0046531059   0.29854985   0.18353399 
 5116000    492.73182   -7309.8059   -5943.3475   -1693.5179   -7484.0828    5973.1615  0.004651527   0.29854728   0.18354276 
 5118000    534.40015   -7310.7723   -3319.3138   -4764.7419   -8132.2116    4068.3822 0.0046508653   0.29857841   0.18354733 
 5120000    484.22705   -7308.8199   -2149.4373   -350.14169   -4476.5941     2900.271 0.0046539706   0.29858532   0.18353519 
 5122000    515.11752   -7309.4645   -2595.6726    1057.3842    -6023.493    4203.1876 0.0046520059   0.29856221   0.18351528 
 5124000    516.93641   -7310.2282   -6038.7125   -1926.5252    -5112.959    6869.6706 0.0046502631   0.29856831   0.18351588 
 5126000    523.77111   -7309.3192   -3977.3831   -1225.6229   -5648.2464     4629.001 0.0046498062   0.29857812   0.18352058 
 5128000    525.99779   -7309.9709   -7058.9553   -1063.5803   -5033.4163     6587.242 0.0046492093   0.29856885   0.18351747 
 5130000    548.07392   -7309.9547    -6195.326     523.0869   -5508.0575    5307.1708 0.0046480648   0.29856532   0.18351641 
 5132000    476.34077   -7311.2259   -5940.6509   -1867.4318    -5404.705    5347.3075 0.0046466911   0.29857713   0.18350068 
 5134000    488.95517   -7309.9722   -6272.1036   -1570.8379   -7784.9397    3451.6242 0.0046507451   0.29860523   0.18351766 
 5136000    526.24599   -7311.4835   -4337.4989   -1271.6824   -6660.4728     1845.748 0.0046484131   0.29860779   0.18350511 
 5138000    522.01003   -7310.7907   -4000.7834   -2735.4102   -5097.4625    5211.9584 0.0046471188   0.29858502   0.18349115 
 5140000    511.90599   -7309.7984   -3176.7797   -3426.4517   -9361.5647    4736.1489 0.0046452418   0.29855429   0.18348405 
 5142000    512.63968   -7310.5066   -2898.4813   -3172.6302   -4725.1214    3936.0959 0.0046466828    0.2985693   0.18349148 
 5144000    503.62615   -7308.5597   -2797.9074   -2397.7794   -7050.8836    4191.9536  0.004648234   0.29860401   0.18349364 
 5146000    490.77011   -7309.1741   -2958.2634   -1112.6551   -5168.8467    4620.0372  0.004646429   0.29860759   0.18347123 
 5148000    514.09364   -7309.9732   -2888.3653   -1467.4771   -2363.1505    7029.3797 0.0046446698   0.29861279   0.18345966 
 5150000    503.38441   -7310.1139    -4539.507   -23.930778   -6035.2129     5993.317 0.0046434081   0.29861681   0.18347741 
 5152000    464.92948   -7310.9597   -880.89691   -2244.1235   -2978.3172    4429.1485 0.0046426273   0.29861289   0.18347537 
 5154000    468.33498   -7309.1229   -1721.3176    1297.7567   -6720.8086    2977.2263 0.0046408202   0.29858779   0.18346865 
 5156000    489.56175   -7310.8966   -2872.3233   -2935.6139   -8245.7654    3882.0257  0.004642379   0.29861963    0.1834729 
 5158000    502.49598   -7309.6108    -904.5569   -824.29857    -7408.342    2288.7742 0.0046500084   0.29862409   0.18349313 
 5160000     456.4304    -7310.884   -5192.2428   -1355.3961   -8609.6311    1587.4413 0.0046507707   0.29862401    0.1834836 
 5162000    493.79626   -7309.7132   -3621.8352   -1192.1036   -7922.6829    2865.6699 0.0046482347   0.29864928   0.18346603 
 5164000    489.25363   -7310.8659    -3497.491   -1984.1895   -6473.2963    1842.0191 0.0046501827   0.29863986   0.18346164 
 5166000    513.28301   -7308.8224   -4966.8288    119.46325   -5468.5988    5841.7578  0.004648601   0.29863351   0.18345017 
 5168000    470.38253   -7311.3626   -4828.5236   -414.25759   -5827.0766    5722.5168 0.0046464461   0.29859987   0.18347012 
 5170000    530.43968   -7307.1177   -6159.3549   -1111.8749   -5385.9375    2405.5049 0.0046481233   0.29861119   0.18346545 
 5172000    522.11792   -7309.0737   -4287.0537   -2699.3472   -2898.7988    4804.0185 0.0046497803   0.29865267   0.18345836 
 5174000    482.59519   -7310.6078   -5194.3685   -1342.7782   -7097.4595    3481.2985 0.0046511906   0.29866203   0.18347197 
 5176000     501.0076   -7307.8391   -5547.0582    -2007.594   -4695.2902    2851.8302 0.0046513104   0.29867205   0.18348318 
 5178000    481.58917    -7310.728   -3796.3728    1913.9594   -3759.6541    5923.5807   0.00465188   0.29867079    0.1834624 
 5180000    522.08119    -7309.929   -5519.8753   -2240.2081   -6295.9485    1768.0977  0.004657279    0.2986453   0.18346564 
 5182000    514.67954   -7310.4505   -5014.0805   -2356.6314   -5063.6111    3509.0215 0.0046549782   0.29862769   0.18347364 
 5184000    543.07152   -7310.0724    -3779.112   -264.35528   -6577.6451    4849.2836 0.0046621281   0.29863547   0.18347331 
 5186000    485.16495    -7310.838   -6983.9693    158.08262   -5418.3349    5300.9574  0.004661606   0.29863535   0.18348076 
 5188000    477.29944   -7309.3997   -5843.4982   -2116.6406   -6741.5413    5928.1163 0.0046611104   0.29866439   0.18350602 
 5190000    487.14424    -7310.027   -6886.3735    2621.7152   -6740.1754    4172.4147 0.0046609631   0.29867458   0.18350664 
 5192000    512.26531   -7309.7491     -4161.23   -1123.5927   -7968.6741    1753.8593 0.0046593515   0.29866985   0.18349643 
 5194000    497.26823   -7309.1423   -5295.2838    800.79906   -6636.0359    5182.9947 0.0046574503   0.29867131   0.18348083 
 5196000    522.17665   -7309.1264   -5161.7556   -1044.2462   -6822.0052    1637.5259 0.0046554524   0.29868201   0.18348496 
 5198000    507.18228   -7307.7826   -6371.9744   -4342.1518   -4632.5392     4107.996 0.0046546459   0.29867613   0.18348254 
 5200000    502.69695    -7309.209   -6923.9544    1696.5954   -3933.6436    6660.8909  0.004652046   0.29865208   0.18348196 
 5202000    492.82584   -7308.5126   -3079.0841   -726.25716   -7378.6872    4672.5284  0.004649791   0.29866779   0.18349815 
 5204000    509.33517   -7309.3349   -4987.7772   -280.88817   -3603.7055    4120.4552 0.0046477797   0.29868805   0.18350161 
 5206000    522.07817   -7311.8277   -2025.0163    1407.4973   -5834.1163    2812.8195 0.0046483134   0.29868531   0.18349332 
 5208000    546.64189   -7308.3156   -5137.0443   -916.64474   -4452.2823    1883.8656 0.0046466958   0.29867783    0.1834869 
 5210000     515.6184   -7309.2474   -3218.0423    1994.9159   -6497.8376    2821.1732 0.0046446135    0.2986824   0.18346924 
 5212000    474.30696   -7309.8322   -8041.6681    584.51511   -5361.6678    1962.5969 0.0046459579   0.29869864   0.18348035 
 5214000    504.51266   -7310.2736   -4279.6684    1775.8394    -3464.136    6336.0287 0.0046447088   0.29867926   0.18350369 
 5216000     518.6478   -7310.1575   -5847.4429   -113.15702   -6763.4136    3501.9768 0.0046457969   0.29871279   0.18350275 
 5218000    506.44818   -7309.8358   -3668.6219    700.02569   -4230.9926    5149.0527 0.0046493406   0.29877089   0.18351225 
 5220000    518.10474   -7310.4129   -4936.5775   -359.79085   -6352.6558    4571.2082 0.0046496502   0.29875386   0.18352106 
 5222000    488.88007   -7310.2331   -5227.1037   -2024.5926   -5422.9911    4342.4487 0.0046472988   0.29873381   0.18351222 
 5224000    460.23874   -7310.9323    -3744.115    1578.5802   -6997.5257    3959.7089 0.0046455708   0.29871226   0.18348224 
 5226000    492.45147   -7310.0707   -5884.5149   -414.62965   -6302.1154    6351.7497  0.004644538   0.29873809   0.18350171 
 5228000    528.07244   -7308.8237   -3540.3418    936.76561   -4920.7169    5854.1843 0.0046456118   0.29876158   0.18349424 
 5230000    530.43246   -7307.7045   -5481.7896     2206.406   -3450.6155    4931.6159 0.0046445154   0.29876119   0.18349569 
 5232000    496.77241   -7310.0081   -2131.2714    2346.7904   -3852.2119    3712.6168 0.0046539965   0.29873552   0.18352214 
 5234000    500.59999   -7309.4067   -2729.4347     2283.526   -5032.0091    5157.8342 0.0046532501   0.29877625   0.18351546 
 5236000    460.38671   -7309.3021   -3326.1215   -94.153109   -7044.1329    218.64941 0.0046517741   0.29878586   0.18348165 
 5238000     482.4666   -7310.9392   -5165.5028   -896.58879   -3788.3343    1972.4095 0.0046501661   0.29874883    0.1834657 
 5240000    505.03599   -7310.0749   -5043.2476    1738.7206   -5995.4038    4453.9011 0.0046478462    0.2987325   0.18346433 
 5242000    478.45872   -7309.3686   -3734.4561   -1685.8994   -6222.4462    3532.8926 0.0046462485   0.29873561   0.18349399 
 5244000    510.34638   -7309.2108   -5134.6091   -1383.1838   -9215.3169    4147.5954 0.0046512451    0.2987538   0.18350849 
 5246000    476.99689   -7308.8354   -4590.7853   -415.16127    -6966.097    4259.1953 0.0046565049   0.29877858   0.18350695 
 5248000    488.84789   -7309.1984   -5776.5379   -482.25922   -5170.9243    1211.1635 0.0046544596   0.29875058   0.18349474 
 5250000    497.38844   -7312.2582   -4898.1087   -662.66101   -6405.6215    5933.3022 0.0046535226   0.29873845   0.18347927 
 5252000    522.28448   -7309.7177   -6468.7074    981.13372   -3509.5589    6837.9071 0.0046509946   0.29873606   0.18347583 
 5254000     547.9038    -7309.811   -4550.6228   -1146.3614   -6251.7111    4961.4003 0.0046496699   0.29872716   0.18348424 
 5256000    502.87782   -7309.5711    -5238.147   -3562.7857   -3241.8674    7292.3882 0.0046536321   0.29874371   0.18350545 
 5258000    533.56523   -7309.4609   -3682.3962    1186.4858   -6218.6294     5819.364 0.0046571012   0.29874955   0.18352197 
 5260000    514.97968   -7310.6523    -4909.134    467.94237   -4848.7222      3196.66 0.0046581699   0.29876804   0.18350817 
 5262000    517.34578   -7309.6718   -5285.8275   -502.81927   -6201.4122    700.90172 0.0046557219   0.29875904   0.18351128 
 5264000    497.79883   -7307.4222    -4556.088    411.56993   -5254.3814    3000.8047 0.0046535323   0.29876161   0.18348688 
 5266000    499.46129   -7309.2994   -2636.2461   -814.50591   -6956.9719     741.6102 0.0046517825   0.29874501   0.18347512 
 5268000    486.20311   -7309.3312   -5352.9595   -899.39251   -5423.5283    2563.9361 0.0046531481   0.29872772   0.18347972 
 5270000     513.7326   -7311.3519   -3014.2937    421.26035   -9248.5136    5976.0405 0.0046533793   0.29876202   0.18348865 
 5272000    490.10736   -7310.8604   -4212.2612   -3140.4558   -5522.7556    4338.2357 0.0046539452   0.29875858   0.18350612 
 5274000    490.02638   -7312.2167   -1817.4963   -653.78802   -6881.9953     5962.459 0.0046539058   0.29875592   0.18352053 
 5276000    481.83958   -7308.6321   -2347.3091    3707.5094   -7382.8425    3982.5856 0.0046530789   0.29874669   0.18351331 
 5278000    520.63239   -7309.3582   -2189.0986   -530.27125   -2870.6253    8973.5076 0.0046515751   0.29876869   0.18349717 
 5280000    495.62986   -7310.9103   -569.29646    1263.8387   -4873.4606    5842.6956 0.0046524244   0.29876025   0.18349694 
 5282000    542.27967   -7309.4176   -3991.6454    2063.4906   -3619.3944    6881.0776  0.004654218     0.298761   0.18349736 
 5284000     493.3277   -7309.7113   -4425.0555     -492.433   -4979.9789    6394.7338 0.0046553833   0.29877751   0.18351644 
 5286000    506.09439   -7311.3709   -4916.8073    1485.3818   -4147.3184    4943.2296 0.0046540466   0.29875638   0.18353616 
 5288000    487.92234   -7308.0709   -1695.0846   -945.88933   -6078.2252    2656.5345 0.0046519673   0.29875207   0.18352832 
 5290000    506.96357   -7309.5173   -3104.1183    1718.2464   -7273.9383    4656.1952 0.0046503966   0.29876137   0.18351042 
 5292000    489.67546   -7309.5715   -2313.3243    2103.1376   -4648.8069    4294.0576 0.0046485793   0.29876007   0.18350156 
 5294000    507.89302   -7310.1221   -1242.3657   -1868.0462   -7557.1623    5069.5676 0.0046470188   0.29875479   0.18348701 
 5296000    490.33903    -7309.652    117.76025   -81.534076   -8135.8983    9075.6888  0.004649247   0.29874452    0.1835157 
 5298000    524.26142    -7308.493   -4085.7176   -1004.5512   -6915.3851    6528.5817 0.0046508141   0.29878307   0.18353876 
 5300000    481.23669   -7308.5367   -1261.1083   -2603.6349   -4043.3805    7329.7514 0.0046507059   0.29878274   0.18352142 
 5302000    516.47105   -7308.7049   -3200.2399   -1159.9542   -6219.8083    5039.8079 0.0046482698   0.29877764   0.18351821 
 5304000    468.48115   -7308.7462    -1342.919   -530.14226   -5549.5831    6247.4524 0.0046465378   0.29878987   0.18352646 
 5306000    452.69539   -7310.2752   -6438.8033    2143.6347   -4568.6645    3855.6023 0.0046446927   0.29879454   0.18351432 
 5308000    516.22351   -7309.7937   -3485.9603   -1168.9831    -7974.265    3643.1842 0.0046451677   0.29876927   0.18348123 
 5310000     497.4062    -7310.069   -5629.6298    475.56365   -5352.2847    6244.8638 0.0046440771   0.29874897   0.18349047 
 5312000    517.73471   -7310.2687   -3042.4712   -4306.9597   -7656.4201    6127.6268 0.0046454248   0.29876125   0.18350476 
 5314000    513.65088   -7308.7411   -4217.5667   -1662.3123   -7614.9352    4415.2433 0.0046505807   0.29878619   0.18352921 
 5316000    507.36231   -7309.9602   -1847.1764    1260.5031   -6131.9941     2597.428 0.0046530122   0.29878264   0.18352644 
 5318000    519.48395    -7311.564   -4377.9408   -2597.0511   -10078.859    6178.1683  0.004652824   0.29878921    0.1835053 
 5320000    493.63952   -7309.6119   -553.83658    3013.6139   -6077.8286    4860.4082 0.0046551967   0.29883276   0.18350765 
 5322000    509.82155   -7310.9224   -3119.9607    489.18337   -6015.1879    5570.1155 0.0046524822   0.29881629     0.183518 
 5324000    524.41261   -7310.1113   -2602.6493    2501.5199   -7023.4287    7729.6888 0.0046532074   0.29876754   0.18350922 
 5326000    480.11278   -7310.0356   -2126.6447   -1412.3516    -5824.727    6291.3431 0.0046513095   0.29880909   0.18349701 
 5328000    504.88357   -7308.9883   -1031.5148   -934.29919   -5361.6597    7238.0744 0.0046560031   0.29881164   0.18350493 
 5330000    515.63529   -7309.3027   -3061.4759   -965.50002    -2945.512    5702.9405 0.0046536671   0.29882074   0.18350115 
 5332000    528.06421   -7308.8242   -2445.0998   -864.61336   -7292.1442    7019.2702  0.004652553   0.29884068   0.18349645 
 5334000    495.07579   -7308.8186   -1303.2399   -3427.3076   -5013.6819    4940.8558 0.0046510832   0.29882199   0.18347754 
 5336000    495.68795   -7309.1508   -2988.7147   -1593.0026   -5964.4989    9315.5619 0.0046497068   0.29882748   0.18345754 
 5338000     471.2735   -7306.8961   -2370.5209   -1952.7235   -5657.5284    4089.7847 0.0046501225   0.29880914   0.18349586 
 5340000    506.90026   -7310.4211   -4161.0805   -1077.0207   -5489.7937    3832.2182 0.0046504604   0.29880197   0.18350062 
 5342000    469.83725   -7307.0215   -3947.1123    2187.5979   -10137.811    3100.6255 0.0046494245   0.29881146   0.18350088 
 5344000    493.07532   -7310.4378   -2016.2156   -430.90477   -5118.9153     857.4241 0.0046504015   0.29882473   0.18348383 
 5346000    481.09662   -7310.7819   -3602.1784    773.08967   -6797.8836    6978.6477 0.0046495802    0.2988513   0.18347209 
 5348000    504.52932   -7310.2005   -3292.9972    707.92294   -5789.3099    3836.2022 0.0046482576    0.2988391   0.18348374 
 5350000    520.48303   -7310.3569   -4027.0091   -2571.0312   -7453.3737    6004.5001 0.0046472174   0.29881255   0.18348958 
 5352000     502.9183   -7310.5277   -3835.5975   -1684.2654   -7512.9087    6724.5196 0.0046476781    0.2988545   0.18350458 
 5354000      476.659   -7309.6199   -5588.1762   -289.14489   -5638.0113    5872.5572 0.0046495856   0.29889292   0.18351265 
 5356000    477.08558   -7309.9379   -3310.3289   -2355.5162   -3210.1435    7166.9765 0.0046485728   0.29887722   0.18349386 
 5358000    478.77389   -7308.8706   -5416.7629    1311.0514   -5135.9516    7296.4373 0.0046478465   0.29884423    0.1834906 
 5360000    493.70859   -7311.5964   -8747.7662    163.37626   -4019.8619    8742.9979   0.00464649   0.29887762    0.1834979 
 5362000    466.94407   -7307.8494   -1939.4688    1849.0308   -4882.2365    5994.4731 0.0046446041    0.2988912   0.18350877 
 5364000    483.62741   -7308.6675   -4425.2441   -930.29942   -1566.2777     7285.357 0.0046426793   0.29887644   0.18349386 
 5366000    504.18027   -7309.5723   -3452.1146   -669.16119   -5095.7195    4588.8283 0.0046445804   0.29885775     0.183486 
 5368000    526.25627   -7309.8669    -4679.106   -1172.3906   -4186.6246    6983.2657  0.004645251   0.29888197   0.18347557 
 5370000     510.0671    -7310.768   -2554.9018   -1345.3275   -6909.4317    5503.2591 0.0046443712   0.29887908   0.18348899 
 5372000    494.50903   -7309.3993   -4216.7546    204.72017   -5803.8921    5734.4961 0.0046426653   0.29889318    0.1834902 
 5374000    481.58587   -7310.9363   -1017.0446   -2660.4935   -5468.0423    7121.6713 0.0046415017   0.29891302    0.1834803 
 5376000    507.28793    -7309.782   -1309.9666      342.433   -5013.8456    3882.7814 0.0046402955   0.29889426   0.18349683 
 5378000    530.68466   -7308.3247   -1840.5709    1669.9877   -6884.7999    5554.2153 0.0046386725   0.29890955   0.18349958 
 5380000    517.27041   -7308.9186   -1595.4785   -722.30227   -5386.9394    4116.0476 0.0046371348   0.29889306   0.18350961 
 5382000    514.45318   -7308.6936   -3087.4442   -891.97375   -6914.6837    4964.1305 0.0046364219   0.29889678   0.18351882 
 5384000    486.55884    -7310.393   -2215.2694   -2096.9901   -4948.2492    3728.0139 0.0046408876   0.29893006   0.18352029 
 5386000    473.62031   -7308.1189   -3790.8656    1910.2433    -7118.106    5572.2963 0.0046413047   0.29893217   0.18351378 
 5388000    477.31368   -7311.9132   -6122.4722   -1082.1991   -5016.7194    5330.9905 0.0046393429   0.29894866   0.18350608 
 5390000    493.44517    -7311.907   -4099.3832    780.67325   -5324.5626    5743.8289 0.0046379963   0.29893799   0.18353182 
 5392000    487.52277   -7309.8321   -4799.7165   -3629.9469   -6578.4131    6081.7597 0.0046367155   0.29894626   0.18352114 
 5394000    503.66906   -7310.0458   -3758.9959   -843.42659   -6386.8498    3174.9665 0.0046349073   0.29895083   0.18351561 
 5396000    449.65315   -7307.6151   -4814.4871   -709.36635   -5462.5933    7278.1972 0.0046330533    0.2989436   0.18352851 
 5398000    512.72058   -7308.9875   -4585.0793   -2655.4766   -5831.8919    4556.2704 0.0046442935   0.29899262   0.18358165 
 5400000     488.4566   -7307.7551   -4785.8945    1972.2356   -4590.2184    5335.3638 0.0046460766   0.29898463   0.18364502 
 5402000     492.3304   -7311.4571   -4943.0936    91.265105   -7897.3036    6808.8063 0.0046448178   0.29899876   0.18366937 
 5404000    483.43131   -7310.7951   -5234.2991    2051.5455   -7366.2077     3091.086 0.0046457912   0.29904253   0.18366074 
 5406000     533.6962   -7309.6134   -5982.5195    2478.4337   -2665.0619    4017.5339 0.0046443461   0.29903919   0.18364623 
 5408000    515.88284   -7310.8364   -6173.8313     1226.869    -7367.639    4590.9166 0.0046432017   0.29903228   0.18363805 
 5410000     469.2583   -7309.3802   -4011.7185   -1729.0716   -7821.0898    3709.3493  0.004642521   0.29903004   0.18364938 
 5412000    473.32221   -7309.4083   -6232.9094   -690.09101   -4756.6813    2244.2168   0.00464175   0.29904562   0.18366555 
 5414000     498.7689   -7310.0673   -3734.9256   -4513.4742   -5794.8871    4351.5393 0.0046479954   0.29905371   0.18366281 
 5416000    518.62192   -7308.5289   -4846.2558   -2603.6024    -4196.309    2295.7436 0.0046488397   0.29907337   0.18364912 
 5418000    511.70153   -7311.1825   -4749.1513   -20.104737   -6106.4063    6097.4747 0.0046486726   0.29906866   0.18365867 
 5420000    476.03868   -7308.8378   -5259.6942   -443.07117   -6199.9371    767.42634 0.0046461438   0.29906132   0.18364395 
 5422000     518.0818   -7310.0319    -7654.222    904.84445   -5297.0354    3135.5784 0.0046444401   0.29906244   0.18363783 
 5424000    535.77821    -7308.911   -4320.5317   -3300.6623   -7277.1845    2706.5769 0.0046421544   0.29905341   0.18363331 
 5426000    508.16825   -7309.0047   -7282.8763    1619.7687   -6131.2454    3729.9728 0.0046406845   0.29907599   0.18365007 
 5428000    515.43046   -7309.5239   -6417.5851   -2532.6358   -8871.2051    4808.7563 0.0046398504   0.29907903   0.18365032 
 5430000    500.36103   -7311.2474   -7203.6894   -940.16214   -6451.8014    4492.3155 0.0046380832   0.29907208   0.18364784 
 5432000      509.718   -7308.3894   -5640.2318    278.79511   -8096.2135    9784.2107 0.0046364605   0.29909481   0.18364006 
 5434000    464.72202   -7310.1672   -5905.0041   -427.73953    -5937.631    6390.3048   0.00463418   0.29910896   0.18365114 
 5436000    483.87242   -7310.0709   -2062.3555   -2942.4702   -6968.1897    7123.4148 0.0046327873   0.29911266   0.18364405 
 5438000    480.92361   -7310.6518   -4903.1227   -203.32033   -5308.3463    7970.1683 0.0046342051   0.29910691   0.18363526 
 5440000    508.23827   -7309.7136   -2856.8181   -2404.6254   -6512.9867    6312.3485 0.0046337503   0.29911091   0.18363741 
 5442000    463.07776   -7309.8457   -3948.2005    2338.5081   -7599.2839    3705.7784 0.0046322599   0.29911068   0.18364908 
 5444000    513.75076   -7309.3042    -3773.856    469.42784   -2409.1959    5938.4987 0.0046307072   0.29911241   0.18364122 
 5446000    487.83568   -7309.9147    -4968.707   -3222.6409   -4760.3069    6639.0702 0.0046292603   0.29907624   0.18362077 
 5448000    500.51828   -7310.3848   -4420.0102    -1723.871   -4524.2421     3032.946 0.0046277205   0.29909674   0.18362835 
 5450000    527.43873   -7310.4513   -5612.0697   -3288.6066   -9099.2481    6610.6777 0.0046260929   0.29909054   0.18363298 
 5452000    471.35913   -7310.9218   -3940.7823   -770.64759     -6783.88    4240.0926  0.004629491   0.29910511   0.18362661 
 5454000    502.70796   -7312.1793   -5785.0465    243.59282   -6932.0474    7316.0644 0.0046345892   0.29910043   0.18363709 
 5456000    494.07331   -7309.9439   -3611.1332   -1139.2874   -7104.8894    3228.5542 0.0046308416   0.29911476   0.18364491 
 5458000    481.15699   -7311.1051   -3230.7802     354.8085   -7777.3615    2977.4403 0.0046310044   0.29911424   0.18363982 
 5460000    476.52576   -7311.1168   -3678.7917    432.61924    -6133.853    3667.2983  0.004629877   0.29912292   0.18363794 
 5462000    471.14947   -7309.5031   -3274.6305    1879.9749   -5202.1753    1357.1876 0.0046280892   0.29910848   0.18362516 
 5464000    518.42184   -7309.0489   -5220.3843   -2056.9266   -4673.0337    3105.7309 0.0046265415   0.29911169   0.18362951 
 5466000    498.69583   -7308.3103   -4411.1887    411.97464   -3631.3006    1534.8747 0.0046246888   0.29909931   0.18363446 
 5468000    500.50558    -7310.143   -6182.4584   -945.92442   -4113.0626    5480.8073 0.0046246275   0.29911059   0.18362962 
 5470000     472.1727   -7308.8808   -3944.0953   -754.17119   -2976.2444    4854.2634 0.0046259567   0.29912522   0.18365252 
 5472000    490.21995   -7311.4069   -6226.0666   -713.22932   -3889.8771    5047.1402 0.0046256347   0.29912768   0.18363268 
 5474000    463.48595   -7308.3366   -5530.1804   -857.47548     -7236.58     2003.361 0.0046247917    0.2991446    0.1836321 
 5476000    476.08862   -7309.2924   -2815.0808   -1793.4336   -1983.6488    6075.1381 0.0046229279   0.29914288   0.18361866 
 5478000    511.07089   -7309.8139   -4184.7441   -536.98912      -7333.2     3468.225 0.0046215109   0.29912021   0.18363222 
 5480000    462.17452   -7308.8096   -3499.4559   -4225.0632   -6426.9803    3324.6045 0.0046193275   0.29912591   0.18363255 
 5482000    497.47146   -7308.9008   -5286.5387   -1656.3437    -6290.443     2912.442  0.004619392   0.29915266   0.18361312 
 5484000    502.44139   -7310.3813   -4622.0117   -3432.9604   -5819.6203     5102.566 0.0046187988   0.29914308    0.1836218 
 5486000    484.51723   -7309.7684   -5386.1412   -1156.3245   -6954.9117    2715.9709  0.004621374   0.29913877   0.18363022 
 5488000    508.99917   -7309.5764   -6881.4346   -1464.2608   -2859.1051     2766.696 0.0046209025   0.29916413   0.18363139 
 5490000    528.20298   -7309.9436   -4861.1214   -515.74473   -6052.4417    5198.9265 0.0046193728   0.29914933   0.18361973 
 5492000    491.39385    -7309.606   -4957.6135   -1881.4971   -3241.3188    4611.2523 0.0046195572   0.29916575   0.18362985 
 5494000     504.5127   -7308.9159   -3403.9105   -2278.4251   -5380.2251     6400.346 0.0046185961   0.29914953    0.1836435 
 5496000    493.21742   -7307.2825    -3230.077    1406.7397   -6756.6556    6264.2678 0.0046180384   0.29915481   0.18363934 
 5498000    474.93909   -7308.4592    -5156.858    -3598.133     -5061.51    4720.2357 0.0046149571   0.29914392   0.18363544 
 5500000    492.04952   -7309.0219   -4539.6163    2240.9038   -6283.2047     4227.589 0.0046147309   0.29915915   0.18363511 
 5502000    503.08455   -7308.0681    -6978.288    2523.5867   -5456.6024    3288.3615 0.0046126673   0.29916079   0.18364107 
 5504000    494.13702   -7310.1949   -4979.2998   -1486.8173    -4868.134    3466.2215 0.0046098545   0.29914365   0.18363192 
 5506000    480.29864   -7310.0569   -6656.0791   -2088.0951   -7226.8746     2261.853 0.0046101025   0.29915433    0.1836259 
 5508000    489.47254   -7308.9045   -3701.8921   -2682.6013   -5206.8046    2045.5523 0.0046110539   0.29916033   0.18360754 
 5510000    510.31757   -7310.3429   -4127.2689   -128.89276   -6701.4442    1229.2126 0.0046112575   0.29915722   0.18361649 
 5512000    483.50018    -7308.706   -5930.9255    240.74737    -4343.352    5188.4197 0.0046103097   0.29918937    0.1836081 
 5514000    521.58089   -7310.1116   -5583.7737    1526.2183    -6174.578     5791.287  0.004608728   0.29918268   0.18361847 
 5516000    504.20005   -7311.1087   -7672.1703    1516.2315   -4473.6501      2886.34 0.0046077102   0.29917488   0.18361915 
 5518000    472.09149   -7310.5712   -5018.5073     1175.195   -4361.1552     4862.179 0.0046057482   0.29915346   0.18361352 
 5520000    533.50443   -7309.6321   -4557.9917    1043.9325   -7254.5053    5154.4131 0.0046043014   0.29917475   0.18358599 
 5522000    511.37115   -7310.7735   -4904.9333   -896.93322   -3661.3094    5266.2885 0.0046070591   0.29920747   0.18361566 
 5524000     503.4453   -7308.5743   -5553.7247   -2921.9673   -2655.7455    4497.0804 0.0046119941   0.29918748   0.18362133 
 5526000    505.11933   -7311.1992   -3175.4738    393.30758   -6688.8853    1507.3122 0.0046122228   0.29920086   0.18363219 
 5528000    508.85589   -7309.7838   -4868.3459   -2338.5264   -5748.9119    6548.5294 0.0046105605   0.29920219   0.18362021 
 5530000    479.81561   -7308.4475   -2982.3699   -916.94024   -4929.6171    1902.9398 0.0046088017   0.29919278   0.18361971 
 5532000    458.05504   -7310.2807   -5932.5693    589.71747   -5796.9915    5053.6487  0.004607188   0.29920792     0.183617 
 5534000    480.42669    -7309.725   -3685.5118   -2549.9232    -9579.603    2759.4979 0.0046070629    0.2992115   0.18362037 
 5536000    511.80175   -7312.1399   -5793.9347    3000.3933   -5345.7075     6439.386 0.0046073979   0.29921639   0.18363471 
 5538000    524.40505   -7308.4878    -6763.183    -1528.004   -8164.4975    4457.1272 0.0046053933   0.29920038    0.1836439 
 5540000    509.02247   -7309.0511   -1124.5866    -4.543021   -5469.5172     4399.205 0.0046060084   0.29920828    0.1836229 
 5542000    466.48848   -7308.9977   -7285.7329    2253.4253   -7343.0189     5683.708 0.0046119989   0.29919616   0.18363057 
 5544000    532.93322   -7308.8658   -4554.1438   -1094.8701   -7141.6188    5478.3516   0.00460794   0.29919853   0.18363715 
 5546000    490.09885    -7309.564     -2856.78    768.59367   -4246.9709    4618.3057 0.0046069792   0.29921742   0.18365618 
 5548000    517.89498   -7309.2782   -4860.1321    737.35094   -6312.1635    2803.3869 0.0046068438   0.29920459   0.18365435 
 5550000    470.29185   -7309.0531   -2612.7043   -200.06902   -4470.5916    4451.3545 0.0046056521   0.29920482   0.18363865 
 5552000    477.22943   -7309.3953   -1299.7429   -1322.4869   -9057.3408    2703.0772 0.0046040965   0.29919819   0.18363706 
 5554000    472.14598   -7308.6003    -4531.638   -430.40119   -5180.0183    2128.2566 0.0046034111   0.29920887   0.18363391 
 5556000    487.94746   -7309.3607   -3090.0292   -970.38501   -7737.7811    4234.3314 0.0046022264   0.29921309   0.18365452 
 5558000     499.8562   -7309.0919   -2247.1124   -1296.7442   -6980.5305    1602.0991 0.0046016972   0.29922094   0.18365527 
 5560000    496.47557   -7310.7141   -3624.3323   -3146.1664   -4076.8753     3787.997 0.0046023738    0.2992169   0.18364784 
 5562000    477.04613   -7310.4059   -1992.9853    416.72871   -6253.1441    6283.1162 0.0046068496   0.29922729   0.18363519 
 5564000    511.47353   -7310.0897    -7356.842   -1449.5186   -5749.8859    5369.5041 0.0046035138   0.29924064   0.18362771 
 5566000    502.23541   -7310.6299   -3598.6189   -4326.0359   -4026.3478    6582.3414 0.0046021606    0.2992192   0.18362575 
 5568000    488.45545   -7308.8891   -5880.6567    131.38161   -9142.5216    2460.6603 0.0046007655   0.29922438   0.18366006 
 5570000    506.75195   -7311.2176   -4645.6115   -2242.2029   -5056.4403    3020.3122 0.0045990981   0.29926244   0.18365088 
 5572000    521.26485   -7310.9873   -2153.5318   -71.442262   -4317.8597    3920.0958  0.004597518   0.29924141   0.18364849 
 5574000    464.56793   -7310.9915   -4077.2858     610.4742    -4916.627    5251.1126 0.0045967356   0.29923987   0.18363953 
 5576000    483.59362   -7309.8622   -907.77663    -1336.083   -4020.4242    3718.0807 0.0045946657   0.29924235   0.18365734 
 5578000    485.34791    -7310.524   -1841.4893    -507.1758   -5373.3137    1933.0429 0.0045927439   0.29924352   0.18365149 
 5580000    520.21287   -7311.5639   -2869.3967   -1544.1792   -1378.6213    6401.1823 0.0045925942   0.29926369   0.18363207 
 5582000    486.66768   -7310.7862   -3496.0432    717.91957    -7305.367    4327.1525 0.0045958218   0.29925735   0.18364873 
 5584000    501.25045   -7308.3047   -2455.1858   -1948.2292   -3723.5745     7704.052 0.0045979472   0.29927581   0.18366287 
 5586000    491.37086   -7310.6658   -7241.3025    2733.6788   -6757.6114     3564.756 0.0045984385   0.29927226   0.18366371 
 5588000    501.53158   -7310.7383   -3596.2487    2197.8988   -5818.6894     4588.269 0.0045968273   0.29926175    0.1836512 
 5590000    470.42575   -7307.6572    -3844.302    2152.4272   -10247.983     6166.105 0.0045955304   0.29924572   0.18364189 
 5592000    525.88377   -7309.8698   -4743.3264   -1376.1371   -8638.4963    5900.0813 0.0045940102    0.2992741   0.18363173 
 5594000    475.70745   -7309.0947   -7256.8032   -717.48775   -7928.2679    4945.3067 0.0045938267   0.29926839   0.18362362 
 5596000    517.92725   -7308.5887   -5592.2206     -2555.07   -9644.8902    4103.3058 0.0045953387   0.29924995   0.18363458 
 5598000    517.28937   -7310.4859   -5519.8938    205.03727    -6149.835    3204.8348 0.0045975289   0.29931077   0.18364256 
 5600000    507.84602   -7310.3586   -7154.5941    1044.4098   -5065.4239    6869.4555 0.0045986359   0.29931119   0.18364264 
 5602000    487.74742   -7308.0618   -4801.7972    463.33298   -6269.1942      5525.34  0.004597014   0.29929951   0.18363978 
 5604000    498.05496   -7310.6637   -6931.1448    2138.7905   -4199.0999    6131.4155  0.004597891    0.2992784   0.18363473 
 5606000    500.05809   -7307.8954   -2785.6287   -1819.2759   -6536.4198    6096.0375 0.0045965601   0.29927393   0.18362268 
 5608000    474.34679   -7311.1975    -5650.588    1933.9262   -5126.8833    3371.4776  0.004597201   0.29928093     0.183608 
 5610000    484.20533   -7308.7498   -5197.4005    2385.1287   -4009.8761     5836.814  0.004598931   0.29929119   0.18359505 
 5612000    507.69102   -7311.2034   -6091.1363   -3267.3948   -6258.2456    6641.1364 0.0045998487   0.29929579   0.18361816 
 5614000    511.68035    -7309.556   -6350.0679    -333.9974   -6624.9915     3314.832 0.0045986432    0.2993205   0.18362352 
 5616000    486.94696   -7310.9554   -6442.8272   -804.07628   -6439.9558    4396.7327 0.0045980452    0.2993004   0.18361017 
 5618000    513.16949   -7310.5791   -4931.7372    12.659416   -7061.6227    3809.6071 0.0045965003   0.29929551   0.18361514 
 5620000    508.34181   -7309.1382   -5363.4525   -758.37864   -6221.7323    5092.8081 0.0045956925   0.29930955   0.18361772 
 5622000    501.31733    -7309.255   -6304.6642   -1684.4602   -5693.8374    2416.1067 0.0045937205   0.29928164   0.18360522 
 5624000     495.4554   -7309.4512   -2997.5921    3237.9962   -5793.5743    6093.6684 0.0045924118   0.29929848    0.1835925 
 5626000    465.18905   -7310.7205   -5448.3714   -5229.7125   -8117.7574    3755.6579 0.0045900908   0.29929913   0.18360706 
 5628000    475.65373   -7310.7627   -2861.4551   -1828.0509   -5438.3767    5387.8848 0.0045945241   0.29933784   0.18363686 
 5630000    485.67212   -7309.1178    -3771.076    4295.3678   -5700.5247    3949.1611 0.0045940766   0.29932545   0.18363368 
 5632000    478.18341   -7310.5319   -2037.1299   -1706.8898   -6622.8847    3535.6818  0.004592421   0.29931926   0.18360817 
 5634000    523.43043    -7309.472   -3456.2766    3075.1368   -5198.0659    3704.5581 0.0045903942   0.29932487   0.18360381 
 5636000    511.27181    -7308.734   -3703.4161   -468.52976   -5309.0839     3293.143 0.0045882794    0.2993267   0.18359325 
 5638000    451.35578   -7310.1612    -3255.691    1154.5095   -6522.7113    1331.3104  0.004586076   0.29930116   0.18360472 
 5640000    488.36046   -7308.9684    -3291.681    1290.7818   -9343.2972    4131.8841 0.0045863021   0.29930404   0.18362112 
 5642000    509.77212   -7307.6135   -41.204098   -2037.7213   -8408.7664    5196.9026 0.0045886446   0.29931709   0.18363223 
 5644000    478.21328   -7310.7478   -5513.0457    45.107886   -9356.2786    2326.0491 0.0045897873   0.29933314   0.18364041 
 5646000    538.81767   -7309.1051   -4940.1943   -3736.8713   -7813.2992    4417.5294 0.0045898237   0.29935117    0.1836222 
 5648000    499.06931   -7310.0385   -4190.8103    2755.6803   -5415.6452    2072.9754 0.0045882084   0.29933931   0.18361576 
 5650000    508.58836   -7308.5074   -5084.6106   -536.97351   -5366.6975    7488.9732 0.0045868944   0.29931299   0.18359701 
 5652000    495.09409   -7309.4771   -6620.5697    621.23753    -6993.872    3289.9477 0.0045852246   0.29930922   0.18361228 
 5654000    499.94642   -7309.9384   -6497.1476   -689.13519   -5255.5177    6228.7063 0.0045836458   0.29933934   0.18362143 
 5656000    524.41769    -7309.001   -5617.7881   -1918.4666   -5724.6897    5741.0947 0.0045872806   0.29934943   0.18363027 
 5658000     531.3723   -7309.3562   -6890.6152    666.28596   -5781.1889    4842.0546 0.0045907923   0.29936254   0.18363341 
 5660000    486.20072   -7309.5355    -5763.184    2168.1297   -5944.2828    4398.8392 0.0045891854   0.29934453   0.18361821 
 5662000    520.09624   -7309.6123   -8933.0448   -1836.5653   -4867.6088    4472.6728 0.0045896552   0.29936808   0.18361722 
 5664000    491.71727   -7310.5866    -6212.326   -366.81403   -5363.1374    5830.2259 0.0045863289   0.29934009   0.18360714 
 5666000    509.33629   -7309.4851   -6988.8418    853.79812   -7685.7712    3408.8822 0.0045844305   0.29934181   0.18362606 
 5668000     501.7288    -7312.189   -4677.0062   -1732.2355   -6715.2553    7119.9997 0.0045840434   0.29936355   0.18363226 
 5670000    499.69145   -7307.9024   -7520.4303   -516.62284   -4115.6227    3116.7211 0.0045833865   0.29937992   0.18363108 
 5672000    488.56015   -7310.6371   -4642.5864    34.437954   -7372.4512    4507.5101 0.0045836046   0.29937274   0.18361909 
 5674000    515.39433   -7309.1821   -5540.2616    843.03619   -5629.8643    3517.3442 0.0045822399   0.29937149   0.18359608 
 5676000    469.81481   -7311.2657     -5477.09     -2625.96   -6900.1521    5012.6968 0.0045822436   0.29936951   0.18360144 
 5678000    503.37765   -7308.5537    -3698.806   -3884.1156   -6676.6275    6560.4775  0.004582754   0.29936404   0.18362605 
 5680000    483.55347   -7308.9503   -6156.9071   -691.42693   -5709.0193     3421.346 0.0045836028   0.29934804   0.18362944 
 5682000    503.33412    -7310.963   -1586.1004   -951.11738   -9621.6568    3051.6158  0.004582436   0.29934697   0.18362252 
 5684000    500.99351   -7307.8166   -2690.4837    -2244.251   -2412.8964     4315.195 0.0045815628   0.29936497   0.18360561 
 5686000    505.14404   -7310.4854   -5101.4307   -2469.7922   -6540.8931    6257.3604 0.0045827645   0.29938249   0.18359701 
 5688000    503.45181   -7310.0731   -4532.1134    1379.1145   -4227.6546    4228.3928 0.0045808666    0.2993959   0.18359589 
 5690000    479.80456   -7308.6366   -2977.4203   -2215.2431   -6991.5756    6544.3607 0.0045811083    0.2993728    0.1836067 
 5692000    480.14996   -7309.8702   -1503.7852   -480.52371    -3732.614    5543.2784 0.0045807786   0.29937224   0.18361907 
 5694000    503.17527   -7310.2223    -3649.472   -2638.9473    -4262.379    2599.5748 0.0045896923   0.29936791   0.18362827 
 5696000    488.38339   -7310.1466   -5287.8135    287.03104   -6851.9561    5324.2026 0.0045889998   0.29937249   0.18361969 
 5698000    528.83692   -7308.7091   -3850.1314   -1856.9295     -6598.73    3754.5117 0.0045874093    0.2993924   0.18359614 
 5700000    509.95799   -7308.1197   -4829.4393    881.76363   -5585.0673    7524.2229 0.0045873049   0.29938588   0.18360499 
 5702000    522.46661   -7310.6773   -6026.8971   -1384.6468    -8388.424    5113.6701 0.0045849103   0.29939048    0.1836171 
 5704000    514.04022   -7309.5054   -6396.5519   -2770.3511    -5024.348    3661.9851 0.0045826091   0.29937722   0.18361866 
 5706000    512.50091   -7309.1771   -6700.8491   -2116.2424   -5232.7638    5058.0717 0.0045832348   0.29936284   0.18361323 
 5708000    504.17499   -7308.4987   -3182.3668   -2106.6707    -7503.423    4305.3633 0.0045849977   0.29936527   0.18362051 
 5710000    530.14518   -7308.4917   -5935.9337   -246.68099   -3754.3039    4027.5166 0.0045853558   0.29939738   0.18361779 
 5712000    523.45848   -7307.6197   -4138.9782   -1635.8419   -7083.5883    3893.1057 0.0045840186   0.29937259   0.18362863 
 5714000    493.07601   -7309.0306   -4609.8411     142.8932    -4087.727    5779.3853 0.0045823413   0.29936835   0.18361653 
 5716000    488.37331   -7309.9348    -2542.775    1410.2862   -3863.9216    3820.6993 0.0045808603   0.29937628   0.18362984 
 5718000    514.59326   -7310.2154   -3679.9568   -1474.2408   -6300.4339    1848.8025 0.0045791415    0.2993917   0.18363241 
 5720000    477.00967   -7310.7439    -3753.689    809.91525   -4170.8775    2776.0552 0.0045771864   0.29937905   0.18362773 
 5722000    450.80198   -7309.6409   -1682.1324   -2480.9283   -5920.9594    3161.4543 0.0045782922   0.29938282   0.18362801 
 5724000    514.40635   -7310.3823    -2624.634   -2483.8863   -10575.584    4009.2372 0.0045772153   0.29937751   0.18363024 
 5726000    495.53337   -7309.0518   -3352.4606   -2684.2809   -6608.6778    3988.1843  0.004576057   0.29940393   0.18362222 
 5728000    525.90409   -7310.8703   -4119.1244   -1929.1464   -9501.9014    4778.1019 0.0045747876   0.29938979   0.18362913 
 5730000    527.85904   -7310.2028   -2601.9458   -3507.0625   -8295.1242    2079.3849 0.0045737488   0.29938963   0.18363124 
 5732000    495.81684   -7310.7565   -3812.0529   -5038.5177   -9248.8816    2351.7509 0.0045828294   0.29941906   0.18363757 
 5734000    464.50588   -7310.4231   -4389.1958   -4294.8646   -5918.1321    6043.4513 0.0045860323   0.29942112    0.1836294 
 5736000    492.89262   -7308.3529   -3076.0354     -1299.78   -8112.0392    4516.1191 0.0045853108   0.29944057   0.18362948 
 5738000    520.35111   -7308.2707   -3901.3324   -2493.6172   -4791.1081    4331.0333 0.0045837221   0.29943901    0.1836476 
 5740000     474.8813   -7306.8883   -3905.2532   -439.98898   -2505.7821    7095.7884 0.0045820448   0.29942926   0.18362119 
 5742000    492.10437   -7309.9313   -4097.3582    1552.3338   -7645.6071    3902.9703 0.0045811965   0.29941691   0.18363229 
 5744000    481.49918   -7307.6676   -3674.1809    -2033.842   -6727.8098    6206.1189 0.0045797461    0.2994238   0.18361671 
 5746000    490.95013    -7309.658   -4419.4958    229.62958   -4544.0376    4748.6117 0.0045810664   0.29942413   0.18362685 
 5748000    525.06672   -7309.4865   -3784.8274   -763.74385   -7530.6206    3846.9622 0.0045823961   0.29942011   0.18361064 
 5750000    496.48185   -7309.9689   -4055.1134   -1144.2182   -5343.2331    5731.2663 0.0045819995   0.29944288   0.18360651 
 5752000    546.72682   -7310.4231   -3916.0334   -1840.9243   -6574.6115    1972.6947 0.0045820976   0.29946015   0.18362385 
 5754000    502.64979   -7310.2605   -4472.3542    481.85856   -6815.6092    6948.1746 0.0045813658    0.2994411   0.18361912 
 5756000    541.32856   -7309.6882   -4832.9632   -1807.7983   -6013.2403    1937.0834 0.0045789128   0.29940494    0.1836259 
 5758000    495.17409   -7308.1054   -5090.9992    511.02958   -8207.4538    3202.4902 0.0045772231   0.29940756   0.18361437 
 5760000    524.71264   -7309.0439   -4793.6642   -58.095447    -4285.142    1835.6979 0.0045770765   0.29941531    0.1836336 
 5762000    511.27531   -7308.0106   -4457.6564   -2135.5857   -6012.6042    3336.8917 0.0045808038   0.29940517   0.18362381 
 5764000    506.15528   -7308.8894   -4951.5997    704.93512    -7603.232    3820.0025 0.0045793574   0.29943646   0.18361484 
 5766000    511.85517   -7308.1295   -3391.3021   -2167.2909    -3625.256    5973.0942 0.0045783416   0.29948032   0.18362485 
 5768000    483.15695   -7311.6738   -3139.9889    -1621.515   -3984.2343     4930.306 0.0045828453   0.29946159   0.18362566 
 5770000    512.81836   -7309.3207   -2837.6457     598.0815   -4962.1831     5360.205  0.004585575   0.29945034   0.18362426 
 5772000    491.32217   -7308.4809   -4516.8046    1751.0207   -5396.7651    3097.3642 0.0045887748   0.29944624   0.18361225 
 5774000    507.16381    -7310.039   -4079.5689    1112.6818   -4105.2237     7929.845 0.0045925139   0.29945168   0.18362543 
 5776000    524.41884   -7312.0513   -918.01398    -575.5137   -5796.1373    2422.0382 0.0045905256   0.29944402    0.1836321 
 5778000    520.09988    -7308.213   -2894.8603   -509.65075   -5860.3858    1501.1104 0.0045895073   0.29942469   0.18360806 
 5780000    494.86435   -7309.7582   -3335.5286   -1303.8041   -5548.9249    7849.9884 0.0045893395   0.29943314   0.18359306 
 5782000    511.72804    -7310.947   -5868.9701   -2436.2875   -6367.3204     5970.784 0.0045997105   0.29942933   0.18362732 
 5784000     515.3383   -7309.6809   -4864.9157   -1425.0172   -6339.6955    6749.0693 0.0046035175    0.2994201   0.18364664 
 5786000     496.6605   -7307.4133   -6636.3042   -941.33739    -3656.517    3663.6616 0.0046034336   0.29942146   0.18364685 
 5788000    491.82863   -7309.4187   -3777.5479   -2448.9381   -1326.3611    4824.9031 0.0046043942   0.29939079   0.18362906 
 5790000    483.74287   -7309.5592   -4616.6577   -755.98306   -3414.1603    8481.3612 0.0046048079   0.29937017   0.18362135 
 5792000    492.38583    -7309.087   -4336.6872   -1541.7051   -4149.6352    7666.6702 0.0046047179   0.29935589   0.18363706 
 5794000    513.36197   -7309.8497   -4099.0889   -476.84523   -4453.6038    4932.0691 0.0046037219   0.29937886    0.1836429 
 5796000    480.84068   -7309.4177    -3360.978    1252.8054   -5765.0041     3479.996 0.0046042314   0.29936083   0.18362779 
 5798000    509.70908   -7310.4218   -4620.4052     397.6646   -4882.1302    5508.4636 0.0046069635   0.29936152   0.18363111 
 5800000    511.84723   -7310.0129    239.40695    1389.0088   -5938.8686     3595.899 0.0046044655   0.29933979   0.18365112 
 5802000    498.54584   -7310.0625   -4284.6066   -2366.8527   -4490.2735    184.96172 0.0046035977   0.29932115   0.18364017 
 5804000    489.45935   -7306.9448    -262.1154   -2931.1772   -5957.2341    3066.5191 0.0046034178    0.2993143   0.18363679 
 5806000    498.79563   -7308.7594   -4114.3365   -1128.4158   -4524.4225    3090.4298 0.0046050974   0.29930096   0.18363352 
 5808000    519.49568   -7309.8667    -5356.659   -1568.9193   -4506.1666    4614.5728 0.0046066407   0.29930258   0.18364553 
 5810000    480.68743   -7308.3555   -4026.9354   -2581.0062   -4739.1614     5731.713 0.0046252366   0.29931812   0.18366944 
 5812000    499.71096   -7309.7442   -6724.6713   -4.4734007   -4169.6801    3942.3892 0.0046226948   0.29931355   0.18367411 
 5814000     530.1051   -7308.3304   -3608.0434   -440.02299   -8540.7336    1932.1341 0.0046211094   0.29930307   0.18364992 
 5816000    498.70648    -7309.435   -7116.7136     2148.658   -4262.4838    3913.1443 0.0046198864   0.29929582   0.18362569 
 5818000    489.64649   -7308.6261    -3227.048   -1233.3889   -4674.5508    5713.0043 0.0046185065   0.29926694   0.18363011 
 5820000    502.54009   -7310.7187   -7353.9069   -451.42276   -7084.9255    4034.1526 0.0046194478   0.29925265   0.18366961 
 5822000    533.77797    -7308.834    -4442.437   -3436.4886   -7260.0142    4025.0137 0.0046236749   0.29927612   0.18367183 
 5824000    530.66318   -7310.0146   -6164.7079    -1145.843   -3234.0239     2662.664 0.0046299634   0.29925384   0.18366033 
 5826000    469.95626   -7309.7691   -5238.0542    632.73109   -6232.8353    4983.9883 0.0046319108   0.29924227   0.18365274 
 5828000    485.72026   -7309.2546   -5637.2475    877.99152   -3257.9599    6002.9701 0.0046318385   0.29924452   0.18366302 
 5830000    506.98211   -7310.9208    -4595.834   -1647.8339   -5611.9947     7774.794 0.0046317748   0.29921475    0.1836706 
 5832000    491.61377   -7310.0382   -5236.4455   -1346.8106   -6431.8043    5293.5222 0.0046417736   0.29920258   0.18366213 
 5834000    501.72172   -7311.2329   -3262.7773    498.13388   -6087.6042    6204.6956 0.0046499639   0.29920374   0.18365302 
 5836000    561.66305   -7309.9028   -4892.3663    2849.7347   -4237.3495    9065.5894 0.0046510318   0.29919998   0.18367735 
 5838000    482.52473   -7309.1767   -2567.9611   -2099.7176   -5940.8972    4653.2891 0.0046510744   0.29917965   0.18367609 
 5840000    475.67937   -7308.1719   -4165.8109    584.16407    -5397.721    6268.2386 0.0046490008   0.29918421   0.18366788 
 5842000    503.91602   -7309.6994   -3384.5111    1235.4705   -8466.9383    6218.8529 0.0046474355   0.29916588   0.18366472 
 5844000    515.67842   -7310.5984   -4639.1394    181.27633    -6503.175    6091.7097 0.0046467687   0.29917376   0.18364719 
 5846000    499.92283   -7308.0222   -1844.4777   -2140.2905   -3450.0297    6244.9696 0.0046539561   0.29916206    0.1836824 
 5848000    477.00797   -7309.7053   -4511.6523    815.06141   -5856.2156    6137.8959 0.0046531397   0.29912763   0.18368976 
 5850000    495.37526   -7310.5583   -3281.7462   -608.40831    -4877.389    5232.2521  0.004655479   0.29912774   0.18368947 
 5852000    514.59964   -7309.4278   -4239.9982   -76.769914   -8161.5734    5885.8946 0.0046571691   0.29914296   0.18369294 
 5854000     503.6903   -7308.8497   -4459.0407    765.88206   -3275.0607     4189.445 0.0046573937   0.29915071   0.18369737 
 5856000    492.52079   -7310.7073   -2115.2226   -2515.8577    -8193.564    4377.3968 0.0046566174   0.29914467   0.18367666 
 5858000    492.09937   -7309.8195   -5874.8125    1532.2942    -6884.809    6123.3113 0.0046553363   0.29911284   0.18366101 
 5860000    500.19772   -7311.4116   -5677.1928   -1472.4192   -6740.4974    4982.1665  0.004655353   0.29909918    0.1836618 
 5862000    500.26952   -7308.8862   -3923.6644   -1352.5897   -6972.5122    5573.1724   0.00465566   0.29908807   0.18368841 
 5864000    508.51024   -7309.9664   -3764.6236   -636.20526   -4048.0525    3786.1575 0.0046546981   0.29908498    0.1837093 
 5866000    495.49035   -7308.7047   -1292.4736   -5121.3155   -6643.4245     5239.186 0.0046584076   0.29907055   0.18371883 
 5868000    529.48346   -7308.2132   -3227.3003   -325.50596   -5621.1294    4773.9282 0.0046686377   0.29907121   0.18371028 
 5870000    488.06257   -7311.2108   -3136.9501   -40.810154   -5331.1518    4994.5956 0.0046705643   0.29908173   0.18371541 
 5872000    501.61599   -7309.3912   -3687.7045   -369.99767   -4793.6207    4358.1971 0.0046699529   0.29905787   0.18371648 
 5874000    505.55999   -7310.1367    -3425.993   -613.98426   -6868.3942    3973.5659 0.0046695997   0.29904581    0.1837153 
 5876000    521.35182   -7308.6647    -1390.192   -1401.0196   -4807.8422     3966.999 0.0046707981   0.29902024   0.18372677 
 5878000    520.05978   -7308.6922    -3994.477    2574.1273   -4032.5414    1976.5539 0.0046709679   0.29899869   0.18374612 
 5880000    496.24427   -7309.9522   -3438.8257   -2412.1993   -5972.9596    4220.5397 0.0046739054   0.29900573    0.1837563 
 5882000    478.33481    -7309.305   -3381.2535    407.53001   -6768.7091    570.39729 0.0046746096   0.29901308   0.18376324 
 5884000    520.88239   -7309.4954   -4696.0359    657.37682   -7865.7459    1051.1488 0.0046729692   0.29901774   0.18375846 
 5886000    488.75261   -7308.5697   -2989.2856   -1412.3146   -5124.8615    4230.2213 0.0046714101   0.29899405   0.18374195 
 5888000    484.69819   -7308.0647   -5350.7824    769.66568   -734.49484    5992.0849 0.0046703835   0.29896296   0.18375577 
 5890000     491.3399   -7308.5311   -4665.9044   -2026.4437   -3682.8888    4078.8732 0.0046739145   0.29896701   0.18376361 
 5892000    544.67687   -7308.1357   -2461.0705    561.80606   -3994.1137     5593.898  0.004675498   0.29895848   0.18377895 
 5894000     473.3477   -7310.3493   -3829.3535   -1856.6648    -3678.155    5332.0063 0.0046740838   0.29893992   0.18378276 
 5896000    521.39409   -7309.8156   -1455.7203   -3197.9898   -7057.7133    5592.7926  0.004677328   0.29894412   0.18378372 
 5898000    486.95494   -7311.7167   -2491.8068    763.40504   -5942.0556    3832.6281 0.0046844482   0.29895351   0.18377458 
 5900000     480.4875   -7309.6813   -2533.8451   -2091.3942   -4139.6006    7231.1327 0.0046841463   0.29894407   0.18376861 
 5902000    519.56152   -7309.7442   -2948.4654    1079.7666   -6201.2263    5224.6174 0.0046859219   0.29891771   0.18378357 
 5904000    484.50735   -7310.1586   -1402.0958    -1708.046   -6235.0866    6221.4948 0.0046834889   0.29891013   0.18379732 
 5906000    488.35555   -7311.1747     -3893.98   -3515.4232   -6919.8806    4187.1398 0.0046902832   0.29890995   0.18380751 
 5908000    513.28728   -7309.5711   -2826.4497   -1416.7938   -3364.2262    5676.2331 0.0046889801   0.29890606   0.18379059 
 5910000    557.58842     -7310.07   -2949.9036   -896.15484   -4891.0692    4389.3274 0.0046880978    0.2988848    0.1837835 
 5912000    507.68619   -7309.6947   -3639.0742   -2061.7193    -8898.649     6398.272 0.0046903122   0.29888066   0.18378145 
 5914000    514.94557   -7309.8149   -1639.0192    -95.04433   -4485.8132    3244.8154  0.004689154   0.29890414   0.18378738 
 5916000    503.50421   -7309.0214   -3536.9612   -3140.5301   -7713.4677    6887.3732  0.004687221   0.29888184   0.18378275 
 5918000    512.11706   -7310.9933   -124.16715   -3526.3917   -5837.3877     5142.214 0.0046878846   0.29885792   0.18380482 
 5920000    469.19592   -7308.5374   -2783.2596   -1412.3948   -7100.7026     3164.002 0.0046916959   0.29885464    0.1837929 
 5922000    493.61325   -7309.1739    -3337.375   -1989.8884   -7212.5398    6967.7753 0.0046890092   0.29885629   0.18380018 
 5924000    475.38735   -7310.5662   -4530.4144   -2801.4762   -6803.0593    5844.3491  0.004693335   0.29884686   0.18379983 
 5926000    514.97274   -7308.9599   -4595.9866   -857.58535   -3097.4072    4668.2083 0.0046945306   0.29884599   0.18381647 
 5928000    505.33653   -7309.4638    -7267.739   -2989.8709    -6350.159    3402.0049  0.004693372   0.29882169   0.18381999 
 5930000    555.32999   -7309.3698   -5749.4795    -2320.743   -6507.2969    4415.7325 0.0046934909   0.29880122   0.18382288 
 5932000     503.9711   -7310.0254   -5369.1234   -578.84061   -4905.7784    1202.0804  0.004694396   0.29879098   0.18382211 
 5934000      462.139   -7308.8461    -5348.093   -3575.4553   -6406.2621    4704.1916 0.0046939686   0.29878626   0.18382759 
 5936000    497.92223   -7309.7292   -6351.8074   -64.527742    -7647.996    3281.0733 0.0047014414   0.29876032   0.18382792 
 5938000    485.54432   -7309.5257    -2658.722   -1496.0856   -6553.6988    6617.6332 0.0047008946   0.29875582   0.18385404 
 5940000    479.55927   -7309.6034   -4070.9931   -2326.1403    -10173.23    3160.4728 0.0047040824   0.29874191   0.18387175 
 5942000    507.14562   -7309.8063   -3677.0403   -1492.0468   -5720.7948    1698.4991 0.0047077528   0.29875657   0.18385516 
 5944000     505.4248    -7309.088   -3863.0608   -1036.1039   -7247.9945     9049.346 0.0047075657   0.29873274   0.18384113 
 5946000    487.67748   -7309.6181   -5316.7715   -1383.3231   -5651.8965    4940.3697 0.0047062848   0.29871581   0.18386383 
 5948000    490.53976     -7310.18   -4662.3515   -759.89767   -5734.5387    5581.9938 0.0047088178   0.29871044   0.18386315 
 5950000    500.14103    -7310.057   -4942.0251    -214.5136   -3990.3848    4443.4995 0.0047076663   0.29869412   0.18385477 
 5952000    515.90095    -7307.957   -4198.2778   -2032.6365   -6227.7241    5834.3267 0.0047082004   0.29870158    0.1838706 
 5954000    487.84872   -7309.5653   -4161.5065   -49.027944   -5754.9441     6432.021 0.0047208157   0.29870555   0.18387442 
 5956000    527.45178   -7310.3507   -2810.3207    2636.3502   -6843.9412    3539.9688 0.0047250253   0.29870883   0.18387449 
 5958000    510.30541   -7308.3634   -1020.4317   -1108.0221   -7609.9074    8078.1573  0.004721761   0.29869178   0.18385538 
 5960000    527.72554   -7310.8052   -4031.5061   -2238.8487   -7231.9471    3235.3191 0.0047208908   0.29868583      0.18388 
 5962000    458.57937   -7308.6202   -2035.5769   -2693.2502    -7814.539    4210.3599 0.0047195677   0.29866895   0.18386511 
 5964000    510.30252   -7309.3769   -1555.5635   -4336.7806   -5432.1097    2921.6353 0.0047226654   0.29866597   0.18385941 
 5966000    541.08229   -7311.7442   -4636.7733   -2310.3189    -6613.915    4769.5337 0.0047220889   0.29866122   0.18387802 
 5968000    473.40204    -7308.377   -2721.2045   -3526.8516   -3549.7998    5618.2298  0.004720969   0.29865702   0.18385526 
 5970000    484.81552   -7308.2023   -5183.4789   -3083.7604   -5282.1641    3897.9492  0.004731669   0.29863693   0.18386575 
 5972000    502.49872   -7309.8428   -4706.1715    1582.6567   -6160.7359    4411.2435 0.0047331794   0.29861706   0.18389414 
 5974000    491.16223   -7309.1363   -5882.9952    1118.3018   -6160.3483    2950.3487  0.004731882   0.29863288   0.18388986 
 5976000    507.43361   -7309.9929   -2784.5058    -2725.088   -5468.7822    2888.5759 0.0047325933   0.29861814    0.1838694 
 5978000    532.30693   -7309.2369   -4305.5289    1721.2924   -5127.1671    3307.5014 0.0047428425   0.29858713   0.18387572 
 5980000    511.30098   -7310.6957   -5461.9215    621.34998    -4868.612    1194.4763 0.0047409917   0.29859842   0.18386289 
 5982000    496.20416   -7309.9025   -4206.2912   -1464.1149   -6940.6852    3524.5896 0.0047424028   0.29861048   0.18386259 
 5984000    496.24235   -7309.5015   -2497.2421    392.53943   -5832.2613    4488.0096  0.004743645   0.29858143   0.18388667 
 5986000    465.58662   -7309.6977   -5811.9148   -333.18853   -7949.3938     2310.143 0.0047425202   0.29857684   0.18388739 
 5988000    523.05288   -7310.8072   -2837.7748   -2656.5633   -6432.4275    5111.0829 0.0047455025   0.29858908   0.18387995 
 5990000    521.62025   -7309.5497   -4041.8406   -506.37277   -4880.9838    5600.1818 0.0047469133   0.29857749   0.18389001 
 5992000    514.33038   -7309.9153   -4809.5987   -2780.3326   -8464.0224    6920.9966 0.0047461721   0.29856354   0.18389576 
 5994000    496.73901   -7309.6589   -3901.3013     12.92998   -7531.1665    3356.9401 0.0047456404   0.29855954   0.18390738 
 5996000    486.55247   -7310.2697   -6092.9788   -979.73903   -5025.9436    7856.0722 0.0047443753   0.29854772   0.18390671 
 5998000    509.32627   -7311.0845    -3261.023   -2518.7001    -5560.944    3627.0206 0.0047439856   0.29853434    0.1839045 
 6000000    507.31547   -7310.4379   -5563.5612    231.45404   -6107.0945    7700.6456 0.0047452881   0.29853709   0.18391075 
 6002000     505.8726   -7308.9825   -4962.6554   -1092.5894   -5544.1993    5652.5721  0.004745492   0.29850603   0.18392196 
 6004000    501.70271   -7308.8609   -4598.8437    346.00811   -4771.3231    4092.9283  0.004746439   0.29849791    0.1839321 
 6006000    514.65592   -7310.0908    -3427.203   -590.25738    -1719.336    5607.3132 0.0047476777   0.29849218   0.18393174 
 6008000    521.72478    -7308.872   -3831.5635   -141.73973   -5608.5071    3022.6335 0.0047467902   0.29848883    0.1839151 
 6010000      475.567   -7308.7853   -3678.2282    -25.96572    -5610.796    3972.0286 0.0047453803    0.2984743   0.18390995 
 6012000    546.93386   -7309.9188   -3737.5611   -3709.5931   -7002.8086    4423.1382 0.0047449457   0.29847763   0.18390997 
 6014000    529.21136   -7309.1855   -1472.1333   -1244.9881   -7475.2828    4763.4136 0.0047567423   0.29846883   0.18392186 
 6016000     461.5928   -7309.0661   -2273.1497   -1477.0766   -6611.4885    3267.4788 0.0047579244   0.29846766   0.18393193 
 6018000    521.03653   -7309.9118   -2504.4039   -554.00695   -5773.1268    3666.3436 0.0047587697   0.29845581   0.18394092 
 6020000    491.93603   -7310.6516   -2833.0607   -1229.1869   -6000.0788    3836.4252 0.0047571294   0.29842288   0.18392972 
 6022000    496.67724   -7309.0973   -2263.3781   -1636.4189   -5500.7161    5551.8458 0.0047560359   0.29842602    0.1839208 
 6024000    497.85881   -7309.7904   -1727.6558    497.18643   -5515.0254    2909.1454 0.0047608801   0.29842298   0.18393195 
 6026000    502.98061   -7309.6563   -3874.7097   -375.64418   -4802.1353    3790.9931 0.0047642986   0.29840644    0.1839257 
 6028000    485.68026   -7308.8378   -2991.0841   -1120.2784   -4430.7057    5994.7146  0.004762397    0.2984114   0.18392948 
 6030000    491.04167   -7309.6346   -3666.9425    1105.1733   -5825.9227    2444.8039 0.0047613079   0.29840234   0.18395109 
 6032000    489.24474   -7310.0999    -2646.498     75.45659    -6622.527    4571.1197 0.0047616337   0.29840276    0.1839597 
 6034000    479.22801   -7309.5136   -3326.6315   -4422.7992   -5931.2398    1828.2282 0.0047673821   0.29838536   0.18396852 
 6036000    461.81315   -7309.6217   -1821.2742   -623.78881   -5536.6443    4166.9655 0.0047710256   0.29837413   0.18395717 
 6038000    551.90872   -7308.7219   -2309.4583   -2432.7731   -6786.4352    1646.8363 0.0047698568   0.29838069   0.18395318 
 6040000    497.19361   -7310.7913   -4419.8761    -2622.787   -6108.5427     4808.675 0.0047737193   0.29839862   0.18394726 
 6042000    503.05073   -7309.8991   -5113.1292    1339.9754   -4679.4844    4071.4878 0.0047764526   0.29837793   0.18397869 
 6044000    460.25103   -7310.2716   -3355.7862    1060.2122   -6513.9322    4792.3498 0.0047745892   0.29833348   0.18397983 
 6046000    541.07274   -7307.6991   -5188.4959   -102.79246   -4815.2736    5104.1804 0.0047730955    0.2983325   0.18397845 
 6048000    500.64564   -7309.5672   -4642.1157   -584.22131   -6208.7739    9055.3743 0.0047740899   0.29832022   0.18398376 
 6050000    479.87329   -7308.5565    -5695.718    1321.1234   -5535.1429    5677.0626 0.0047766207   0.29831869   0.18396695 
 6052000    537.36709   -7308.7283   -6952.0657    291.45408   -7327.3612    7161.3509  0.004774551   0.29832522   0.18395441 
 6054000    476.73651   -7309.9255   -6843.7954   -1389.8275   -3961.3236    7202.1616 0.0047756507   0.29830792   0.18398799 
 6056000    506.37078   -7308.8179   -4574.1124    334.72803   -5420.1946    3307.2411 0.0047737135   0.29828848   0.18400564 
 6058000    468.52236   -7311.0294   -4974.6582   -823.96925   -8892.8731    4622.3604 0.0047803103   0.29827555   0.18401676 
 6060000    484.28545   -7309.8858   -6386.9068    115.97973   -4440.9701    3165.4776 0.0047812975   0.29828583   0.18400104 
 6062000    518.56512   -7311.0902   -5682.2743    1610.7239   -5136.2333    4340.2426 0.0047796823   0.29826805   0.18399936 
 6064000    496.50802   -7311.4217   -5510.2751    431.56367   -7385.6196    2636.6109 0.0047786709   0.29825165   0.18400784 
 6066000    505.83215   -7310.7959   -1661.2773    -502.9706   -4072.0855    598.69947 0.0047776146   0.29823766   0.18400828 
 6068000    487.55542   -7310.2225   -5243.9356   -1194.4437   -6532.9137    4026.1066 0.0047758593   0.29822716   0.18399339 
 6070000    487.72062   -7310.8488   -4622.4878   -2920.2832    -3772.207    5192.1225  0.004780567   0.29822807   0.18400242 
 6072000    490.22084   -7310.0942   -3301.1067   -450.71437   -5582.1282    3891.4343 0.0047857414   0.29820859   0.18401611 
 6074000    510.69941   -7310.2259   -5887.0712   -55.639513   -6219.7536    3530.3782 0.0047849379   0.29820172   0.18402555 
 6076000    502.76255   -7309.4208   -5401.6328    247.96466   -2642.7302     2733.106  0.004782571   0.29819507   0.18399717 
 6078000    502.80536   -7309.1291   -4499.4967   -581.97932   -7452.4521    4330.9349 0.0047817468   0.29816897   0.18398006 
 6080000     507.9225    -7309.075   -7384.7748   -1032.4155   -5546.2552    5232.2011 0.0047812229   0.29816216   0.18398413 
 6082000    529.29089   -7309.1111   -8728.1517   -180.17449    -586.3621    4273.5886 0.0047828851   0.29815716   0.18401388 
 6084000    484.14306   -7308.7834    -7075.623    274.05844   -5551.7177    2901.2892 0.0047863765   0.29813594   0.18402585 
 6086000    503.05751   -7310.8711   -4981.9453   -1368.8082   -3057.0161    3149.1401 0.0047899512   0.29813811    0.1840286 
 6088000     481.6071   -7308.3418   -3994.9036      2724.21   -5253.4055    3659.0346 0.0047893106    0.2981278   0.18401399 
 6090000    510.27498   -7311.4052   -7897.3263   -397.98192   -6451.2671    5306.2916 0.0047878259   0.29810558    0.1839953 
 6092000    504.99108   -7310.4906   -3776.2288   -304.87452    -4181.162    6627.8166  0.004785676   0.29808801   0.18400455 
 6094000    498.20656    -7309.466   -6425.6675   -994.91502   -7496.7986    5253.1741 0.0047869454   0.29807156   0.18403333 
 6096000     500.7842   -7307.4317   -1395.8095   -3351.3354   -7035.5704     4645.709  0.004787946   0.29806344   0.18405591 
 6098000    468.33674   -7310.3253    -2318.157    -2940.262   -7558.5518    4755.1584 0.0047960075   0.29808394   0.18404742 
 6100000    514.37726   -7311.5995   -4566.1159   -1925.8868   -5536.3973    4183.4394 0.0048010039   0.29806424   0.18405781 
 6102000    491.99694    -7309.523   -1730.2112   -554.49898   -4789.3432    5847.3888 0.0047997717   0.29805623   0.18404368 
 6104000    510.59585   -7308.3372   -7463.0937   -1479.7095   -5497.6655    3482.3495 0.0047985217   0.29804267   0.18405956 
 6106000     494.0892   -7310.7574   -4294.3977   -1152.6903   -6551.3531    4095.1272 0.0047969963   0.29801662   0.18405613 
 6108000    495.88673   -7309.9146   -10503.158    63.078362   -7404.9131    4323.2046 0.0047954512   0.29801393   0.18405368 
 6110000    494.65774   -7311.2696   -7868.8352   -2034.3287   -5543.6377    6720.1011 0.0047972314   0.29801147   0.18405167 
 6112000     511.3371   -7310.0042   -7433.1089   -2624.9358   -5773.6628    7358.2213 0.0048047379   0.29800027   0.18406143 
 6114000    459.77718   -7309.4053   -8548.8617   -211.13412   -7158.0725    6159.7749 0.0048082326   0.29799277   0.18408504 
 6116000    481.15519   -7308.9166   -6678.1161   -2475.4005   -4727.0925    6267.0242 0.0048084081   0.29797644   0.18407936 
 6118000    534.35894    -7310.144   -5403.7288    1190.3525   -6866.2337    4559.1051 0.0048075186   0.29796761     0.184073 
 6120000    509.33211   -7308.4277   -5688.5041   -863.93283   -6547.7864    5229.7094  0.004806107   0.29796829   0.18405961 
 6122000    499.42038   -7310.1103   -4372.0163    668.43584   -2476.2816    4856.5507 0.0048069306   0.29795086   0.18406934 
 6124000    515.52104    -7309.696    -4424.571   -1411.7032   -5266.3476    4813.7532 0.0048100845    0.2979434   0.18409247 
 6126000    472.31781   -7310.9441   -3167.0967   -418.19633   -5792.2654    3908.6959 0.0048144897   0.29794788   0.18409339 
 6128000    548.00709   -7308.8172   -3713.2089    717.15269   -4439.8703     4022.105 0.0048128065   0.29794665   0.18409047 
 6130000    504.74216   -7309.7778   -3757.6051    1348.2536     -5976.92     4917.868 0.0048114322   0.29793251   0.18408355 
 6132000    482.94953    -7308.986   -6227.4613   -2523.2515   -1528.6865    8573.7275 0.0048105306   0.29791572   0.18407791 
 6134000    496.13099   -7310.1321   -1077.8767   -913.97482   -4200.7446    5631.1417 0.0048138816   0.29789755   0.18409416 
 6136000    495.84753   -7310.7088   -5143.9711   -1269.7452   -6184.8881    5980.3321 0.0048137595   0.29788731   0.18410439 
 6138000    508.83842   -7309.5127   -2542.2038   -1579.3303   -2771.8551    8568.3608 0.0048119462   0.29788426   0.18409446 
 6140000    502.05392   -7309.7451    -5611.114   -4404.9396   -5464.9087    4053.8185 0.0048120745   0.29787474   0.18410126 
 6142000    508.26375   -7309.1135    -4263.519   -2238.6747   -7120.7701    4937.4359 0.0048161068   0.29786116   0.18409489 
 6144000    514.09618   -7307.9919   -2761.7159   -1390.7672    -4795.897    5130.5832 0.0048157969   0.29785961   0.18408543 
 6146000    507.19502   -7311.6674   -5278.5877   -3099.3765   -6110.0705    4102.3592 0.0048160858   0.29785434   0.18408292 
 6148000    486.37174   -7309.1345   -5890.8905   -439.25797   -4279.8833    4634.2041 0.0048200009   0.29785066   0.18409658 
 6150000    492.54583   -7310.0347   -5397.9143   -857.19355   -5312.3151    4670.6705 0.0048251156   0.29784216    0.1841124 
 6152000    492.79042   -7310.0551   -4563.1979   -605.13504   -3025.7641    4556.8309 0.0048231175   0.29783159   0.18409976 
 6154000    549.04144   -7306.9628    -3279.155    791.03423   -6428.4754    5493.4075 0.0048213189   0.29781426   0.18410433 
 6156000    488.86965   -7308.5622    -5678.662   -2123.4175   -4464.1591    6976.9117 0.0048231345   0.29780995   0.18410474 
 6158000    511.18533   -7310.6151   -6502.3533   -1517.9776   -3423.0059    6058.4048 0.0048240673   0.29780486   0.18410554 
 6160000    497.41682   -7308.2103   -5591.0037   -3210.1222   -7247.6752    6168.1018 0.0048254009   0.29781513   0.18410618 
 6162000    502.79702   -7310.1319   -5148.4777   -2661.1734   -2371.6268    6642.1637 0.0048287026   0.29781401   0.18412079 
 6164000    497.79357   -7311.3994   -3656.8992    -1760.841   -6775.6253    4958.2058 0.0048318677   0.29778194   0.18414728 
 6166000    512.45914   -7309.9671   -5528.3555     922.2935   -5280.4269    2796.0617 0.0048308215   0.29777834   0.18413554 
 6168000     501.2701   -7309.9989   -6892.0321   -2518.1484   -3744.3663    5386.7592 0.0048292661   0.29777426   0.18411437 
 6170000    483.50886   -7311.0261   -5073.4973   -2295.1419    -5804.214    3184.1499 0.0048301087   0.29774399   0.18411244 
 6172000    485.24335   -7308.0615   -4023.2492   -2000.0014   -4826.8386    2427.8586 0.0048315728   0.29774951   0.18413248 
 6174000    500.24393   -7309.0992   -5650.7806   -2606.5131   -6431.6559    3576.6256 0.0048346113   0.29774931   0.18412805 
 6176000    494.16726   -7310.7191   -3220.9005   -1780.4737   -5906.5824    3211.3633 0.0048362621   0.29774998   0.18413238 
 6178000    492.16113   -7309.8615   -2843.1742   -1256.4685   -3947.8528    5096.1087 0.0048373765   0.29773865   0.18414596 
 6180000    490.18565   -7309.1609   -4435.1883     1883.704   -916.43149    3420.0586  0.004841376    0.2977322   0.18415642 
 6182000    436.26633   -7306.6389   -2660.2382    2004.7521   -3076.3425    6307.8138 0.0048387926   0.29771555   0.18414864 
 6184000    482.44268   -7311.3467   -5086.4752   -1322.2543    -4109.969    4262.2427 0.0048379433   0.29771529   0.18414443 
 6186000    504.39976   -7308.7214   -809.40406    33.216201   -4838.9008      7131.97 0.0048380592   0.29770258   0.18414691 
 6188000    492.31512   -7309.3231    -3607.844   -1903.8017   -6682.4935    5266.2039 0.0048428134   0.29770399   0.18414631 
 6190000     515.3612   -7308.8043   -2464.4256   -1768.2728   -5207.0321    6953.2164 0.0048434601   0.29771125   0.18414853 
 6192000    513.23119   -7309.7087   -4798.5307    1222.5721   -4033.6568    4990.1883 0.0048422731   0.29768075   0.18415636 
 6194000    504.40776   -7309.9731   -2212.6004    222.32964   -5786.9533    2393.4336 0.0048403571   0.29765604   0.18416025 
 6196000    492.08527   -7311.4088   -3984.5909    -2158.817   -6695.7522    4604.9039 0.0048400004   0.29765496   0.18415163 
 6198000    496.13463   -7309.4366   -2750.2732   -1335.9282   -6258.4871    2298.8305 0.0048388437   0.29765412    0.1841669 
 6200000    535.93611   -7311.4077   -5318.8631   -640.97836   -7417.8706    3283.9271 0.0048423456   0.29765151    0.1841624 
 6202000    499.58291   -7308.3596   -4667.1501   -2008.2988   -4538.3358    6640.8691 0.0048515528   0.29764033   0.18417077 
 6204000    494.15346   -7309.6808   -5126.4148    2984.7093   -5136.2024    8887.1685 0.0048531718   0.29764233   0.18421016 
 6206000    476.73926   -7309.0476   -6642.2565    3308.4574   -5082.1457    3712.1902 0.0048522643   0.29763112   0.18421792 
 6208000    493.25323   -7310.0579   -4382.6079    2731.6612   -3895.0229    6520.1943 0.0048515275   0.29760824    0.1841974 
 6210000    478.85982   -7311.0084    -6153.319   -1972.4501   -4171.7011    6365.3198 0.0048521969   0.29758273   0.18418128 
 6212000    530.65921   -7310.1173   -3219.5453    -3279.729    -5431.018    7152.4395 0.0048549857   0.29757056   0.18418079 
 6214000    490.05531   -7309.4993   -2518.4222   -3224.1754   -3323.2603    6048.4648 0.0048665767   0.29757946   0.18418596 
 6216000    498.59111   -7310.8557   -4677.6062   -2787.2081    -5163.672    5076.1978 0.0048687356   0.29757755   0.18420462 
 6218000    482.74715   -7310.4103   -3646.0822    844.08676   -5753.3671    3314.3043 0.0048670647   0.29755631    0.1842106 
 6220000    483.12961   -7310.5914   -5248.2499   -3258.3048   -5018.9368     4361.563  0.004866204   0.29753611   0.18419368 
 6222000    465.51551   -7308.6098   -2952.2415   -1591.5877   -6722.8692    2837.4604 0.0048703227   0.29752597   0.18419923 
 6224000    490.01442   -7307.9243    -4121.858    -416.8356   -4898.0811    2652.5789 0.0048731032   0.29753894   0.18420471 
 6226000    482.76097   -7310.9994   -5975.7734   -2173.6018   -5906.1807    4095.9356  0.004872184    0.2975283   0.18421563 
 6228000    495.57718   -7308.5486   -1792.2651   -658.60217   -5775.1578    4139.8516  0.004871123   0.29750873   0.18421096 
 6230000    527.00071   -7309.9525   -7307.7573   -427.78133   -7321.3575    3096.1655 0.0048704559   0.29750173   0.18422489 
 6232000    487.03682   -7309.5485   -2628.6217   -1935.7829   -3794.0967    6127.3783 0.0048677817   0.29749221   0.18420813 
 6234000     529.9216   -7309.4426   -6113.1115   -2348.2246   -6740.0221    5089.7066 0.0048671646   0.29746976   0.18420295 
 6236000    484.23021   -7309.4344   -3910.0775   -4048.6374     -8186.37    6199.2878 0.0048753395   0.29746836   0.18420754 
 6238000    481.32765   -7310.6201   -7102.0309   -1101.4914   -8023.2229    3826.8541 0.0048806612   0.29745647   0.18422596 
 6240000    482.35406   -7308.4905   -3323.8474   -1973.9722   -6880.8845    5912.9932 0.0048801238   0.29744523   0.18422325 
 6242000    512.97904   -7308.0539   -1739.8891   -1972.8419   -7567.6467     4042.521 0.0048803258   0.29743606   0.18423938 
 6244000    521.36741    -7310.523   -4323.0271   -2573.4278   -6100.6828    3726.2077 0.0048836343   0.29741804   0.18425558 
 6246000    525.80292   -7308.7149    -5591.338     -2457.05   -7334.2158    2616.0993  0.004882869   0.29740944   0.18426815 
 6248000    470.16551   -7308.3758   -4403.9177   -408.10673   -6134.1661    5174.2844 0.0048822239    0.2974108    0.1842616 
 6250000     512.8705   -7310.3308   -6756.1794   -319.43109    -8220.753    1661.3226 0.0048812632   0.29739261   0.18425439 
 6252000    498.44386   -7307.7434   -4646.3423    915.89298   -6215.7888    5524.1863 0.0048803023   0.29739099    0.1842452 
 6254000    495.89587   -7311.4415   -6864.7777   -1761.2781   -7561.6895    5985.9064 0.0048800339   0.29737795   0.18426462 
 6256000    488.67784   -7307.3194   -4713.8489    1519.8513   -3516.9773    3411.2602 0.0048822442   0.29737578   0.18427506 
 6258000    478.16935   -7307.8304   -5656.9847    521.05919   -4385.3244    6764.8781 0.0048816251   0.29736048   0.18428037 
 6260000    504.96804    -7309.119   -2060.1381    2372.3439   -3659.1425    3894.5556 0.0048834449   0.29735668   0.18428451 
 6262000    528.42741   -7308.4373   -4132.6871    711.93991   -5086.1146     4610.587 0.0048813509   0.29734523    0.1842667 
 6264000    484.45974   -7309.8251   -4659.4012   -1033.7409   -5361.8628    3810.8269 0.0048821942    0.2973404   0.18425629 
 6266000    488.41198   -7308.0699   -4690.6079    1631.2446   -4338.0995    7690.7033  0.004881442   0.29733269   0.18425821 
 6268000    552.44943   -7310.6521   -2540.6419    -2559.826   -5451.2913    4683.2657 0.0048830945   0.29731855   0.18430009 
 6270000    500.05644   -7309.8923   -4762.6583   -2289.5974   -5380.5521    5833.5271 0.0048843663    0.2973137   0.18430036 
 6272000    456.28291   -7309.7688    -3160.634   -1029.5393   -5002.2001    4129.7306 0.0048846566    0.2973242   0.18429336 
 6274000     484.5076   -7310.5491   -4234.3511   -2755.6813   -3760.2116    4904.9806 0.0048847448   0.29731266    0.1842708 
 6276000    494.45876   -7308.8799   -4155.6786   -580.02135   -264.71106    4772.6352 0.0048848746   0.29729273    0.1842781 
 6278000    514.34912   -7309.8567   -3746.3348    208.51333   -7361.1264    6102.9947 0.0048832669   0.29726684   0.18428551 
 6280000    490.27646   -7309.4064   -4122.5319    1529.4595   -2650.2633    3853.2598 0.0048827124   0.29725929   0.18429802 
 6282000     498.3697   -7307.9738   -4763.8336   -1109.7054   -5168.5964     5697.249 0.0048880118   0.29723667   0.18430904 
 6284000    549.81948   -7309.7997   -3193.1092   -455.03614   -6232.1704    3185.9295  0.004887244    0.2972452   0.18431212 
 6286000    483.08677   -7308.6836   -5303.5444   -81.079704   -7717.0222    5920.1511 0.0048896372   0.29725619   0.18432176 
 6288000    478.56133    -7309.758   -2305.2882     1787.106   -4724.8788    2086.6271 0.0048886371   0.29722985   0.18431751 
 6290000    522.01187   -7310.1228   -1231.2701     1163.423   -4741.7638    4500.0785 0.0048869733   0.29720732   0.18430973 
 6292000    531.24437   -7312.0639   -2998.6297    370.96808   -7311.8386    5132.1475  0.004885467   0.29721147   0.18430825 
 6294000    482.78327   -7310.1503   -935.96688   -3003.3279   -8137.8486    6923.4095 0.0048847141   0.29720127   0.18431041 
 6296000    498.21485   -7310.5758   -4683.3837   -2972.4718   -7267.9215    7562.8415 0.0048910064   0.29719982    0.1843265 
 6298000    497.19454   -7311.1743   -1977.7924   -1802.4328   -6290.5663    4366.7106 0.0049013578   0.29719413   0.18433604 
 6300000    500.36484   -7309.0982   -3914.2229   -272.97633    -5267.237    6050.2311 0.0049021374   0.29719736   0.18434586 
 6302000    518.04444   -7310.2079   -4364.5636   -3198.8778   -7257.8503    5924.9949 0.0049011929    0.2971746   0.18434851 
 6304000    499.06485   -7309.9227   -3740.5429    1043.3115   -6211.3948    5291.4092 0.0049027361    0.2971636   0.18434004 
 6306000     510.3185   -7309.4257   -5085.2804   -1408.4014   -6854.2653    3151.1584 0.0049008466   0.29715298   0.18433904 
 6308000    513.73946   -7309.1117   -4179.3844   -1933.9128   -4430.6537    3538.0237 0.0048993961   0.29714612   0.18433865 
 6310000    522.15714   -7310.7635   -3434.1211   -2404.6019   -9578.0113    4796.7614 0.0049095081   0.29714619   0.18434346 
 6312000    485.82533   -7310.6009   -5652.8372   -611.23315   -7986.4723    6149.7874 0.0049166308   0.29714377   0.18435785 
 6314000    516.78982   -7309.3905   -6284.0627   -271.66687   -7258.5781    4967.4427 0.0049134263   0.29713475   0.18435846 
 6316000    513.51723   -7310.2714   -6095.5352   -1918.5765   -5298.9308    5823.6305 0.0049128269   0.29711635    0.1843528 
 6318000    536.77701   -7309.4328   -3936.1077   -1151.1623   -5896.1293    6527.3038 0.0049145063   0.29711421    0.1843656 
 6320000    526.50764   -7309.4639   -2650.4488    66.200843   -6453.1524    6924.9847 0.0049189594   0.29710234   0.18437245 
 6322000    478.86632   -7311.0021   -2784.9261   -1826.8301   -2810.5908    4280.0204 0.0049196651   0.29711609   0.18438082 
 6324000    472.63606   -7307.3269    -4689.737    2822.9541   -5162.9283    7693.1304 0.0049196641   0.29709518   0.18437611 
 6326000    490.52248    -7310.733     -4193.79    363.81745   -4428.1526    646.23114 0.0049181198   0.29707667   0.18438157 
 6328000     510.6541   -7308.7551   -751.47509   -1343.0204   -7549.3071    5272.0324 0.0049171097   0.29705518    0.1843912 
 6330000    469.46593   -7310.5428   -6080.7052      998.845   -8013.7319    1073.1433 0.0049181652   0.29705584   0.18440806 
 6332000    511.32564   -7309.1621   -2961.5675   -3176.0196   -5434.5251    3810.7478 0.0049188101   0.29707734   0.18439494 
 6334000    477.59818   -7307.5785   -5601.7644   -1235.5243   -6643.2884     2572.887 0.0049234598   0.29706624   0.18440026 
 6336000    515.53424   -7310.7803   -2980.3742    1783.1511   -6562.2425    4446.2534 0.0049275715   0.29704496    0.1844189 
 6338000     519.7779    -7308.596   -5429.5775   -2207.0536   -4647.0986    2824.6851 0.0049254316   0.29704199    0.1844208 
 6340000    501.99547   -7310.1304   -3810.3652    -1006.445   -5004.7478    4649.0367 0.0049241756   0.29704594   0.18441463 
 6342000    487.18469   -7308.8254   -3395.4805   -3041.7558   -6896.6739    6831.3003 0.0049265479    0.2970283    0.1844253 
 6344000    455.50535   -7310.3864    -3135.187    -2263.236   -6947.8283    3276.1016 0.0049343524   0.29703391   0.18442299 
 6346000    512.96052   -7309.8382   -2430.2714   -197.93739   -7520.4864    4320.8624 0.0049357151   0.29704367   0.18442334 
 6348000     527.8666   -7311.8324   -1498.1839    755.68672   -8328.8821    2934.1866 0.0049350007   0.29704131   0.18441312 
 6350000     515.6863   -7309.5917   -2971.2207    31.234975   -4873.5379    6533.8334 0.0049331839   0.29702153   0.18441219 
 6352000    528.18611   -7307.9402   -1865.5839    1159.6271   -10171.243    5188.1033 0.0049357462   0.29699666   0.18443579 
 6354000    481.37301   -7308.6096   -1686.4479   -361.13386   -8580.1231    4138.7405 0.0049358206   0.29701342    0.1844454 
 6356000    494.46671   -7310.4547   -2789.7407    1014.7352   -4194.7273    5367.4945 0.0049350097   0.29702414    0.1844396 
 6358000    504.41949   -7309.8142   -2917.1694    390.67019   -3876.9668    4150.9237 0.0049382146    0.2970039   0.18442524 
 6360000    516.62577   -7310.5003   -6021.3637     1222.807   -4836.9119    7458.8527 0.0049414644   0.29699692   0.18442263 
 6362000     508.0037   -7310.9717    -4879.643    1431.8605   -5454.5581    4683.9286  0.004939488   0.29699977   0.18443706 
 6364000     555.8856   -7310.2022   -2260.1272    495.49656   -5259.6845    7522.5377 0.0049384201   0.29699649   0.18443421 
 6366000    481.31208   -7309.5979   -2573.6328    1052.5975   -4071.4319    5724.9248 0.0049434376   0.29696589   0.18444066 
 6368000    501.94805   -7309.1153   -4490.1814   -2954.1335   -6480.7615    3987.7062 0.0049402931   0.29696088   0.18444095 
 6370000    500.01314   -7310.0147   -2113.4591    213.97789   -5697.0928    5486.3713 0.0049423624   0.29696298   0.18443511 
 6372000    525.27054    -7309.998   -3873.4712    503.32371   -5450.4406    5931.8131 0.0049435267    0.2969706   0.18443743 
 6374000    503.22561   -7309.8067   -1092.1687    101.78383   -5550.1142    4215.9928 0.0049428525   0.29695361   0.18444085 
 6376000    471.98813   -7310.4744   -3916.1641   -1607.5475   -3997.1776    4717.6598 0.0049445568   0.29693596   0.18444623 
 6378000    476.06898   -7309.0505   -3121.0744   -313.97027   -3555.0624    4656.5033 0.0049473693   0.29692565   0.18445811 
 6380000    484.96773   -7310.0847   -3681.6034    1362.9996   -4987.7913    3665.1601 0.0049458384   0.29691467   0.18446892 
 6382000    501.72785   -7307.1507    -2937.503   -321.75492   -4938.0305    2110.8926 0.0049456166   0.29691829   0.18446313 
 6384000    500.70697   -7309.9511     -1551.21   -2219.4492   -3728.2524    5708.2931 0.0049479342   0.29690577   0.18445233 
 6386000    463.81604   -7308.2614   -4470.0971    1841.3958    -5778.576    5569.3775 0.0049494401   0.29689255   0.18445529 
 6388000    506.06359   -7309.5262   -3278.1957    953.81782   -4215.1275     2893.435 0.0049479748   0.29690327   0.18447141 
 6390000    486.46912   -7308.5608   -2990.4516   -3205.3629   -3812.2971    6682.3938 0.0049467909   0.29687288   0.18447171 
 6392000    514.11881   -7309.7843   -4954.8608   -1364.6076    -6885.307    5176.5815 0.0049464492   0.29687984   0.18447243 
 6394000     495.8077   -7310.1614    -2571.682    -2128.461    -6146.644    3601.4144 0.0049494345   0.29688088   0.18447638 
 6396000    498.00565   -7310.1763   -3559.3943   -3473.7552   -5582.7467    5488.6489 0.0049500743   0.29687682   0.18447175 
 6398000    525.22826   -7306.4838   -3661.6505    2030.0582   -5380.7837    5500.7134  0.004950263   0.29685613   0.18448575 
 6400000    520.45736   -7309.2327   -1290.1791    614.93733   -4583.0323    2651.9236 0.0049484623   0.29685562   0.18447685 
 6402000    493.15496   -7309.8709   -3690.0723    952.69326   -6928.2362    3422.8809 0.0049487568   0.29683403   0.18448027 
 6404000    464.17126   -7311.1257   -1093.9014   -1826.4208   -5264.0338    4663.3771 0.0049513317   0.29683308   0.18449427 
 6406000    492.78341   -7309.5947   -4980.1266    1168.9998    -6339.374    3332.1274   0.00495069   0.29683502    0.1844974 
 6408000    455.21096   -7308.3807   -2088.8759   -644.19052   -5535.5704    5300.6944 0.0049498297   0.29680698   0.18447965 
 6410000    489.43686    -7309.007   -4851.4155    1677.6787   -6547.3808    2064.6529 0.0049493251   0.29678691   0.18447555 
 6412000    529.94611   -7308.2276   -6639.2406   -1147.5908   -6992.6491    6550.6822 0.0049475989   0.29678216   0.18446532 
 6414000     483.2262     -7310.53   -5234.8548   -4434.3526   -4520.3025    5760.6135  0.004946963   0.29678159   0.18447583 
 6416000    465.84621   -7309.9323   -5195.9123   -3807.3249   -6057.7621    4329.3669 0.0049514797   0.29677337   0.18448956 
 6418000    514.53185   -7309.3948   -4727.9188    -1001.466   -6455.5964    5649.4675 0.0049575232   0.29675127   0.18449386 
 6420000    505.43889   -7311.0345   -4696.4585   -254.67301   -4314.7417    2980.3565 0.0049587689   0.29676738   0.18448476 
 6422000    504.63754   -7308.4152   -8167.7699   -2826.3456    -6048.334    5474.8033 0.0049574046   0.29675533   0.18448496 
 6424000    499.84341    -7310.443   -6404.8601    1424.3899   -6070.3252    4492.1597 0.0049585124    0.2967158   0.18447644 
 6426000    482.48768   -7308.2376   -8203.1121   -2100.7695   -9910.7467     4903.838  0.004958045    0.2967181   0.18447775 
 6428000    488.04767   -7308.4701   -5103.8221    3034.0888   -5642.2306    4936.0892  0.004958052   0.29672237   0.18448909 
 6430000    518.77685   -7309.3824   -6857.9843   -2031.2809   -7845.9602    5944.3689 0.0049581438   0.29671431   0.18450335 
 6432000    494.79165   -7310.2203    -6974.185   -2112.3907   -4905.0885    5261.3089 0.0049657019     0.296714   0.18450941 
 6434000    491.21331   -7310.0342   -6591.0372    1524.7957    -4967.842    5387.5967 0.0049655663   0.29667945   0.18449388 
 6436000    467.01604   -7311.3647   -3558.2415   -676.60387   -5183.3275    4597.7552 0.0049644098   0.29668942    0.1844782 
 6438000    536.38112   -7308.5123    -3934.938   -436.52166   -4907.3642    3750.9436 0.0049640118   0.29667361   0.18448494 
 6440000    487.66029   -7309.9344   -5270.2517   -1758.6453   -5300.3079    6096.9903 0.0049687001   0.29666277   0.18449618 
 6442000    518.86709   -7307.9126   -4788.7849   -3034.4833    -4944.295    3715.5728 0.0049677114   0.29665713   0.18449656 
 6444000    491.14996   -7309.8429   -4259.8573   -1117.2487   -7240.6935    7033.9634 0.0049681203   0.29666328   0.18449564 
 6446000    530.18687   -7310.6294   -4055.2292   -2599.4654   -7524.0205    3445.3223 0.0049727856     0.296646   0.18449186 
 6448000    497.62813   -7310.5899   -4444.4339   -204.88083   -4889.9888    5797.9284 0.0049707754   0.29665338    0.1845008 
 6450000    480.77686   -7309.3024   -4747.6391   -1519.0147   -6987.9726   -16.535519 0.0049691843    0.2966371   0.18450593 
 6452000    533.77998   -7310.0713   -1729.1597    -3515.586   -6807.2976    4161.3561 0.0049679604   0.29661432   0.18450159 
 6454000    494.15763    -7308.689   -2558.6624     -1317.85   -7741.4582    2851.7157 0.0049695111   0.29660031   0.18450219 
 6456000    502.36676   -7309.2788   -2337.7729   -917.59661   -5591.1483    4547.9383 0.0049691176     0.296591   0.18450485 
 6458000    516.44855   -7308.2092   -2869.6692   -593.31071   -6119.6594     2541.353 0.0049692152     0.296609   0.18451378 
 6460000    493.07357   -7309.4293   -3600.5173    475.33547   -7300.3037    6315.5463 0.0049739162   0.29659266   0.18450381 
 6462000    482.17848   -7310.6329    -4859.785    1140.9136   -6967.3157     1355.365 0.0049754113   0.29658832   0.18453082 
 6464000    494.13075   -7308.9405   -2536.0247    2693.2992   -7483.0686    2642.0831 0.0049735935   0.29657551   0.18450632 
 6466000    517.53347    -7309.524   -4070.1787   -1339.7728   -6302.3901    2928.2614 0.0049724737   0.29656273   0.18449695 
 6468000    515.00741   -7309.5246   -6231.8287   -1374.1484   -4245.4749    2108.7625 0.0049744255   0.29655748    0.1845029 
 6470000    534.63692   -7310.5959    -5815.877    1796.5844    -4400.501    6020.4608 0.0049765482   0.29655983   0.18452418 
 6472000    498.24503   -7310.2187   -7999.3901   -1304.2354   -6791.4006    2898.4215 0.0049754161   0.29655893   0.18453908 
 6474000    469.51066   -7309.2232   -8365.2748   -2152.2101   -3738.0319    3076.5131 0.0049745464   0.29655065   0.18453233 
 6476000    505.25884    -7309.236   -7245.4487    -99.40426   -6686.9982    4056.7268 0.0049763313   0.29651878    0.1845188 
 6478000     507.9907   -7307.2374   -9816.5514   -2172.8894   -7188.4831    4701.0621 0.0049752892   0.29652918   0.18451568 
 6480000    492.16498   -7310.5585   -7471.5868    1032.5486   -7758.9606    4334.0945  0.004976422   0.29653168   0.18452383 
 6482000    506.74342   -7310.0274    -6319.547   -1952.1758    -4166.033    5051.8543 0.0049815808   0.29652079    0.1845371 
 6484000    479.57388   -7308.5646   -5950.0808   -302.85153   -6003.1405    2179.9598 0.0049823519   0.29649477   0.18454272 
 6486000    485.56507   -7311.0138   -3938.9154    1748.4015   -7311.5288    4065.8213 0.0049810612   0.29648475   0.18453977 
 6488000    521.18925   -7308.0357   -5787.4511   -399.96397    -4027.094    3541.9968 0.0049795785   0.29650287   0.18452261 
 6490000    484.78071   -7309.6966   -4939.0028   -118.26368   -5406.2541    5021.2394 0.0049794296   0.29647966   0.18452104 
 6492000    496.27539   -7310.3111   -6833.6166   -18.361623    -3577.926    3183.9977 0.0049798842   0.29646569   0.18454487 
 6494000    472.68876   -7310.5281   -2798.9089    -3891.952   -4183.8687    5796.9321 0.0049806478   0.29646172   0.18454972 
 6496000    475.34872   -7311.4851   -3343.9674    90.810609   -6043.3073    4353.3545 0.0049833404   0.29645061    0.1845409 
 6498000    503.81654   -7307.3478   -2269.5946   -579.12844   -2920.4628    4992.7382 0.0049843292   0.29643357   0.18453756 
 6500000    518.78422   -7308.7154   -2350.8521    615.41068   -5640.1786    7091.6799  0.004982355   0.29641582     0.184535 
 6502000    490.15448     -7307.42    -1246.222   -140.96927   -7702.6587    6676.5531 0.0049821965   0.29640275   0.18455734 
 6504000     503.6733   -7309.2552   -2841.7972    361.11066   -8085.8191    7017.0605 0.0049805677   0.29639884   0.18455969 
 6506000       486.04   -7311.0256   -2283.7741     277.3516   -7987.7691    4372.9456 0.0049808775   0.29639698   0.18454451 
 6508000     508.5934   -7310.7465    -2216.799    2598.3832   -9158.0858    4864.7424 0.0049833189   0.29639026   0.18452082 
 6510000    514.72173   -7308.1392   -1533.3806    792.45979   -6769.7457    9899.4394 0.0049837983   0.29638192   0.18455086 
 6512000    500.36863   -7307.0096   -1635.3671     2375.448   -5221.5064    4811.7598 0.0049865715   0.29637609   0.18456745 
 6514000    476.68184   -7310.7152   -1694.3188   -2309.1709    -3515.805    7053.3283 0.0049866422    0.2963698   0.18456325 
 6516000    525.32311   -7307.9619   -4087.6253   -1279.9166   -2742.6261    3960.4633 0.0049851392   0.29636029   0.18455745 
 6518000    511.66221    -7310.723   -2978.4532   -878.40217   -4007.5127    3576.6697 0.0049855064   0.29637363   0.18455558 
 6520000    486.11146   -7310.7994   -2299.9844     649.4967   -4851.4509    4977.0089 0.0049847079   0.29634781   0.18455692 
 6522000    473.63003   -7309.3481   -6779.0668   -1909.0383   -5093.6428    6839.4757 0.0049830986   0.29631949   0.18455124 
 6524000    509.83813   -7311.6927   -4866.9992    518.49986   -10097.853    7495.5051 0.0049828226   0.29631239   0.18456055 
 6526000     526.1837      -7309.3   -4964.9792   -2543.1435   -6619.8497    8065.8601 0.0049987354   0.29632301   0.18458584 
 6528000    540.99097   -7311.4399   -3796.7618    1505.5833   -6638.5252     3971.169 0.0050000033    0.2963442   0.18457376 
 6530000    472.54404   -7311.6359   -3310.5196   -2987.6382   -8012.8113    7249.3667 0.0049987428   0.29631664   0.18456855 
 6532000    474.58107   -7309.7213   -5443.1342    401.97447   -5892.3669    7456.6695 0.0050030638    0.2963027   0.18457478 
 6534000     509.7324   -7311.5257   -2916.7389    1648.7927   -5548.3414    5245.6453 0.0050045944   0.29630404   0.18458075 
 6536000    484.29472   -7308.4945   -2661.7931    2970.6309   -5338.4006    8439.5432 0.0050037583   0.29630327   0.18458152 
 6538000     496.4623   -7309.8393   -1057.8561   -1825.0814   -6627.3389    6077.5481 0.0050029556   0.29628345   0.18457878 
 6540000    523.27405   -7310.3375   -4406.0097   -1649.2473   -6522.2844    4634.7286 0.0050088564   0.29627085   0.18458441 
 6542000    487.60251    -7310.474   -2861.3614   -661.35275   -5659.8681    3485.4168 0.0050193694   0.29626809   0.18458513 
 6544000    482.28825   -7309.5863   -2696.5798   -710.25619   -3759.5584    1830.8679 0.0050190936   0.29628178   0.18457761 
 6546000    496.73463   -7310.5997   -3258.8412    1575.0625   -6078.4596    2023.2615 0.0050176322   0.29626628   0.18458265 
 6548000    479.93235   -7311.3851   -1413.4275   -3042.3832   -4644.9598    6343.3207 0.0050161604   0.29625844   0.18457951 
 6550000    494.77685   -7309.7865   -3331.2658   -3093.1567    -2686.405    874.32942 0.0050195499   0.29625582   0.18459987 
 6552000    512.46451   -7310.1424   -1275.4294   -461.11466   -6140.5409    5846.2247 0.0050243722   0.29624717   0.18459323 
 6554000    504.89014   -7310.1561   -2367.1038   -1279.1878   -3509.9085    2098.8522 0.0050242838   0.29622412   0.18458085 
 6556000    513.35618   -7310.5168    -1643.811   -1460.9095   -3539.0835    5455.8314 0.0050224979   0.29622552   0.18459541 
 6558000    495.91684   -7309.1062   -5137.8957     168.0227   -6097.4128    4699.7122 0.0050221887   0.29622978   0.18459852 
 6560000    535.73315   -7309.5303   -1381.0702     1429.567    -1727.634    5952.9099 0.0050206541   0.29622242   0.18460137 
 6562000    459.07403   -7311.1427    875.68709   -1206.2667   -4650.9802    4944.8736 0.0050192504   0.29619094   0.18459781 
 6564000    493.08714   -7310.1655   -239.77588   -391.87471   -4548.6655    3988.9725 0.0050252512   0.29617806   0.18459998 
 6566000    495.89399   -7309.8608   -2223.3867    -2071.999    -4682.139    4166.0921 0.0050272085   0.29619282    0.1846153 
 6568000    470.61709    -7308.667    -925.5128    2437.0375    -4455.989    3785.4453 0.0050256972   0.29618589   0.18462228 
 6570000    495.73258   -7310.0207   -1734.9917     -3067.42   -8281.9998    7601.7945 0.0050271978   0.29616386   0.18464116 
 6572000    509.13102   -7310.0011   -4299.9457    842.37264   -5242.1262    3657.2861 0.0050278575   0.29616709   0.18463489 
 6574000    503.21217   -7310.0407   -1089.8455   -74.714614   -5770.1821    5295.0795 0.0050265505   0.29615359    0.1846367 
 6576000    526.56401   -7311.0202    -2570.732   -559.10023   -5327.6614    7485.8479 0.0050257174   0.29614492   0.18463056 
 6578000     498.2625   -7311.6952   -2438.1294   -319.55301   -4646.1587    7108.9171 0.0050249699   0.29612915   0.18463026 
 6580000    487.36423   -7307.1642    347.99688   -2207.0304   -5083.3949    8232.8679 0.0050270989   0.29612462   0.18464396 
 6582000    508.71891    -7309.324   -2756.7946   -900.24318   -5694.8028    6787.5333 0.0050258961   0.29610228   0.18465014 
 6584000    523.22526   -7310.1285   -3356.3916    269.92338   -5968.1355    7257.4088 0.0050265589   0.29608774   0.18463478 
 6586000     475.4538   -7310.1264   -2289.3614     1332.069   -6456.2817    7278.8854 0.0050314382   0.29608392   0.18463695 
 6588000    446.84681   -7310.2166   -2492.4257   -2424.7665   -7769.4062    7505.5759 0.0050377656   0.29609285   0.18465194 
 6590000    521.96865   -7308.8486   -3821.1095    1677.0458   -5933.9288    5232.8826 0.0050395019   0.29608872   0.18465211 
 6592000    517.69437   -7308.7036   -3257.0871   -1833.9808   -7115.5113    5481.5304 0.0050376099   0.29605949   0.18463908 
 6594000    489.77257   -7309.0178   -4144.5471    1298.2874   -6941.3445    4718.8198 0.0050360844   0.29604173   0.18463772 
 6596000    478.29776   -7308.8588   -3819.6911   -117.99994   -3141.7172    4538.8876 0.0050347022   0.29605253   0.18464811 
 6598000    451.96602   -7311.4359   -4437.4974   -255.61342   -4473.8856     7675.359 0.0050340631   0.29603717   0.18464668 
 6600000    466.50515   -7308.6855    -3598.898    466.59324   -3820.7292    6655.3999 0.0050383888   0.29602727   0.18464215 
 6602000    483.22132   -7309.2895     -3494.17   -3047.7326   -5350.1419    6695.0218 0.0050463511   0.29601604   0.18463248 
 6604000    467.63461   -7308.2514   -3715.7002    60.815992   -5451.1317     8878.702 0.0050483286    0.2960402   0.18465183 
 6606000    488.02103   -7309.3654   -334.82167    712.57553   -4873.2262    5642.5053 0.0050476513   0.29603148   0.18466563 
 6608000    489.95975   -7310.0871   -3104.8132   -1540.3581   -3252.4371     2944.299 0.0050459659   0.29600512   0.18465481 
 6610000    506.50192   -7310.8864   -666.65884    -1738.535   -2776.5454    6633.4284 0.0050463522   0.29599475   0.18465239 
 6612000    513.73189    -7310.949   -4575.2918   -315.98339   -5425.1391    4824.1706 0.0050502611   0.29597821   0.18466911 
 6614000    468.65908   -7307.9561   -2636.3909   -2198.0022   -7474.4612    6078.4873  0.005051162   0.29598531   0.18467059 
 6616000    501.68964   -7310.3742   -3270.7045    2.2310226   -4541.2826    4089.9482 0.0050495484   0.29598627     0.184669 
 6618000    517.98894   -7309.8243   -3422.1177    1647.3428   -6769.6909    4519.7772 0.0050482524    0.2959742     0.184672 
 6620000    465.61821   -7310.3709   -3873.3419   -2298.2501   -7158.9897    5858.1221 0.0050462173   0.29596467   0.18466248 
 6622000    489.42914   -7309.6295   -4506.2876   -287.78999   -5557.3709    6192.0366 0.0050461509   0.29593337   0.18468354 
 6624000    489.99112   -7308.9694   -3403.6129   -123.97456   -6079.8944    4738.8334 0.0050458067   0.29592252   0.18468918 
 6626000    543.93668    -7311.366   -1410.6014   -928.67648   -3929.6768    5873.4886 0.0050520513   0.29591913   0.18468027 
 6628000    487.66773   -7311.1797    271.50571    -2580.941   -5478.1948    3601.7314 0.0050575148   0.29593213   0.18468295 
 6630000    478.17922   -7309.2662   -1807.6082   -99.764084    -5861.597    6581.0411 0.0050607715   0.29594047   0.18468611 
 6632000    531.28624   -7311.0858    -3296.523    716.07926   -4248.8365    7271.2847 0.0050595534   0.29592366   0.18470804 
 6634000    515.91686   -7310.9971   -1930.7769   -1035.2244   -6073.8043     5330.727 0.0050579128   0.29589861   0.18470892 
 6636000    498.42748   -7309.6078   -1207.5333   -52.429021   -5442.3936     6950.431 0.0050594964   0.29591358   0.18472188 
 6638000    523.48557   -7310.3671   -1653.9355    772.91622   -6079.3129    3035.4951 0.0050582644   0.29591068   0.18470779 
 6640000    469.90133   -7309.2289   -708.99339   -956.91997   -5425.6914    3697.9359 0.0050571889    0.2959026   0.18470488 
 6642000    512.87156   -7309.4667   -2955.2457   -2561.2855   -6729.9559    2194.8951 0.0050595158   0.29587504   0.18470655 
 6644000    508.82073   -7309.7007   -3744.6683   -1235.1292   -7305.6301    5548.1729 0.0050640786   0.29587316   0.18471855 
 6646000    471.68418   -7308.6005    -4402.131   -194.70235   -3996.0799    2372.0075 0.0050629793   0.29588884   0.18473053 
 6648000    520.34811   -7308.9327   -4317.9992   -576.82776   -3679.2529    3710.0581 0.0050614786   0.29586223   0.18471589 
 6650000    483.65901   -7309.2128   -3094.8475   -1689.8703   -6907.0379    6013.1686 0.0050618596   0.29584419   0.18471944 
 6652000    507.42684   -7310.4751   -4736.2469   -1705.2708   -3729.1229     6681.545 0.0050754563   0.29586072   0.18471837 
 6654000    508.15029   -7309.8287   -1951.4657   -551.88039   -5250.5331     6730.182 0.0050782606   0.29585254   0.18472968 
 6656000    530.70546   -7309.4598   -5609.5798    3143.1644    -3100.394    6588.2069 0.0050765342   0.29583779   0.18471822 
 6658000    492.86525   -7309.4036   -4046.7157   -2269.0165   -5149.9419    7269.2749 0.0050756316   0.29583155   0.18473449 
 6660000    473.63703   -7309.1379   -3131.3814   -1191.3806   -5021.8975     6979.383 0.0050784441   0.29582334   0.18473888 
 6662000    490.99952   -7309.9905   -6319.8837    1047.3151   -1341.0879    3289.4323 0.0050768688   0.29581732   0.18474229 
 6664000    496.79899    -7311.492   -2106.6992   -145.24233   -8947.6882    6253.1005 0.0050758957   0.29579896   0.18473336 
 6666000    511.61657   -7307.4878    -6115.345   -1568.8532   -5559.7341    5180.3951 0.0050807585    0.2958137   0.18473397 
 6668000    476.23088   -7310.8341     -3410.45    426.36464   -6230.3244    8833.6888 0.0050812191   0.29579542   0.18472929 
 6670000    495.43161   -7308.0768   -5934.8958    2179.8093   -5222.1105    7460.3188 0.0050801277   0.29577472    0.1847318 
 6672000    513.29796   -7309.2318   -3314.6087    1035.6164   -5644.8287    4843.4144 0.0050798107     0.295776   0.18475728 
 6674000    547.55646   -7310.3075   -3769.5908   -1738.1495   -6671.7863    7814.2634 0.0050862814   0.29578191   0.18475234 
 6676000    516.84749   -7309.8546   -1821.7061    1329.4225   -1925.2762    6699.7979 0.0050880197   0.29579761   0.18476313 
 6678000    488.23116   -7312.4934   -3749.0686    1418.7668    -4531.394    4718.3449 0.0050865536   0.29576266   0.18475501 
 6680000    472.81542   -7309.6564   -3386.4351    814.81836   -5131.6761    7360.9196 0.0050853658     0.295747   0.18474617 
 6682000    464.23866   -7309.0032   -2382.9858   -905.32991   -6835.8108    7028.5554 0.0050846542   0.29574465   0.18474937 
 6684000     539.6515   -7309.9923   -1768.0778    -402.6842   -5160.8373    4059.9893 0.0050844042   0.29574181   0.18476217 
 6686000    510.93253   -7310.5141   -2077.8511    -2201.119   -5948.2082    4914.8819 0.0050856236   0.29574262   0.18476806 
 6688000     510.2005   -7310.6119   -1372.7714   -2135.5545   -4218.7068    6352.7044 0.0050951475   0.29574228   0.18475613 
 6690000    493.24529   -7308.6665   -2536.7181   -1064.1586   -4790.5962    7880.7945 0.0050977874   0.29573116   0.18476204 
 6692000    524.73903   -7311.1841    -4342.194    1890.5035   -5775.8487    2208.4636 0.0050974017   0.29572195   0.18475254 
 6694000    491.61558   -7309.7391   -4072.2475     1584.648   -5965.1162    5584.5811 0.0050957513   0.29570804    0.1847393 
 6696000    470.75266    -7309.983   -5140.3899   -1647.6399   -5721.1654     5913.388 0.0050943439   0.29570149   0.18476212 
 6698000    518.73588    -7310.155    -5924.389    11.992825   -4566.5784    3322.9275 0.0050978607   0.29570479   0.18476831 
 6700000    502.61737   -7309.9038   -4685.4013   -1910.3867   -7329.9283    4755.8563  0.005105648   0.29568224   0.18476563 
 6702000    518.93754   -7308.7501   -5384.3874      3462.73   -6575.1342    6006.5638 0.0051067342   0.29567827   0.18475164 
 6704000     468.4814   -7310.8289   -3053.0621   -1248.9647   -6836.7555    4976.8194 0.0051049893   0.29568264   0.18475317 
 6706000    460.20299    -7308.867   -3097.9696    2130.2076   -4983.4175    4559.7951  0.005104198     0.295678   0.18475243 
 6708000    512.66827   -7309.6759   -2096.5357    1449.3518   -4873.2131    7522.1265 0.0051055891   0.29565837   0.18474731 
 6710000    486.52184   -7310.4992   -1672.4174   -486.20367   -5309.8773    5561.4708 0.0051081711   0.29564747   0.18475407 
 6712000    537.75444   -7308.9202   -2318.7586    444.70933   -6654.8262    5244.0328 0.0051088948   0.29565072   0.18475406 
 6714000    488.83406   -7310.4635   -2576.7485    -1221.901   -4156.2253    4325.5839 0.0051137406   0.29566621   0.18475466 
 6716000    482.38628   -7309.0687   -4808.2966    994.12133   -3687.6915    3528.4471 0.0051135065    0.2956476   0.18475345 
 6718000    518.61446   -7308.7124   -6127.9931    3176.3791   -4757.6337    5749.5235 0.0051136448   0.29562585   0.18475307 
 6720000     491.9083   -7309.4543    -3917.865   -1698.3082    -7251.372     3151.492 0.0051126922   0.29561022   0.18474256 
 6722000    516.04043   -7307.2844   -2635.8248   -3638.7388   -8614.8591    4172.1644 0.0051120022   0.29559994   0.18472971 
 6724000    484.79768   -7310.6713   -4343.9677   -1474.0701   -6579.8327    3612.1446 0.0051188868   0.29559692   0.18475862 
 6726000    482.77254   -7310.4476   -535.03006   -4390.7205   -5612.7402    4851.4652 0.0051179156   0.29561026   0.18474856 
 6728000    535.64477   -7310.2831   -5739.0304   -239.32468   -6408.3864    4931.7862 0.0051219351    0.2956046    0.1847541 
 6730000     501.0291   -7309.8948   -1531.1693    -3528.223   -7027.8749    5619.9007 0.0051239474   0.29558019    0.1847656 
 6732000    481.68249   -7310.4416   -4211.1375    1217.9213    -5929.567    8249.8646 0.0051265787   0.29557284    0.1847643 
 6734000    463.89158   -7309.7775   -5032.5386   -390.86402   -3207.8291    6687.9523 0.0051244127   0.29556746   0.18475309 
 6736000    477.33284   -7308.7367   -3831.4289     1471.383   -4224.1375    6729.8795 0.0051235288   0.29554656   0.18474937 
 6738000    504.16809   -7309.3011   -5904.8576    176.60205   -5024.7553    5077.6806   0.00512696   0.29554913   0.18476287 
 6740000    495.20004   -7310.0259   -4021.0535   -692.15596    -6067.197    5484.6516 0.0051301051   0.29554237   0.18475559 
 6742000    524.00914   -7310.7487   -6019.5085    710.95434   -5847.9596    4986.6387 0.0051291492   0.29554586   0.18475782 
 6744000    525.21736   -7308.2263   -7616.7678    1189.6766   -5218.9514    3075.0743 0.0051282508   0.29553277    0.1847693 
 6746000    486.73618   -7309.2413   -5199.2292   -564.83148   -6626.3409     2460.843 0.0051283536   0.29553607   0.18476924 
 6748000    503.44774   -7311.0435   -8410.1497   -1765.0085   -4927.4165    2196.4808 0.0051282064   0.29552199   0.18476439 
 6750000    467.35046   -7309.0212   -5970.2234   -1730.1661   -6946.9363    1868.4027 0.0051310355   0.29550123   0.18476109 
 6752000    452.85466   -7309.8845   -5754.2935   -1452.3787   -7305.0272    4671.0656 0.0051322926    0.2955104   0.18477514 
 6754000    500.16434   -7308.9514   -6128.5416   -1865.4104   -5730.8594    2374.1022 0.0051323965   0.29552356   0.18478931 
 6756000    534.27445   -7308.7897   -1570.7319    -1574.663   -4357.2815     1353.812 0.0051361263   0.29550165   0.18478881 
 6758000    474.87014   -7312.1858   -7999.1153     1554.744   -4725.7656    1855.3156  0.005134282   0.29549996   0.18477506 
 6760000    485.75315   -7310.0595   -1777.7743   -1719.3407   -2640.2662    5241.4878 0.0051328946   0.29550108    0.1847638 
 6762000    485.69658   -7311.3278   -5400.4594    446.79048   -4296.9257    3147.2989 0.0051339518   0.29549712   0.18478293 
 6764000    544.08958   -7311.2048   -4624.4468    976.30847   -4265.9066    5149.8743 0.0051328275   0.29547109   0.18477423 
 6766000    487.41989   -7311.4904   -5391.4104    229.14188   -4110.3055    2923.5879 0.0051322419   0.29546165   0.18477781 
 6768000    507.11076   -7311.0841   -2831.9244    -1916.594   -5893.5539    4974.2186  0.005131647   0.29546046   0.18477424 
 6770000    490.48352   -7307.6073   -2237.9971    -2942.953   -5313.3737    4368.7831 0.0051401961   0.29546613   0.18477628 
 6772000    483.20957   -7311.2805   -4117.3206    65.105119   -8210.0593    4697.5347  0.005142012   0.29546637     0.184789 
 6774000    499.24846   -7309.8073   -5066.7412    -2028.712   -6124.7634    2416.2413  0.005143611   0.29546487   0.18478973 
 6776000    492.70087   -7307.9885   -5176.3726   -4542.5354   -7231.2309    4276.7628 0.0051431286   0.29543944   0.18478878 
 6778000    511.18255   -7308.5724   -7477.4655   -3660.1595   -7617.2266    3835.0327 0.0051405513   0.29542577   0.18477506 
 6780000    523.92593   -7307.4363   -3751.6651   -2021.5472   -6887.1804    6945.7536 0.0051385323   0.29543328   0.18478058 
 6782000    524.46853   -7311.2833   -6634.0289   -1799.2205   -5429.4549    4941.9668 0.0051393374   0.29542208   0.18478323 
 6784000    484.89544   -7310.3016   -5150.3005    48.812215   -4730.5695    3753.1528 0.0051415907   0.29543715   0.18478508 
 6786000    452.13637   -7311.0102   -5070.8965   -4495.6352   -7631.5365     7976.762 0.0051418168   0.29544247    0.1847999 
 6788000    467.05995   -7309.7511   -1769.1119    1607.5819   -7150.4576     3611.058 0.0051437444    0.2954205   0.18480084 
 6790000    486.97954   -7308.7447   -2746.9688   -2423.1324   -5435.9468    5274.3005 0.0051420953   0.29541056   0.18478914 
 6792000     503.8939   -7310.7732   -4899.8132   -1583.4023   -7703.0789    6513.7256  0.005141382   0.29539364   0.18478887 
 6794000    477.87171   -7309.5126   -4020.7381    -1351.791   -6433.2703    3805.5069 0.0051436307   0.29540154   0.18482014 
 6796000    492.96297   -7309.4527   -5944.3964   -3683.8824   -5146.0506    2891.8052 0.0051455058   0.29541207   0.18480949 
 6798000     512.7636   -7311.1973   -4095.4489   -1858.1414   -3827.2782    3021.0796  0.005146807   0.29539365   0.18479724 
 6800000    472.08205   -7310.4173   -6128.6515   -1836.4829   -5788.1656    3377.4428 0.0051452834   0.29537817   0.18478931 
 6802000     475.8047   -7311.2572   -7372.3833   -1508.2805   -3776.7719    3030.4733 0.0051438893   0.29536903   0.18480019 
 6804000    518.79681   -7309.8317   -6984.7771   -1305.0885   -4917.8094     6698.599  0.005142383   0.29536216   0.18481113 
 6806000    501.31597   -7310.3281   -4964.9901   -2364.5925   -1881.2525    2509.4126 0.0051447306   0.29534439   0.18482466 
 6808000     502.2114   -7309.5961   -3781.8078   -708.91117   -7530.3294    6511.7009 0.0051507603   0.29534099   0.18481014 
 6810000    499.20101   -7309.9259   -4448.6283    723.23948   -3234.5506    5495.5877 0.0051527433   0.29535466   0.18480885 
 6812000    471.06011   -7310.2743   -4436.7984   -1528.8467   -4682.6446    5474.0383 0.0051523445   0.29534546   0.18480909 
 6814000    522.48701   -7307.6368   -5175.8714   -382.17901   -4259.9361     9256.701 0.0051498416   0.29534036   0.18481366 
 6816000    516.00086    -7308.695   -4440.1104   -1196.1144   -5368.7791     6289.293 0.0051484547   0.29533269   0.18481418 
 6818000    508.39022   -7308.4024   -1463.8008   -2957.5811   -6680.3666    4370.0586 0.0051495444   0.29531492   0.18480283 
 6820000    500.18648   -7310.6817   -3308.8678    529.51518   -5121.4351    5572.4463 0.0051540286   0.29530398   0.18479539 
 6822000    479.69143   -7308.1194   -4149.8462    -1868.569   -7791.9239    5622.5129 0.0051525883    0.2953118   0.18479004 
 6824000    482.43303   -7308.3473   -2597.4989   -1650.5537   -5875.0717    7080.7917 0.0051527819   0.29531966   0.18479861 
 6826000    482.77102   -7307.9267   -3612.1162   -2761.4145   -5312.5577    3812.9393 0.0051534112   0.29531844    0.1848142 
 6828000    525.38627   -7309.8344   -1920.5049   -959.43024   -5419.1841    7086.6322 0.0051548808   0.29529696   0.18481065 
 6830000    495.48106   -7312.1723   -2435.3086   -33.067177   -6805.6359    5590.8287 0.0051539336   0.29528709   0.18480178 
 6832000    481.55354   -7310.4243   -5309.0613   -3259.5976   -3385.5432    6768.5975 0.0051554528   0.29528709   0.18479603 
 6834000    481.68766   -7308.3517   -4436.5819   -2356.6836   -7365.7784     8387.321 0.0051608719   0.29527603   0.18481019 
 6836000    494.07662   -7310.0493   -879.95589    601.96778   -5072.8298    4253.6763 0.0051599698   0.29526922   0.18483957 
 6838000    505.14408   -7310.4805   -3319.7534    1255.7995   -6689.9267    5871.2191 0.0051597579    0.2952634   0.18482277 
 6840000     493.8081   -7309.9435   -2561.9888   -885.67922   -5602.2492    5107.2928 0.0051576511   0.29525364   0.18481472 
 6842000    494.91876    -7308.303   -3580.3025    8.6489076   -5574.7353    5099.5096  0.005161106   0.29525799   0.18480493 
 6844000    475.61908   -7309.3819   -2842.6826    1204.8004   -5941.3981    5868.1182 0.0051590873   0.29523166   0.18480867 
 6846000    522.98494    -7308.616   -1792.6201    2084.4814   -7232.8855    5480.0921 0.0051575947   0.29522261   0.18481119 
 6848000    516.39668   -7311.0207   -1804.1831   -990.47915   -6847.6883    5074.9179 0.0051602984   0.29523046    0.1848142 
 6850000    466.21262    -7309.181   -1461.8413   -1126.1443   -7975.8595     1771.715 0.0051651125   0.29522424   0.18481395 
 6852000    535.31557    -7310.021    -3866.314    324.98436   -3902.4336    5042.3942 0.0051627317    0.2952223    0.1847988 
 6854000    484.74124   -7308.4135   -5428.3997    -2361.695   -6073.9084      4005.69 0.0051665825   0.29520179   0.18480287 
 6856000    477.68506   -7310.8434   -4093.6323    841.85603   -8149.9942    6104.2326 0.0051697662   0.29519653   0.18482853 
 6858000    512.28838   -7311.0897    -4852.709    1254.1768   -4465.5508    6256.4015 0.0051696003   0.29521788   0.18483721 
 6860000    473.35415   -7309.1295   -4406.7422   -798.80939   -2611.8722    5128.3729  0.005168193    0.2951803   0.18482621 
 6862000    506.55282   -7308.8719   -4183.5104    537.28672   -3604.9572    4650.0936 0.0051668858   0.29515296   0.18481468 
 6864000    506.70824   -7309.1345   -6379.1887    -983.4249   -6208.9259    8424.2736 0.0051665719   0.29516529   0.18480325 
 6866000    521.30776   -7308.8981   -4248.9957     1876.238   -3770.2233    4820.8535  0.005165626     0.295166   0.18481887 
 6868000    487.95703   -7309.4184   -4782.9828    112.98883   -7250.0341    4330.2903 0.0051667582   0.29515239   0.18482304 
 6870000    509.06438   -7309.9694   -3882.2516    133.21874   -8073.2505    4789.6104  0.005167913   0.29514611   0.18483048 
 6872000    484.86757   -7308.8761   -5956.7613    305.34811    -6543.536    6559.1451  0.005168559   0.29515971   0.18482375 
 6874000    500.51758   -7309.0388   -6377.9347     1870.478   -6325.9914    3795.1964 0.0051676373   0.29514789   0.18483112 
 6876000    544.09386   -7310.3328   -6276.7217   -2432.5189   -7019.8534    6586.7672 0.0051668994    0.2951226     0.184825 
 6878000    498.81005   -7309.6383   -5737.7885     1839.714   -6731.6462    3366.0247 0.0051664232   0.29511529   0.18483248 
 6880000    441.35838   -7309.9219   -7765.5645   -765.32149   -6481.4507    5898.3911 0.0051648709   0.29512043    0.1848374 
 6882000    492.66455   -7310.4655   -4624.4366    2571.7534   -5379.1088    5580.2718 0.0051652954   0.29510489   0.18483761 
 6884000    501.14722   -7309.1785   -6905.8533   -1319.1161   -5789.7433    6041.1332 0.0051647634   0.29509905   0.18483345 
 6886000    494.67074   -7308.2214    -4331.841    1034.1095   -4812.0033    8468.5022 0.0051662375   0.29508353   0.18485262 
 6888000    475.41281   -7309.5114    -5044.829   -666.70731   -8426.7023    4447.3012 0.0051643372   0.29507222   0.18484212 
 6890000    492.59724   -7307.0342   -3889.8227    1864.4113   -7344.3037    7042.9263 0.0051662202   0.29507896   0.18483725 
 6892000    462.52246   -7309.9187   -4350.1355   -2346.2575   -7464.4981    5176.5398  0.005165393   0.29506379   0.18483116 
 6894000    496.66114   -7310.7144   -1602.3106   -2063.8597   -5528.7929    6040.3543 0.0051678671   0.29504835   0.18482988 
 6896000    489.94148   -7308.8256   -4002.5957   -1340.2162   -7202.3971    5249.7948 0.0051694962   0.29503233   0.18484505 
 6898000    480.64801   -7307.7591   -706.08267    496.56229   -7215.7351    5313.9465 0.0051677424    0.2950397    0.1848591 
 6900000    495.65754   -7310.3873   -4400.1306   -1792.5155   -4480.9823    4183.7406 0.0051678687   0.29503561   0.18484233 
 6902000    478.22076   -7309.7349    -3996.526   -1376.8524   -7184.9834    7967.2135 0.0051691346    0.2950267   0.18483521 
 6904000    511.11859   -7309.7934   -2077.8483    -413.4708   -3112.4607     5957.859 0.0051674332   0.29501413   0.18483742 
 6906000    522.59006   -7310.1468    -3925.288   -3188.0753   -7704.3493     5724.958 0.0051674134   0.29500292   0.18484559 
 6908000    482.61635   -7306.7979   -42.489256   -3905.7125   -6156.8113    5106.2259 0.0051653084    0.2949878   0.18485342 
 6910000    491.77526   -7310.3813   -419.33591   -727.13955   -8980.5812    3904.5295  0.005172013   0.29496998    0.1848488 
 6912000    495.62648   -7309.0987   -770.27989   -1830.9006   -7361.8867    4642.0342 0.0051794949   0.29498419   0.18485407 
 6914000    496.90691   -7309.7991   -1834.7645    1140.0812   -6399.0164    8600.4217 0.0051827237   0.29497926   0.18486499 
 6916000     522.9771    -7311.676    -2426.636    1697.8769   -6844.4987    3479.3384 0.0051809856   0.29497225    0.1848581 
 6918000      483.103   -7308.8616   -4048.1422   -1274.4932   -5589.7794    4784.0178 0.0051795001   0.29496375   0.18484907 
 6920000    487.43668   -7310.4101   -1099.3573    1037.1569   -7059.9226    5452.2195 0.0051814992   0.29495847   0.18484038 
 6922000    561.44975    -7305.846   -2140.8179    -666.6187   -3935.9297    3349.0183 0.0051818495   0.29496856   0.18483677 
 6924000    511.98944   -7306.8089   -2953.0366    3063.1144   -7112.7512     4726.624 0.0051805588   0.29496753   0.18484415 
 6926000    521.15894   -7308.3488   -2703.5284   -2256.6744   -5040.3257    5894.2569 0.0051795281   0.29496574   0.18485883 
 6928000    505.93242   -7309.7454   -3085.7281   -543.14776   -6311.5013    3644.7685 0.0051806353   0.29499106   0.18485541 
 6930000    525.04557   -7307.8957   -4035.8045    99.920746   -3803.2009     2070.267  0.005181755   0.29499557   0.18484432 
 6932000    524.27583    -7309.931   -4916.0972    3153.5338   -6362.2389    4773.7828 0.0051800766   0.29497822   0.18481922 
 6934000    489.02115   -7309.8487   -5626.1632    822.55839   -6095.1292    2754.0242 0.0051789394   0.29498035   0.18481892 
 6936000    496.12918   -7309.3729   -5698.5627    2390.7548    -8626.308    4563.4341 0.0051801209    0.2949894   0.18483604 
 6938000    478.30033   -7309.8586   -3699.6238     2941.108     -5393.56     3817.586 0.0051799542   0.29499727   0.18484689 
 6940000    511.64653   -7310.6294   -3576.0749    1848.8422   -7503.0338     1199.192  0.005178966   0.29500591   0.18482722 
 6942000    522.19638   -7308.7142   -4183.7258   -430.55668   -6442.8971    3966.3117 0.0051768119   0.29500024   0.18482438 
 6944000    503.21722   -7310.6345   -4673.3311   -1210.9037   -6979.4837    721.13389 0.0051757394   0.29502306   0.18482203 
 6946000    523.43502   -7310.1168    -2202.097      2653.72   -8287.6887    6388.4332  0.005174297   0.29501403   0.18482289 
 6948000    488.76437   -7309.8286    -2783.194   -2053.6362   -5930.6651    4141.7101 0.0051726532   0.29503569   0.18482381 
 6950000     540.5781   -7307.6297   -3353.8911   -1358.4949   -6712.3483    5443.1506 0.0051732202   0.29501479   0.18482607 
 6952000    494.47988   -7311.1915   -3927.8065   -1136.1617    -4128.029    7122.9601 0.0051733919    0.2950265   0.18480921 
 6954000    494.39627   -7310.5498   -6408.4636    1404.6649   -7684.2529    6696.7016 0.0051734039   0.29502669    0.1848177 
 6956000    511.61843   -7310.6814   -4897.0403   -443.50389   -5499.0275    4685.9504 0.0051717038   0.29505726   0.18482315 
 6958000    486.97236   -7308.7687   -4864.2603    818.62673   -5375.1069    5813.6687 0.0051714679   0.29504133   0.18481228 
 6960000    501.47801   -7310.4187   -5574.7099   -1271.9149   -7387.9938    5466.2028 0.0051703896   0.29505132   0.18481194 
 6962000    520.92956   -7310.2072   -6736.2126    2464.0865    -4953.406    2281.0474 0.0051688954   0.29507025    0.1848187 
 6964000    479.83263   -7310.0636   -4669.8911   -1092.5681   -5937.4382     5363.916 0.0051680609   0.29507247   0.18481936 
 6966000    505.04848   -7308.3288   -5477.1737    -1043.732   -9392.4449    2992.4118 0.0051667305   0.29506425   0.18481806 
 6968000    488.02025   -7310.1547   -4972.1359   -827.39397   -7012.6432    7003.5211 0.0051654689    0.2950601   0.18480767 
 6970000    506.00286    -7309.267   -1608.4933   -2116.2927   -5020.3448    4496.5358 0.0051646248   0.29504963   0.18480825 
 6972000    526.41121   -7310.5986   -3814.5286   -2454.8394   -5355.4446    5720.9739 0.0051690269    0.2950954   0.18479897 
 6974000    503.50549   -7308.8885   -5478.3767    2098.7758   -5170.3587    7865.6061  0.005174177   0.29509382   0.18479653 
 6976000    495.24833   -7310.0521   -5404.4158    460.89235   -4164.7241     2249.904 0.0051728304   0.29510083   0.18479776 
 6978000    456.45696   -7310.0516   -5370.3477    3851.2088   -3548.2898    5445.7208 0.0051712365   0.29511324    0.1848102 
 6980000     486.6131   -7310.7725   -3077.6694    -198.4154   -5483.7811    3346.8645 0.0051708168   0.29510114   0.18480475 
 6982000    513.00158   -7310.7067     -3938.58    1879.4544   -3893.6054    4913.7271 0.0051694486   0.29510021   0.18479202 
 6984000    492.14628   -7310.2314   -3197.0396    -2776.531   -5576.5527    3977.4148 0.0051692826   0.29510268     0.184792 
 6986000    485.81064   -7310.2047   -5642.0349    201.18083   -6670.3887    3802.5874  0.005171776   0.29509512   0.18481099 
 6988000     511.3482    -7310.235   -3871.8062     -1117.56   -3275.4369    1710.9296 0.0051728284   0.29511168   0.18481854 
 6990000     494.0512   -7309.0594   -5718.4464   -809.38901   -8378.0531    2584.8745 0.0051722969   0.29513127   0.18481467 
 6992000    513.69083   -7309.6014   -4727.1883   -777.20883   -4180.9396     3163.031 0.0051708903   0.29512225   0.18480814 
 6994000    560.65389   -7311.1224   -3897.5264    2243.2203   -5864.5493    4637.8796 0.0051698783   0.29510894   0.18480597 
 6996000    496.17589   -7309.4732   -4524.1527   -446.12181   -5880.8055    3061.4223 0.0051683979   0.29510192   0.18479426 
 6998000    503.91812   -7306.9222   -3050.6828     835.4319   -3884.8854    4419.5712 0.0051676259    0.2950927   0.18478863 
 7000000     522.5868   -7309.3595    -4654.336   -1683.7504   -6838.3813    5286.9236 0.0051675137   0.29510906   0.18479579 
 7002000     492.3561   -7308.3289   -2929.9271   -436.39422   -2323.3755    3163.2933 0.0051709796    0.2951342   0.18480176 
 7004000    484.83078   -7310.5575   -2470.7354   -1141.5984   -5579.5608    4564.6478 0.0051687259   0.29512937   0.18480571 
 7006000    506.28835    -7310.757   -2094.5744     -1860.96   -7206.6614    2969.5997 0.0051711353   0.29513123   0.18479935 
 7008000    524.25517   -7308.4588   -5960.1634    -2458.993   -8247.6686    4960.6203 0.0051719487    0.2951295   0.18480076 
 7010000     477.0171   -7310.2674   -3231.5179   -835.26402   -5753.1629    2462.5479 0.0051703312   0.29514214   0.18481125 
 7012000    506.66463   -7308.9757   -4472.2065   -434.10892   -4874.6994    2599.0097 0.0051690255   0.29514666   0.18481047 
 7014000    537.54159   -7308.0248   -4694.6832     -2698.04   -7160.1911    918.88405 0.0051678206   0.29511382   0.18481034 
 7016000     535.0991   -7310.0094   -6281.5976   -883.87646   -6783.5056    2350.9591 0.0051672483   0.29513004   0.18480289 
 7018000    502.05532   -7311.3514   -4955.2723   -1630.7344   -7513.6396    1641.2017 0.0051656009   0.29514522   0.18479638 
 7020000    496.24796   -7308.9327   -7347.3374   -1679.0144   -5844.7468    3890.7546 0.0051660758   0.29515283    0.1848083 
 7022000    516.85425   -7311.9654     -4269.77   -285.62191   -6688.8414    5241.0455 0.0051683912   0.29514289   0.18481699 
 7024000    494.74159   -7309.0284   -3835.9241    1386.3473   -8513.2576    1774.0379 0.0051669333   0.29515704   0.18481505 
 7026000    498.95037   -7311.8673   -2386.5268   -871.99961   -7192.3638    4861.2434 0.0051664969   0.29515121   0.18480298 
 7028000    488.31769   -7311.4751   -4349.1301   -1225.9065   -10022.754    5092.7132 0.0051640436   0.29514156   0.18480872 
 7030000    514.61701   -7308.3799    -4996.024   -616.47338   -3738.9837    7303.8978 0.0051624665   0.29514813    0.1848061 
 7032000    508.76933   -7310.6378   -2996.7655   -666.03714   -7456.0928    5107.3887 0.0051610779    0.2951403   0.18480626 
 7034000    506.97777   -7310.1261   -5267.4626   -415.12473   -8376.1916    3842.4884 0.0051627702   0.29515196   0.18480162 
 7036000    515.25508   -7306.9564   -4040.5889    228.14113   -6838.0545    5164.7208 0.0051618129    0.2951699   0.18479635 
 7038000    494.62069   -7309.4956    -5886.413   -155.12699   -5836.5786    8918.5551 0.0051605942   0.29516742   0.18479162 
 7040000    536.42266   -7310.0561   -6287.9229   -538.26149    -5419.614    2524.8136 0.0051618893   0.29515201   0.18480062 
 7042000     459.3402   -7308.9512   -3935.3786    -254.2196   -6230.6828     6828.591 0.0051612963   0.29516944   0.18479784 
 7044000    526.27677   -7311.3672   -2991.8032   -818.26407   -6679.3641    2875.9068 0.0051596727   0.29519128   0.18480802 
 7046000    531.17082   -7311.5223   -4271.9801   -1573.1815   -5708.6421    5261.3941 0.0051614284   0.29519743   0.18479989 
 7048000    510.18158   -7312.2282    -2487.826    2228.0074   -7167.7463    7519.2742 0.0051614785    0.2951756   0.18479481 
 7050000     506.3209   -7309.7194   -2071.8181   -1104.2567   -6676.0784     7454.195 0.0051602089   0.29518245   0.18479361 
 7052000    486.42366   -7308.2803   -1665.4733   -2540.4945   -6449.9363    3926.2415 0.0051586178   0.29520362   0.18481353 
 7054000    453.94544   -7310.7724   -3023.8783   -735.14259   -4780.1769    2421.1994 0.0051578808   0.29517739   0.18479887 
 7056000    485.42039   -7308.5149   -1173.3414   -5161.1835   -6165.2083    5211.0217 0.0051628736   0.29518099   0.18479904 
 7058000    512.40085   -7309.7405   -3377.5984   -1698.8015   -5813.8173    2323.4081 0.0051614356   0.29519095   0.18481128 
 7060000    497.82832   -7309.0448   -3285.7614    -3398.855   -5663.6249    1934.9758 0.0051598132   0.29518637   0.18481461 
 7062000    528.22216   -7309.9464   -5506.2502    1401.6354   -7079.9636    3434.6571 0.0051580151   0.29518091   0.18480493 
 7064000     515.2637    -7308.397   -5789.7707     1731.442   -3744.3344    5976.4356 0.0051558109   0.29517981   0.18480508 
 7066000    476.46992   -7307.8644   -5880.7996     168.0548   -7678.2119    2855.0682 0.0051538725   0.29519114   0.18480629 
 7068000    533.90125   -7310.2732   -3993.2601    1865.0226   -4909.2437    3718.6735 0.0051536223   0.29519921   0.18480004 
 7070000    505.90558   -7308.1545   -4873.6508    71.437781   -3215.8107    3115.6693 0.0051518076   0.29518113   0.18479397 
 7072000    496.26502   -7311.0336   -4431.8329     -1212.58   -8725.3368    4942.2179 0.0051516135   0.29519885   0.18480169 
 7074000    475.93086   -7311.2195   -4296.6645   -1945.8825   -5187.1816    3333.9006 0.0051546925   0.29522625   0.18480638 
 7076000    502.05738   -7309.8974   -3529.3818   -171.78964   -5872.3561    4039.1053 0.0051540775   0.29521317   0.18480857 
 7078000    511.09922   -7310.2461   -4981.7028   -616.69579   -6303.8454    4788.0668 0.0051529973   0.29522063   0.18481369 
 7080000    493.37199   -7308.2136   -4521.5226   -2518.2001   -3395.6677    6571.3886 0.0051515347   0.29523167   0.18479577 
 7082000    495.28537   -7311.8935   -5657.9433    716.58012   -7455.2742    5927.8327 0.0051531708   0.29521179   0.18479823 
 7084000    510.99858   -7309.9831   -3408.1908   -883.59674   -7254.4659    5340.3253 0.0051519899   0.29521981   0.18478714 
 7086000    469.29918   -7311.2789   -4043.9366    1635.5097   -6429.9219    4400.7765 0.0051507166    0.2952306   0.18479013 
 7088000    500.73077   -7309.3582   -3994.0223   -2260.1046   -4122.4193    5663.4876 0.0051513617   0.29523456   0.18479707 
 7090000    498.03264    -7310.521   -3969.4566     -1520.98   -5939.9003    6270.6946 0.0051524204   0.29523857   0.18479012 
 7092000    502.23603   -7309.1548   -2897.9115    -526.8529   -8183.8206    1880.8543 0.0051534924   0.29523236   0.18478549 
 7094000     537.3364   -7309.5114    -4731.681   -1144.9491   -6609.6601    5886.9574 0.0051526447   0.29524205   0.18478076 
 7096000     514.3117   -7309.7049   -4058.8057   -1397.7113   -7680.0138    3850.5418 0.0051508177   0.29523829   0.18479295 
 7098000    488.14615   -7310.3575   -3864.6477   -1130.5171   -5786.8578    6501.0557 0.0051530239   0.29524114   0.18479481 
 7100000     516.9018   -7311.2959   -2046.5328    1116.5286   -6338.2797    6850.5434 0.0051518815   0.29524505   0.18478126 
 7102000    505.52761   -7310.4534   -3461.6954    419.34487   -5497.8277    3837.7304 0.0051504872   0.29524125    0.1847902 
 7104000    511.06195   -7307.5758   -1397.8407    -445.3693   -4634.5123    7492.3109 0.0051493577   0.29524326    0.1847848 
 7106000    533.37772   -7311.3755    -4202.797   -539.43086   -6111.2354     5169.061 0.0051521993   0.29523734   0.18478189 
 7108000    503.61394   -7310.5306   -2027.8604   -1405.2263   -5399.9756    8879.1409 0.0051507585   0.29525533   0.18476046 
 7110000    479.06801   -7311.0359   -2089.6792   -1938.6269   -5427.0901    5461.9535  0.005149413   0.29526634   0.18475995 
 7112000    510.01717   -7309.4985   -4527.0713    44.624971   -4822.9155    6177.3017 0.0051480744   0.29526264   0.18474803 
 7114000    519.33178   -7307.9017   -3416.1402   -654.90667   -5572.0625    5294.3133 0.0051475451   0.29525137   0.18477439 
 7116000    492.32239   -7309.6245    -3682.625   -810.86149   -5420.2441     2973.994 0.0051487643   0.29525988   0.18478286 
 7118000     467.3461   -7309.2661   -1785.1979    2294.1884   -5906.9521    4050.6289 0.0051474305   0.29526047   0.18476436 
 7120000    562.36216   -7310.2551   -3261.7367    1376.3767   -5191.6853    3998.3296 0.0051462007   0.29526923   0.18474704 
 7122000    495.37764    -7311.923   -3881.0668   -372.29585   -5024.3086    3860.1427 0.0051444369   0.29527736   0.18474745 
 7124000    466.35543     -7310.28   -1923.8623      2709.38   -4081.4127    7024.9712  0.005145249   0.29527828    0.1847473 
 7126000    485.39129   -7310.1039   -4619.7039    1098.4823   -4653.0687    4255.2961 0.0051442081   0.29527097   0.18474938 
 7128000    479.08053   -7310.6101   -1619.9064   -171.02799   -4818.0252    6853.8456 0.0051433475   0.29528871   0.18476378 
 7130000    488.45365   -7310.2432   -2568.3099   -343.01047   -7021.8275    4876.8967 0.0051423268   0.29529967   0.18475881 
 7132000    467.90972   -7309.8398   -3378.1242   -1133.1097   -6377.0428    7175.2971 0.0051435723   0.29528089   0.18474688 
 7134000    504.29752   -7309.6668   -4590.0373   -653.68528     -8633.46    5847.7786 0.0051430811   0.29528718   0.18476228 
 7136000     450.3712   -7310.9694   -4191.7054    508.26725     -6911.81    6898.4434 0.0051418425   0.29531282    0.1847572 
 7138000    544.25268   -7309.8885   -3177.2844   -1240.0428   -3708.7447    2040.9795 0.0051427986   0.29531696   0.18476851 
 7140000    528.52457   -7308.3493   -5840.0372    567.48355   -5464.9072    4932.6753 0.0051462616   0.29529472   0.18476309 
 7142000    483.49074   -7308.9654   -3617.0651    651.63309   -2196.3923    6508.0166 0.0051445846   0.29528957   0.18475209 
 7144000     463.5062    -7309.999   -2591.5663   -848.42225    -6445.677    4717.0712 0.0051433713   0.29531879   0.18477266 
 7146000    475.49295   -7308.3832   -5132.7022    1384.3486   -4388.9624     6769.123 0.0051418541   0.29531944   0.18476699 
 7148000    458.96766    -7310.863    -5689.459    1234.7084   -5965.2881     6129.136 0.0051403585    0.2953221   0.18477712 
 7150000    517.07731   -7310.4704    -3714.055   -2391.6693   -5512.5604    6146.9121 0.0051385913   0.29533232   0.18477356 
 7152000    540.84304   -7309.8915   -2877.9302    1171.1518   -5615.8255    5258.4712 0.0051385962   0.29534967   0.18477788 
 7154000    464.65406   -7310.2897   -2189.3624   -936.76794   -7793.1472    5129.6338 0.0051370365    0.2953356   0.18475839 
 7156000    489.39574   -7308.1912   -2375.5366    395.77271   -3434.3214    6987.9889 0.0051365951   0.29532838   0.18476839 
 7158000    514.51799   -7309.9262   -4314.7408    1635.0476    -6810.433    6539.8705 0.0051365391   0.29531825   0.18477147 
 7160000     520.4836   -7310.7109   -2637.1907   -3461.3396   -5319.7432    5231.4664 0.0051358763   0.29535498   0.18477277 
 7162000    476.76447   -7309.2402   -5315.2805    3470.5161   -6727.5769    1615.1657 0.0051401482   0.29534961   0.18478012 
 7164000    524.50334   -7308.6454    -3329.343    -2656.944   -8864.4154    6568.8308 0.0051372352   0.29535518   0.18476978 
 7166000    530.53911   -7308.8322   -7240.2035    851.87926   -8648.3363     2705.807 0.0051356129   0.29537348    0.1847785 
 7168000    490.93665     -7310.69   -2790.7791   -608.53442   -6354.5196    7324.2149 0.0051341328   0.29538673   0.18476697 
 7170000    503.27009   -7308.4428    -864.4507   -1077.7924   -7742.6653    1326.3136 0.0051330787   0.29535288   0.18477229 
 7172000    507.20513   -7308.1007   -2121.2942   -3255.4022   -6299.7667    5791.8642 0.0051320489    0.2953561   0.18476193 
 7174000    510.81007    -7310.651   -1408.9747   -1913.9335   -5906.2127    3988.2302 0.0051303371   0.29536676   0.18476682 
 7176000     487.4148   -7309.0606   -4244.8161   -2234.7361   -9137.8475    3539.9559 0.0051299411   0.29537821   0.18476931 
 7178000    505.06085   -7310.0642   -5021.1829   -4371.1727   -3754.4161    4226.0124  0.005128413   0.29537706   0.18475425 
 7180000    489.08563   -7308.8093   -3742.6611   -95.443332   -4858.7814     7166.539  0.005132535    0.2953726   0.18476066 
 7182000    493.19387   -7308.4245   -4207.0498     2354.405   -5933.1816    4533.5633 0.0051316279   0.29540167   0.18476799 
 7184000    495.90339   -7309.1672   -4789.2914    801.58157   -4130.0014    4899.5294 0.0051305151   0.29541476   0.18476207 
 7186000    486.98073   -7308.9762    -2203.252   -196.88227   -6302.5035    6069.8036  0.005130069   0.29539591   0.18475347 
 7188000    486.83545   -7310.0294   -2361.0751   -1265.9068   -6226.4932    2747.6525 0.0051292064   0.29537723   0.18475994 
 7190000    483.97429   -7308.1436   -3039.0753   -1211.7682   -6845.3673    4821.6115 0.0051294776   0.29537641   0.18476044 
 7192000    457.27515   -7309.8329   -3476.6273    1664.1019   -7440.4123    2071.7284 0.0051285429   0.29540228   0.18476083 
 7194000    511.95003   -7309.5599   -3506.1137   -903.23426   -6768.7405    6440.7304 0.0051280786   0.29540899   0.18475752 
 7196000    534.27845   -7309.6954   -7914.1102    180.94325   -6259.1719    6364.9301 0.0051297357   0.29540551   0.18474751 
 7198000    479.36352   -7309.9893   -5767.8955    -1904.492   -7981.5347    6062.6306  0.005128314   0.29542917   0.18476046 
 7200000    484.38386   -7309.7621   -6112.7191    2970.0904   -2442.6408    4305.7462 0.0051275166   0.29540952   0.18475743 
 7202000    503.06313    -7309.673   -5658.4498    135.66153   -5901.6386    6942.9332 0.0051278897   0.29539695   0.18473427 
 7204000    510.23743   -7309.9053   -5264.3231    1081.1128   -4575.5593    7114.6314 0.0051272611   0.29539885    0.1847401 
 7206000    462.38889   -7309.5674   -2589.6705   -1532.3314   -5088.9395    8724.0559 0.0051272261   0.29540213   0.18475206 
 7208000    488.09518   -7309.0907   -3406.7821   -2356.3339   -3388.1931    8377.9967 0.0051270812   0.29541663   0.18475071 
 7210000     492.9694   -7309.5268   -1984.8785   -2221.9796   -7180.7981    7537.8166  0.005126292   0.29540574   0.18473005 
 7212000    518.15144   -7309.7632   -2200.7302    1059.0124   -4059.8813    9497.1222 0.0051271247   0.29541961   0.18472909 
 7214000    508.42541   -7310.9406   -3357.9697   -947.97537   -6094.7244    5629.5506 0.0051246321   0.29542467    0.1847314 
 7216000    486.56059   -7310.5683   -4609.5974   -3111.5459   -7846.5846    7849.3642 0.0051247607   0.29541965    0.1847414 
 7218000    498.22759   -7309.8628   -2100.8901    -358.2429   -6982.7913    3572.1211 0.0051244205   0.29540013   0.18474541 
 7220000     491.0046   -7309.9913   -4824.3449    -383.0131   -9688.1787    4957.2784 0.0051238658   0.29540892   0.18473045 
 7222000    490.51341    -7310.188   -5964.1782   -840.64428   -6386.5373    5795.6247 0.0051229787    0.2954149   0.18472953 
 7224000    469.83464   -7310.8275   -5416.3065   -1138.6792   -6379.9311    4783.2586 0.0051218815   0.29542724     0.184724 
 7226000    491.31888   -7309.6222   -5897.8454   -2571.9481   -5666.8734    7289.8742 0.0051208532    0.2954317   0.18472835 
 7228000    533.04258   -7309.2758   -5935.9167   -2246.6531   -5657.1201    5669.3356 0.0051218234   0.29541703   0.18472306 
 7230000    485.17783   -7308.8129   -4309.7037   -1999.9112   -8709.9092     6452.586 0.0051213814   0.29541701   0.18473841 
 7232000    496.98571   -7307.8621   -5101.2413    1314.4852   -3657.2006    2420.3542 0.0051202624    0.2954295   0.18473767 
 7234000    491.99792   -7310.4213   -4912.5858   -1455.4171   -4791.0071    6862.1732  0.005121334   0.29543632   0.18474453 
 7236000    509.50555   -7310.3029   -4224.9905   -2695.9073   -3789.1315    4708.2846 0.0051255387   0.29544216   0.18476274 
 7238000    519.76059     -7311.87    -6298.491    67.622598   -2728.2878    3726.0043 0.0051245598   0.29544453   0.18476721 
 7240000     505.0657   -7308.7314     -5817.93   -414.57049   -6398.8007    3784.3925  0.005123479   0.29545187   0.18476842 
 7242000    515.38037   -7309.3563   -4434.5561   -611.17747   -6159.3761    3008.9062 0.0051223999   0.29544897   0.18476196 
 7244000    513.54238      -7309.9   -5293.9183   -2168.2272   -8655.9163     3019.822 0.0051206126   0.29543349   0.18475347 
 7246000    532.87526   -7309.8368   -4877.0023    -3311.884   -7672.4411     3446.308  0.005119285   0.29545637    0.1847609 
 7248000    535.88359   -7309.7117   -2479.0858   -63.769316   -6144.4395    3473.5068 0.0051231067   0.29548713   0.18477569 
 7250000    497.88503   -7308.2365   -5575.6102   -989.63945   -5702.1139    2740.7094 0.0051233977   0.29547852   0.18477472 
 7252000    513.21071   -7310.2897   -1921.9831    1827.1695   -4652.3591    6859.1137 0.0051220709   0.29548079   0.18477623 
 7254000    527.81885   -7309.0868   -3104.4743    735.66521   -4718.4627    2293.9991 0.0051207245   0.29549319   0.18477006 
 7256000    495.77188   -7309.7889   -5660.8449   -1099.0379   -4528.9148    260.85244 0.0051190382   0.29548181   0.18475574 
 7258000    497.65362   -7309.2504   -2566.6683    2014.8194   -6860.9141    5364.4759  0.005117457   0.29546943   0.18475411 
 7260000    489.85238    -7308.682   -3281.6889   -676.12973    -6496.258    2510.5251 0.0051160319   0.29548437   0.18477604 
 7262000    534.89234   -7310.9573   -2931.8725   -1723.2357   -6487.4242    1902.2622 0.0051159281   0.29551844   0.18477742 
 7264000    480.38511   -7310.0917   -3388.6421   -2180.9736   -6893.2262    3047.8483 0.0051155812   0.29551176   0.18476122 
 7266000    477.44176   -7308.7502   -4250.2044   -947.69462   -4669.8836    3098.0023 0.0051142871   0.29550723   0.18475231 
 7268000    485.16897   -7309.2378   -4739.5493    -499.0478   -6465.4489    5512.8665 0.0051130315   0.29550697   0.18474704 
 7270000    495.29152   -7309.8365   -6167.8637   -63.361025   -5013.2388    2614.0604  0.005112467   0.29550394   0.18477009 
 7272000    483.71496   -7309.8023   -7293.6779    2126.5772   -4863.2565    2857.2728  0.005111198   0.29551063   0.18475799 
 7274000    468.70581   -7309.9578   -7137.8019    1278.4776   -5101.1469    6466.2134 0.0051102533   0.29551858   0.18474328 
 7276000     485.4599   -7310.4321   -6072.9434    2424.3582   -7184.5153    2387.7634 0.0051100299   0.29550504   0.18475891 
 7278000    501.72715   -7310.4339   -7441.8157    1977.7323   -6682.0146    6047.6153 0.0051095254   0.29550926   0.18475831 
 7280000    517.39833   -7310.3256   -3913.3318   -1540.0437   -4106.2701     4301.627 0.0051094648   0.29551917   0.18475858 
 7282000    514.96644   -7310.1982    -4349.683    178.36422   -6055.2855    4134.8728 0.0051078213   0.29551674   0.18476559 
 7284000    528.83302   -7308.8074   -1431.5883   -2340.5422   -5420.2665    5335.3624  0.005107169   0.29553074    0.1847639 
 7286000    513.69924   -7308.7156   -2191.5596   -3501.2815   -6824.4462    5678.4358 0.0051062001   0.29552607    0.1847494 
 7288000    484.02054   -7307.8417   -1977.9477    2300.5617    -5367.263    4966.0797 0.0051046896   0.29553115   0.18475585 
 7290000    483.14165   -7309.3555   -1858.7991   -4773.0122   -4281.3886    4237.1885 0.0051032275   0.29552902   0.18475645 
 7292000     514.6558   -7309.2348   -2630.5776    1668.5703   -7257.5533    5370.0328 0.0051031509   0.29553537    0.1847579 
 7294000    500.98822   -7309.5997   -3120.6727    -1010.005   -6333.5142    2382.1884  0.005101746   0.29556093   0.18475792 
 7296000    469.65106   -7309.7485   -3986.3765   -806.57245   -3987.3858    3455.0371 0.0051036551   0.29557329   0.18475755 
 7298000    492.75606   -7310.1426   -4593.4749    2312.1389   -7828.1847    3461.4512 0.0051031542   0.29556133   0.18476262 
 7300000    466.87471   -7309.2738   -4337.6963   -1180.6826    -4696.875    1033.7075 0.0051026406   0.29556638   0.18476171 
 7302000     479.4128   -7309.7617   -4526.7853    3432.2884   -7873.1605    2418.0359 0.0051011624   0.29556734   0.18476757 
 7304000    537.70692    -7310.207   -771.54929   -2010.8166   -7558.7462    2276.6371 0.0050997381    0.2955693   0.18475792 
 7306000    509.04594   -7311.2902   -2242.5276   -2832.7086   -3288.8303    2092.9934 0.0050979394   0.29555259   0.18476698 
 7308000    490.41974   -7308.8787   -4058.2126   -2367.5564    -8574.411    5747.9613 0.0050971188   0.29555697   0.18476113 
 7310000    497.90776   -7309.5761   -3282.2776   -953.30972    -5288.152    3297.4938 0.0051005873   0.29557175   0.18475659 
 7312000    551.15626   -7310.0097   -2484.5998   -1865.9779   -6293.7984    2741.3439 0.0050996778   0.29557754     0.184774 
 7314000    511.82487   -7309.7986   -4424.8408   -1150.8525   -4584.7725    4196.3089 0.0051004595    0.2955947   0.18476889 
 7316000    494.96631    -7309.661   -6522.6105    -941.1871   -4185.6248    3370.4464 0.0050995771    0.2955824   0.18475128 
 7318000    512.35272   -7307.5281    -3575.697    684.82287   -4986.0906    5371.8385 0.0050990667   0.29556935    0.1847534 
 7320000     506.6291   -7310.1646   -5902.5121    -749.9709   -5143.1046      7507.75 0.0051009847   0.29557292   0.18476478 
 7322000    516.46952   -7309.9038   -4696.4353   -3468.3904   -4752.3074    2478.6531 0.0050998792   0.29556108   0.18477251 
 7324000    500.22869   -7310.7601   -698.24958     734.3719    -6816.552    6352.3849 0.0051047992   0.29555911   0.18476517 
 7326000    512.69673   -7307.2404   -5909.1312   -485.42788   -7244.1941    5717.3288 0.0051055002   0.29558522   0.18475629 
 7328000    552.14903   -7313.2034   -2906.4314    827.23795   -6185.2349    5184.6609 0.0051066506   0.29559718   0.18475367 
 7330000    488.84669   -7309.0537   -2757.8925    -2090.088   -9778.7117    3971.4929 0.0051060364    0.2955903    0.1847593 
 7332000    507.34902   -7308.2908   -2771.6225    27.185197   -5036.1936    2933.8317 0.0051042424   0.29559326   0.18475836 
 7334000    491.59426   -7309.0669   -2102.2202   -404.92165    -6884.521    4102.7593 0.0051047658   0.29557917    0.1847476 
 7336000    513.89665   -7310.2626   -4180.1209    -3624.606   -6539.5245    3646.9423 0.0051058242   0.29558139   0.18474014 
 7338000    524.98267   -7308.2089   -2804.0487   -1238.1949   -7059.0881    4251.3491 0.0051075317   0.29557579   0.18474282 
 7340000    522.82066   -7308.4476   -5440.3995   -1055.1058   -5516.0761    4512.2708 0.0051056714   0.29558261   0.18474459 
 7342000    476.56442   -7310.5636   -2955.8796   -1452.0044   -5865.9535    6989.8546 0.0051043056   0.29559448   0.18475986 
 7344000    500.99836   -7309.8887   -4908.6259   -2539.8405   -6441.7856    2426.0999 0.0051033512   0.29558297   0.18475451 
 7346000    493.09695    -7309.367   -3204.0786    386.18054   -5098.5748     6011.671 0.0051051313   0.29558689   0.18473915 
 7348000    499.23217   -7310.6292   -1581.3424   -547.21783   -5070.6833    5795.2645 0.0051053066   0.29559064   0.18473549 
 7350000    491.89611   -7309.3059   -4901.2956    2086.5308   -6088.2661    5545.4155 0.0051043096   0.29558867   0.18474179 
 7352000    481.14576   -7310.5099    -3619.543   -550.44252   -6211.3138    5063.5488 0.0051030094   0.29558635   0.18474821 
 7354000    492.21467   -7310.3247   -4890.4533   -740.17423   -5460.3179    5721.7516 0.0051020865   0.29557849   0.18474713 
 7356000    517.55719   -7310.2398   -4603.5459   -666.23153   -8621.3363    4174.1234 0.0051023621   0.29558376   0.18473013 
 7358000    479.44771   -7309.1884   -3475.1196   -189.28533   -3292.9932    7109.2032 0.0051011448   0.29558972   0.18472368 
 7360000    545.91924   -7310.8054   -4167.2764   -564.46586   -7034.7374    8680.6694 0.0050998696   0.29559472   0.18472838 
 7362000    503.34767   -7309.6744   -3080.7135   -2723.4614   -4649.9663    4128.6539 0.0051015946    0.2956015   0.18473938 
 7364000    489.44329   -7308.6447   -4813.7849   -1056.7456   -3584.3191    6211.5556 0.0051011485   0.29560121    0.1847331 
 7366000    508.22932   -7309.5464   -3248.5124    188.59107   -7726.5308    4664.6965 0.0050999263   0.29559183    0.1847257 
 7368000    508.88631   -7309.4548   -2774.1345   -2282.0027   -2526.0439    5254.5277 0.0050980557   0.29560495      0.18473 
 7370000    479.97475   -7308.2902   -3501.8148   -1899.6416   -7242.8557    6702.5475    0.0050984   0.29560643   0.18471776 
 7372000    541.45649   -7308.7935   -4186.0296    782.04522   -5915.8674    3907.5542  0.005101294   0.29561392   0.18472532 
 7374000     495.7155   -7310.7623   -3771.7731    1825.9705   -6072.5956    7383.8985 0.0051031111   0.29561816   0.18472494 
 7376000    503.45771   -7308.9333   -3947.3934     149.4922   -8375.8283    5835.3074 0.0051021046    0.2956196   0.18473171 
 7378000    486.56802   -7310.8489   -1978.2598    2051.0081   -5821.1737    4693.4261 0.0051008515   0.29561906   0.18473935 
 7380000    531.49769    -7309.977   -4063.8845   -1934.6317   -7346.4716    5547.8319 0.0050997206   0.29560398   0.18473057 
 7382000    526.24432   -7309.5745   -4412.2106   -3193.2678   -7719.0988    4444.2013 0.0051004532   0.29561926   0.18472172 
 7384000    507.00594   -7311.2484   -3884.5513    2335.1142   -5234.4788    6862.4023 0.0051027971   0.29561807   0.18472596 
 7386000    553.04953   -7310.4695   -3571.6671    577.07893   -5289.7166    5731.8603 0.0051050509   0.29562211   0.18473791 
 7388000     503.7296   -7308.8348   -5104.2813    966.65186   -6762.9224     6880.663 0.0051035407   0.29561984   0.18473365 
 7390000    473.01724   -7309.7674   -3703.4578    1965.4837   -8068.3087    7086.3397 0.0051020508   0.29560946   0.18473449 
 7392000    514.33116   -7311.6027    -6299.166    1995.2517   -7663.9965    8503.9015 0.0051023185    0.2956043   0.18473123 
 7394000    478.82872   -7311.2007   -5107.1684   -285.47144   -6215.3155    5424.0376 0.0050999182   0.29560611    0.1847282 
 7396000    488.38385   -7309.0699   -4307.3397   -1626.2185   -4480.2283    6724.0997 0.0050991081   0.29560985   0.18472347 
 7398000    478.05412   -7310.7344   -5666.0319   -1157.6866   -5122.2661    5199.2238 0.0051012418   0.29562293   0.18472852 
 7400000    485.49568   -7310.3803   -4714.4651   -243.15799   -3816.7015    4869.9677 0.0051008067   0.29565223   0.18473621 
 7402000    516.11292   -7311.7683   -6104.9535    669.79652   -3674.6996    2594.8592 0.0050997699   0.29564265   0.18473639 
 7404000    476.53421   -7309.7163   -5850.0655   -2109.3009   -6657.4839    4440.9579  0.005098579   0.29563498   0.18472392 
 7406000    499.86736   -7310.5512   -5192.4133     1883.123   -6399.9895    5464.2151 0.0050970181   0.29563737   0.18473073 
 7408000    497.41939   -7309.9998      -4709.1   -850.98519   -5303.5553    4843.7984 0.0051009959   0.29565268    0.1847327 
 7410000    507.73409   -7309.6685   -4695.1004   -1023.1901   -5187.3633    5345.5718 0.0050988428   0.29565789   0.18472785 
 7412000    497.21096   -7309.1253   -4327.8559    3122.2147   -5660.7818     3832.459 0.0050987261   0.29565468   0.18474158 
 7414000    524.76994   -7309.6833   -6136.9947   -4610.1262   -7220.8516    9560.6453 0.0050965409    0.2956602   0.18473753 
 7416000    514.07525   -7309.0008    -2380.863   -76.687689   -5134.3194    3454.3857  0.005096409   0.29567576    0.1847423 
 7418000    508.76832   -7310.5059   -2636.8566   -905.29277   -6050.2426    7366.4549 0.0050959421   0.29568108    0.1847358 
 7420000    546.16692   -7310.4655   -5473.2453   -2011.8188   -5179.2825    4462.0294  0.005095432   0.29568548   0.18473788 
 7422000    518.02778   -7309.4263    -5072.541      379.465   -4042.2091    5217.0896 0.0050940114   0.29567406    0.1847286 
 7424000    490.52911   -7308.8136   -6041.4744   -793.85116   -8170.7665    5371.0295 0.0050926861   0.29568249   0.18473834 
 7426000    526.76316   -7310.3994   -3137.9693  -0.10669816    -5908.093    3752.1426 0.0050914409   0.29568507   0.18474207 
 7428000    477.62839   -7310.0698   -5548.5366    2393.3392   -8293.2687    4682.5693 0.0050901175    0.2956888   0.18473522 
 7430000    510.92494   -7308.7548    500.25255   -3250.9727   -3357.0732    4139.9787 0.0050902437   0.29569255   0.18472744 
 7432000    486.62642   -7309.5509    -4035.605    504.23281   -7481.2854    6076.4864 0.0050984719   0.29569336    0.1847225 
 7434000    533.74201   -7309.4446   -4478.6612    974.52287   -10434.258    8864.5134 0.0050979122   0.29570504   0.18473676 
 7436000    458.83913    -7310.164   -3835.5166   -2034.6598   -5942.5921    6002.1358 0.0050965863   0.29571371   0.18474227 
 7438000    517.29922   -7310.6123   -2757.7549   -613.04233   -6930.3921    7453.1704 0.0050965932   0.29570525   0.18474327 
 7440000    471.27747    -7308.318   -4406.1619    639.24932   -6778.8968    3480.0029 0.0050952889   0.29571688   0.18473088 
 7442000    521.06997   -7310.7561   -2219.7338    338.57313   -6591.2571    2877.9639 0.0050947196   0.29572055   0.18472068 
 7444000    496.74672   -7310.1919   -3207.1289   -2031.2649   -8185.2572      3608.93 0.0050942535   0.29570531   0.18471468 
 7446000    517.42248   -7309.6105   -6343.2779   -2133.1553    -6522.395    1938.9292 0.0050951066   0.29571177   0.18472149 
 7448000    490.07078   -7309.6252   -4593.3261   -1002.5297   -7484.8954    3431.2973 0.0050940824   0.29571636   0.18473073 
 7450000    526.65684   -7310.0181   -3288.8582   -735.22335   -5230.7313    1691.0168 0.0050931017   0.29572313   0.18473062 
 7452000    507.98383    -7308.751   -5606.0427    336.07329   -6581.7853    3255.5793 0.0050919334   0.29572614   0.18471923 
 7454000    516.04996    -7309.966    -6058.181    868.75199   -6935.1344    3557.3112 0.0050913513    0.2957198   0.18471164 
 7456000    492.55236   -7310.3001   -8996.0453    306.20974   -4549.2143    3957.9802 0.0050906468    0.2957193   0.18470214 
 7458000    487.45534   -7308.9556   -2921.6177   -955.14646    -6565.061    1349.5842 0.0050898619   0.29571443   0.18470157 
 7460000     522.5717   -7308.8915   -5633.8876   -2517.7666   -6419.4068    4144.7304 0.0050902283    0.2957358   0.18469753 
 7462000    473.14793   -7310.3349    -4552.664    -2062.236   -5856.7232    4381.7965  0.005094643   0.29573733   0.18471626 
 7464000    533.44985   -7308.5879   -4893.4493   -758.56114   -5623.5413    3403.6903 0.0050953562   0.29574366   0.18470708 
 7466000    526.87476   -7310.0301   -2483.2368   -3166.9296   -5619.4305    1055.4649 0.0050942816   0.29574312    0.1847114 
 7468000    473.71068   -7309.2789   -5132.0655    1416.9617   -4347.0673    6011.0427 0.0050944359   0.29573963   0.18469979 
 7470000    492.55125    -7310.988   -4966.8313   -2852.2727   -4245.7023    1895.3577 0.0050935292   0.29574355   0.18470059 
 7472000    505.95374   -7309.3472   -3858.0528   -1451.8917   -6098.3197     3981.356 0.0050930321   0.29574997   0.18470002 
 7474000    547.71793   -7309.3058   -5994.4666   -689.60627    -5046.226    1001.9208 0.0050916278   0.29575418   0.18469363 
 7476000     487.0541   -7309.2555    -5911.095   -613.07608   -4869.6126    5697.0681 0.0050906286   0.29575392   0.18469741 
 7478000    480.63198   -7308.4559   -6489.3013   -1084.5527   -3738.1638    3385.8743 0.0050905958   0.29574278   0.18470811 
 7480000    506.21007   -7309.5274    -6658.695    -118.6161   -4596.8989    3898.0648 0.0050895856   0.29574328   0.18469364 
 7482000    495.39897   -7310.1452   -3879.8635    -1511.678   -6907.7919    3810.2215 0.0050887836    0.2957494   0.18468774 
 7484000    477.30066   -7309.9125   -3796.4811   -7704.3634   -8375.2697    8764.6779 0.0050918405   0.29575056   0.18468233 
 7486000    486.81479   -7309.9035   -3272.0486   -443.60096   -7283.7159    3916.2757 0.0050940198   0.29576208   0.18469599 
 7488000    519.39304   -7311.0623   -1826.0988    -2096.337      -7550.8    5816.8595 0.0050927667   0.29575439    0.1846891 
 7490000     481.7548   -7308.2171   -2066.0416   -2830.2739   -7055.8746    4816.2239 0.0050921839   0.29576825   0.18469405 
 7492000    460.65647   -7309.1836   -4498.7069   -1204.4873    -6755.689    6977.2585  0.005091205   0.29578202   0.18469671 
 7494000    504.86127   -7311.1111   -5495.6884    1369.7126   -3377.7497    4883.0824  0.005089741   0.29576402   0.18468806 
 7496000    504.22624   -7309.7647   -6196.5604    -1081.776    -3432.784    7124.4138 0.0050880409   0.29575231   0.18468308 
 7498000    531.68119   -7309.6016   -5689.9386   -1804.2699   -7794.8795    4694.7495 0.0050887773   0.29574338   0.18467647 
 7500000    472.51846   -7309.0093   -8230.6218   -754.72161    -5670.563    4161.5821 0.0050899384   0.29576975   0.18467098 
 7502000    538.72678   -7309.7074   -9808.6389   -1645.8499   -6768.2955    3912.9027 0.0050893949   0.29576995   0.18466875 
 7504000    501.65779   -7309.5452   -6148.6592   -1485.3552   -7233.1713    4635.4832 0.0050907417   0.29576605   0.18467579 
 7506000    527.59275   -7311.0031   -6168.3215   -1124.7575   -8188.8415    4232.1448 0.0050895014    0.2957757   0.18468573 
 7508000    524.09348   -7309.6418   -1868.3864   -1299.0611   -6991.9332    3197.8052 0.0050885372   0.29577529    0.1846763 
 7510000    488.93875   -7309.1737   -3875.2485   -166.32362   -5732.1499    4252.2013  0.005087302   0.29574693   0.18465705 
 7512000    480.42537    -7311.213   -4356.4467   -1165.8921   -4735.2792    4616.3712 0.0050856897   0.29574303   0.18465853 
 7514000    515.06572   -7309.6483   -2987.0657   -1137.0135   -7868.1449     3868.016  0.005084333   0.29574844   0.18467464 
 7516000    514.83761   -7309.8755   -4897.3814    398.86519   -9576.2569    4068.5977 0.0050845986   0.29577748   0.18468997 
 7518000    473.99997    -7310.892   -3658.9651   -2034.4946   -4130.1599    311.33663 0.0050863771   0.29577238   0.18468314 
 7520000    492.28982   -7308.7157    -2085.798    1241.8842   -8509.1016    1667.1506 0.0050851216   0.29576155   0.18466695 
 7522000    487.34666    -7309.009   -1913.3777   -2053.0813   -7334.4514    4068.0523 0.0050837735    0.2957727   0.18466127 
 7524000    490.86968   -7308.4251    -2484.385    -1707.437   -4586.5616    1791.8567 0.0050827917   0.29577119   0.18465785 
 7526000    477.35155   -7309.0787   -3404.2381    1162.4859   -6851.7559    2448.7145 0.0050804029   0.29576823   0.18466774 
 7528000    515.64512   -7309.2843   -2442.5011   -1140.2376   -3908.5928    2413.1342 0.0050787708    0.2957587   0.18466768 
 7530000    519.93865   -7311.4748   -298.45708   -1763.8202   -5196.2007    4155.7067 0.0050778143     0.295772   0.18465611 
 7532000    480.51045    -7310.149   -2314.2453   -1394.7034     -5600.63    3150.1804 0.0050796239    0.2957814   0.18464699 
 7534000    559.74641   -7307.5651    490.78321    866.32148   -5388.0224      6443.67 0.0050794015   0.29578332   0.18463866 
 7536000    497.39443   -7309.3181   -3525.8057    629.19115   -5484.4532     3950.106 0.0050783511   0.29577736   0.18465056 
 7538000    492.98406   -7308.8346   -582.22827    419.58878   -5072.1805    5059.4769 0.0050769937    0.2957899   0.18463525 
 7540000    515.11821   -7309.0425   -2773.5636   -467.62747   -3470.0132    7409.1927 0.0050756281   0.29578323   0.18463122 
 7542000    484.63984   -7311.4069   -4841.4925    1563.0734    -5254.563    3583.9596 0.0050760171   0.29577752   0.18463102 
 7544000    507.75781     -7310.62   -4841.0478    305.89647   -5225.1304    7344.4921 0.0050747176   0.29578671   0.18463017 
 7546000    478.67954    -7308.616   -5560.3699   -1084.2612    -7289.698     3982.919 0.0050736993   0.29578763   0.18464873 
 7548000    453.66803   -7310.1612   -5575.3395   -2223.4681   -6137.8151    5253.7239 0.0050742298   0.29583638   0.18464075 
 7550000    527.25617   -7310.8108   -3904.1364   -626.65362   -3588.8152    3418.8613 0.0050746387    0.2958343   0.18464726 
 7552000    526.37908    -7308.995   -3761.9644    1581.5368    -8356.652    5677.3743 0.0050753657   0.29582388   0.18463725 
 7554000    477.45405   -7308.0899   -2645.8484   -1663.5686    -4265.363    5076.6031 0.0050735948   0.29583344   0.18462327 
 7556000    515.58158   -7307.0414   -4144.4035   -113.84505   -4932.4399    4864.4975 0.0050724567    0.2958343   0.18463676 
 7558000    471.93161   -7310.7745   -3270.8307   -975.06597   -3358.7059     6184.802 0.0050714167   0.29583955   0.18463873 
 7560000    492.76311    -7308.737   -1338.5435   -69.790103   -6545.7264     5861.172 0.0050703818   0.29581868   0.18464974 
 7562000     464.8768   -7309.3921   -3071.6849   -408.85917   -4267.0015    4526.3292 0.0050691278    0.2958406   0.18463435 
 7564000    500.72564   -7309.0791     23.25338   -4123.2003   -7217.7845    5007.5681 0.0050704314   0.29583453   0.18463413 
 7566000    455.78261   -7309.4831    -2214.686   -934.89635   -6462.6248    5061.1146 0.0050692576   0.29584833   0.18463422 
 7568000    483.38499   -7309.4127   -5227.1572    2191.8687   -6231.6659    3959.2554  0.005069642   0.29583814   0.18462787 
 7570000    486.41778   -7308.2776    -3499.309   -412.68439   -6065.8875    3962.4507  0.005068037   0.29583759    0.1846257 
 7572000    504.98625   -7309.1102   -5701.2842    2669.7284   -4551.3918    2423.6326 0.0050665526   0.29584439   0.18462911 
 7574000     497.0092   -7310.8516   -5668.6463   -1701.1399   -9616.4238    4565.0683 0.0050654057   0.29584674   0.18462806 
 7576000    510.24018   -7309.3413    -1718.248   -912.17967   -4925.9957    4899.6686 0.0050667109   0.29584191   0.18461811 
 7578000    470.02526   -7308.1397    -4540.305    1693.0754   -2476.2473    5929.0127 0.0050658811   0.29584867   0.18461823 
 7580000    489.71355   -7309.6587   -567.45196    -1498.408   -4806.3453    5042.7879 0.0050645265   0.29585649   0.18460881 
 7582000    524.15457     -7309.29   -4318.3549    629.33321   -3293.5747    3563.3082  0.005064867   0.29585472   0.18461297 
 7584000    486.99385   -7309.1808    -4758.169    1159.6115   -5444.1242    4664.4998 0.0050637713   0.29586197   0.18462148 
 7586000    466.65137   -7308.8727   -626.12688   -1537.2816   -1527.9398    2796.7945 0.0050633348   0.29586456   0.18461052 
 7588000     509.7979   -7310.3607   -3967.0179    2640.1581   -8257.3656    6303.3526  0.005063609   0.29585597    0.1846133 
 7590000    474.17404   -7309.0666   -3069.0484    563.22773   -7005.8337    3334.4431 0.0050624205   0.29585728   0.18461108 
 7592000    494.92117   -7309.1691   -4622.6618    3183.3441   -4255.4385    6186.5024 0.0050610573   0.29585501   0.18460484 
 7594000    506.26649   -7309.2653   -5440.4695    1855.8383   -6876.2875    3842.6916 0.0050595738   0.29586048   0.18460179 
 7596000    489.94375   -7307.3479   -2675.0105    1106.5582   -6890.7542    2503.5979 0.0050595639   0.29585999   0.18460899 
 7598000    507.40888   -7308.2694   -2711.0724   -547.83132   -6947.5419    3234.1941 0.0050590432   0.29586073   0.18460117 
 7600000    525.25355    -7306.921   -1650.9771    1250.9883   -5896.9831    5953.6069 0.0050602104   0.29587454   0.18460466 
 7602000    549.46394   -7310.0358   -1870.3216    942.25015   -4643.6791     7642.064 0.0050589869   0.29586176   0.18460401 
 7604000     461.5901   -7308.9479    477.82354   -1218.8281   -7060.3967    7583.9081 0.0050593013   0.29587065   0.18460201 
 7606000    498.75255    -7309.733    906.51704   -2194.2591   -5234.3264    1267.0049  0.005057273   0.29586807    0.1846059 
 7608000    506.34495   -7310.4065    1692.0603   -896.85088   -7777.6099    5682.7636 0.0050552552   0.29587055   0.18460198 
 7610000    485.00131   -7309.8188   -1550.3179   -1531.0844   -2766.1372    5133.4104 0.0050543199   0.29588532   0.18459319 
 7612000    470.50556   -7308.1435    865.98457    2498.4293   -6837.2895     6931.965 0.0050552197   0.29588208   0.18460758 
 7614000     504.9145   -7308.6682    1884.1648    -887.6055   -3253.5389    4962.8373 0.0050527593    0.2958924   0.18459747 
 7616000    495.02384   -7307.2603   -976.08813    526.54307    -6172.432    5634.8231 0.0050514228   0.29587817   0.18457909 
 7618000    556.62523   -7308.3848   -1404.1847   -215.73963   -6065.6318    7219.1115 0.0050503024   0.29588569   0.18457124 
 7620000    527.97874   -7311.5741    -7219.566   -377.84381   -7448.0075    4440.4145 0.0050490364   0.29587161   0.18459203 
 7622000    490.28262   -7308.4527   -1708.2069   -1693.1822    -7180.691    3293.3686 0.0050513412   0.29587673   0.18459171 
 7624000    477.48628    -7310.057   -6010.5989    515.04509   -5058.4815    1179.5529 0.0050517893   0.29588677   0.18459708 
 7626000    497.41498     -7309.23   -3619.3695   -2007.8459   -7746.7092    3400.7666 0.0050504193   0.29590146   0.18459154 
 7628000    478.50673    -7309.229   -4712.8974   -121.02075   -3086.1647    3722.5416 0.0050490168   0.29590507   0.18459228 
 7630000    496.91915   -7310.6824   -1348.0509    -605.5922   -5097.1461    4321.9405 0.0050491632   0.29588325   0.18459494 
 7632000    461.96138   -7311.0229    -4675.457     2229.039   -7882.6675    4043.3251 0.0050480837   0.29589311   0.18459061 
 7634000    480.49539   -7310.8398   -4390.7258    522.43804   -3585.0137    6087.1196   0.00504632   0.29589285   0.18459178 
 7636000    528.16428   -7309.5675   -3359.1292    1776.3855   -5646.3557    3728.4006 0.0050474958   0.29590208    0.1845927 
 7638000    550.64105   -7310.4366   -4192.0628    795.72701   -4149.0924    5127.6153 0.0050495919   0.29590362   0.18459003 
 7640000    508.05252   -7309.7199   -5672.6139    2723.0991   -4718.0245    7229.8216 0.0050489951   0.29591373   0.18459941 
 7642000    530.83152   -7311.0152   -4454.4541     758.5379   -6496.1583    3924.5808 0.0050475714   0.29591038   0.18459121 
 7644000    533.42115   -7309.5965   -4525.9975    1240.4409   -5323.2606    5092.7374 0.0050463998   0.29590196   0.18458732 
 7646000     494.2026   -7311.5004   -4935.8203   -857.85849   -6450.9924    7513.3799 0.0050450546   0.29591458   0.18459078 
 7648000     495.4567   -7307.7792   -5412.9716    30.535498   -6347.3105     5797.891 0.0050461473   0.29590348   0.18460223 
 7650000    506.46684   -7308.7183   -1386.5689    174.45182   -6505.6217    2073.9641 0.0050452883   0.29589116   0.18459866 
 7652000    490.38172   -7310.1104   -5494.5032   -3726.6123   -9163.5196    5412.3038 0.0050442554   0.29588487   0.18458867 
 7654000    494.00753   -7310.4153   -1560.1181   -3237.5541   -7167.4793    5781.6961 0.0050480327    0.2959087   0.18459452 
 7656000     543.3661   -7309.8092   -3988.4943   -780.13493   -5108.3227    4601.7688 0.0050482833   0.29592841   0.18459218 
 7658000    513.49584   -7308.1622   -935.03228    1113.4878   -4873.4279      8603.24 0.0050469159   0.29590589   0.18458275 
 7660000    484.98984   -7307.9221   -5360.2047    1881.5139   -4499.6723    5544.4258  0.005047344   0.29589948   0.18457569 
 7662000    490.52238   -7309.7785   -4238.9273    178.41254   -3329.9262    9558.7279  0.005045608    0.2958944   0.18457751 
 7664000    487.51232   -7311.3397   -4689.7427    1344.1455    -5675.206    5881.7822 0.0050442726   0.29590127   0.18459063 
 7666000    487.01107   -7309.6158   -3953.9581   -1079.8392   -4258.4655    5323.6012 0.0050430883   0.29589165   0.18457703 
 7668000    506.92032   -7309.9891   -3457.4286    838.00299   -6094.2208    6481.8221 0.0050426048   0.29589026   0.18457721 
 7670000    527.57059   -7308.1534   -3586.9013   -414.21957   -7684.6093    7605.9592  0.005041925   0.29590713   0.18457864 
 7672000    529.53561   -7311.9228   -3620.8631   -210.74728   -6148.8318    6326.5416 0.0050419782   0.29592841   0.18458754 
 7674000    502.44362    -7309.863   -4126.9014     910.5915   -8528.6246    1429.0351  0.005041386   0.29593213   0.18458817 
 7676000    521.50452    -7309.331   -4167.7465     534.7753   -4440.0539    4745.0421 0.0050402209    0.2959086   0.18457491 
 7678000    496.55341   -7310.3676   -5881.2928   -52.387032    -8119.773    4661.3748 0.0050392577   0.29590842   0.18458406 
 7680000    489.44364    -7309.116   -4505.8694    1287.5492   -5251.9223    5845.7473 0.0050394464   0.29593241   0.18459566 
 7682000    486.74522    -7309.994   -5162.8093   -2575.6749   -6021.3037    5154.1512  0.005037852    0.2959282     0.184593 
 7684000    509.53546   -7309.4783   -4705.9469     -1174.54   -7678.9067    7453.6179 0.0050374301   0.29593923   0.18459312 
 7686000    479.17295   -7308.8957     -5155.75     -988.386   -2966.1349     6513.596 0.0050367716   0.29595215   0.18459097 
 7688000    512.01322   -7309.4162   -4076.9322   -14.675558   -3987.6821    7327.6672 0.0050367235   0.29594859   0.18458109 
 7690000    498.10736   -7310.6434   -5673.6194   -1236.7428   -3852.3601    4367.7812 0.0050352534    0.2959456   0.18458897 
 7692000     491.4733   -7312.8182   -6709.1199    1633.7625   -6418.9129    7080.7134 0.0050339406   0.29593837   0.18458681 
 7694000    498.34846    -7310.353    -7003.407   -1056.2502   -6765.4714    6560.5125 0.0050335948   0.29594604   0.18459646 
 7696000    521.26844   -7308.8513   -5380.3004    2015.1735   -4301.0976    2723.2431 0.0050343223   0.29594116   0.18459953 
 7698000    500.79011   -7308.7381   -4635.1893   -2838.8972   -9706.1284     5394.697 0.0050338283   0.29596172   0.18460135 
 7700000    529.40132   -7310.7469   -4268.9371    889.91772   -7537.7175     2747.641 0.0050322903   0.29598288   0.18459519 
 7702000    535.55148   -7309.4039   -4786.5813   -1937.6501    -6686.007     2387.348 0.0050309472     0.295961    0.1845902 
 7704000    473.64957     -7308.88   -3479.3434    720.09484   -11138.885    3673.6289 0.0050295382   0.29595905   0.18459433 
 7706000    475.48199   -7309.6111   -3959.1491   -3289.2037   -6840.4978    3946.3088  0.005030026   0.29597104   0.18460094 
 7708000    453.79296   -7309.5689   -3472.7837    617.36211   -8487.2587     2976.166 0.0050286877   0.29596605    0.1846017 
 7710000    469.28464   -7308.8087   -5134.7371   -1643.1465   -10092.813    3656.4966 0.0050274504   0.29595456   0.18460937 
 7712000    514.16637   -7309.5091   -4185.3995   -1495.9504   -4347.5203    2743.1011 0.0050264069   0.29597597   0.18460052 
 7714000    484.51613   -7308.6051   -6341.3602    43.548233   -7579.0218    3091.3242 0.0050250359   0.29597109   0.18459399 
 7716000      511.388   -7308.8764   -6473.9956   -773.34148    -5982.703    3942.0541 0.0050249358   0.29597883   0.18459076 
 7718000    482.82449   -7307.2981    -4510.103   -742.20605   -6516.6005    4231.3076 0.0050242304   0.29597714   0.18460371 
 7720000    519.57278   -7309.7971   -6866.0902   -427.34659   -5008.5412    3842.4292 0.0050245251   0.29599878   0.18462121 
 7722000     532.9431   -7310.2293   -6130.1981   -1150.5668   -4076.7783    2768.7258 0.0050250511   0.29598178   0.18461256 
 7724000     501.8553   -7311.1638   -6099.3263     2006.973   -5421.1902    4600.1588  0.005023563   0.29597928   0.18460269 
 7726000    489.76259   -7309.9101   -7927.7478    1375.0487   -7021.9075    1306.6299  0.005022349   0.29598708   0.18459231 
 7728000    486.21117   -7308.8054   -4548.5902   -3005.4405   -7490.7099    4933.2421 0.0050210428   0.29598527   0.18460084 
 7730000    505.03129   -7310.0173   -7787.6823    724.85966   -6969.5513    2581.6938  0.005024863   0.29599896   0.18460323 
 7732000    514.92837   -7308.9202   -7766.9762    2227.0214    -7699.482    5463.4045 0.0050235192   0.29600246   0.18460701 
 7734000    504.63312   -7311.3065   -5425.9766    1288.4433   -3848.5664    6004.5603 0.0050217678    0.2959965   0.18461988 
 7736000      495.613   -7309.5891   -6477.9788   -1436.9887   -4456.4133    3835.7325 0.0050203835   0.29599604    0.1846142 
 7738000    528.68103   -7310.2212   -4941.9624   -1170.7726   -4634.7442    3766.2906 0.0050189563   0.29599311   0.18461236 
 7740000    494.18796   -7309.4493   -4880.3938   -1362.2818   -5032.9196    3749.4909 0.0050179205   0.29600976   0.18459815 
 7742000    528.32767   -7309.3099   -4274.4302    104.82499    -4430.506     3824.378 0.0050188282   0.29602556   0.18459105 
 7744000    502.35011    -7311.427   -5018.2928   -241.62361    -5557.186    6431.5487 0.0050176584   0.29604583   0.18460067 
 7746000    521.10592   -7308.3972   -3175.8014    1748.3953   -4076.2546    2693.0216 0.0050164392   0.29604001   0.18460448 
 7748000    507.67854   -7310.6706   -4720.2434   -1127.1374    -4535.402   -85.489075 0.0050154174   0.29604163   0.18459895 
 7750000    506.97876   -7309.4125   -2669.6989   -352.86177   -6703.7692    3088.1895 0.0050143641   0.29602649   0.18460403 
 7752000    489.67578   -7309.8506   -5051.3939    704.81722   -6410.9332    2861.4466 0.0050136811   0.29603603   0.18459182 
 7754000    531.22233   -7310.7494   -5742.7301   -3017.0692   -7878.8124    4027.3398 0.0050155971   0.29604849   0.18459168 
 7756000    512.60144   -7310.0805    -9269.987   -1242.1914   -5213.2818    5297.3079 0.0050154353   0.29605124   0.18459883 
 7758000    493.93323   -7310.3341   -5748.0255   -1349.6629   -5963.0479    3937.9244 0.0050145882   0.29605443   0.18458271 
 7760000    492.51173   -7308.7556   -10102.632    1048.2714   -4461.5136    5676.8617 0.0050148278   0.29607123   0.18458823 
 7762000    499.55802   -7310.4302   -5171.4184   -2995.5693   -3211.5393    6034.7814 0.0050134578   0.29604852   0.18459701 
 7764000    493.57401   -7309.8377   -4378.5117   -300.23416   -2440.9646     2695.803 0.0050121576   0.29604005   0.18459524 
 7766000     475.0662   -7309.3054    -5260.065    1842.0265   -4976.4142    4471.5706 0.0050103665   0.29603938   0.18458231 
 7768000    501.65434   -7308.7634   -3163.1999   -1846.5627   -5613.4412    5031.5207 0.0050093404   0.29605572   0.18457712 
 7770000    486.65734   -7307.0931   -3155.5771    1419.9412   -7225.2878    5332.2167 0.0050111836   0.29606713    0.1845886 
 7772000    491.90718   -7309.5792   -1852.8925   -2.6628968   -5854.5444     4727.386 0.0050098592   0.29607137   0.18459188 
 7774000    461.95217   -7310.6131   -3331.0955   -1280.8119   -5733.0851     4846.036  0.005008086   0.29606891   0.18458963 
 7776000    456.16545   -7309.7067   -1129.0498   -561.11836   -5053.9078    3516.4084 0.0050078246   0.29606795   0.18458883 
 7778000    524.73972   -7310.7337   -1442.4855   -1621.2718   -7239.7402    8492.3913 0.0050077685   0.29607436    0.1845839 
 7780000    479.58385   -7311.6904   -2480.1861   -418.11704   -7637.2006    1044.0502 0.0050068241   0.29606682   0.18458681 
 7782000    518.31943   -7308.5689    955.21867   -3749.0051   -6767.2283    4626.8664 0.0050054132    0.2960706   0.18458161 
 7784000     493.1451   -7308.6965   -1901.7385   -1827.7427   -8336.2889    1154.6299 0.0050039794   0.29607852   0.18456736 
 7786000    496.26513   -7307.6396   -3894.6678   -3275.8773   -9217.6878    1692.8842 0.0050037599   0.29607566   0.18457261 
 7788000    500.05737   -7309.1945    -1902.758   -535.26789   -6391.2679    4968.1194 0.0050013271   0.29607288   0.18457674 
 7790000    524.39866   -7308.7933   -3553.6201   -2884.9024   -7983.9014    2041.7402 0.0050019177   0.29607302   0.18457721 
 7792000    500.32559   -7309.8162   -1815.4936   -222.64408   -6139.7111     5091.988 0.0050017442   0.29608875   0.18458347 
 7794000    491.04779   -7311.6526   -5973.5276   -2718.5658   -6644.8501    5029.3581  0.005000126   0.29607689   0.18457605 
 7796000    502.50238   -7310.2442   -4491.1894   -1304.9522    -7224.061    4495.7779 0.0049988279   0.29607732   0.18457471 
 7798000    501.50965    -7310.119   -5996.4171   -280.43915    -6052.429    5608.3212 0.0049984781   0.29607968   0.18458767 
 7800000    501.15897   -7308.5072   -4554.8078   -2739.4885   -7550.0199    3427.5766 0.0049976866   0.29610149   0.18459379 
 7802000    495.14665   -7309.8356    -4400.735   -282.97537    -4858.787    7173.7256 0.0049989321   0.29611189   0.18459297 
 7804000     498.6481   -7308.7944   -4891.3147   -435.59509   -7918.3542     1585.225 0.0049986301   0.29610404   0.18457693 
 7806000    514.72781   -7311.0025   -3442.1742   -431.44879   -6456.5182    4113.2813 0.0049977102    0.2961109   0.18456432 
 7808000    531.35105   -7310.9803   -4691.7485    2763.9302   -6524.0804    5400.2109 0.0049991842   0.29610625   0.18455977 
 7810000    512.66949   -7311.3006   -4511.3897   -751.06509   -4302.2856    2408.8755 0.0049971635   0.29609856   0.18457883 
 7812000    505.50692   -7308.5186   -4398.7563   -256.05522   -7888.1033    3953.5397 0.0049993886   0.29610204   0.18457608 
 7814000    515.77889   -7309.6886   -3019.0519   -825.56123    -3335.837    5849.4607 0.0050032652   0.29612969    0.1845759 
 7816000    498.52554   -7310.5976   -4109.9151    19.263496   -4311.3608    4065.0813 0.0050026015   0.29613333   0.18456847 
 7818000    512.64128    -7309.159   -6038.8144     637.8552   -2768.5632    3638.2465 0.0050021054   0.29612235   0.18455876 
 7820000    520.78142   -7309.0775   -3782.1462    1052.5211   -5202.8646    7609.6058 0.0050023766   0.29610559   0.18455603 
 7822000    501.36014   -7310.6722   -3656.3423   -277.09959    -6796.939    5323.4829 0.0050036639    0.2961073   0.18455831 
 7824000    475.21605   -7312.0067    193.30301   -2097.7345   -5011.2112     4688.343 0.0050025806   0.29610632   0.18455774 
 7826000    494.94444   -7309.7418     131.2067     -755.705   -6484.5138    4417.1555 0.0050020421   0.29611009   0.18456044 
 7828000    502.93637   -7311.5164   -1847.0593   -3160.5606   -6357.9419     2971.294 0.0050016368    0.2961238   0.18455807 
 7830000    500.57773   -7308.9188   -52.589864   -3233.9446   -7645.4155    4724.7585 0.0050034378   0.29612368   0.18455081 
 7832000    516.18245   -7308.6956   -3873.0982     -596.739   -5484.8178    4877.7765 0.0050018753   0.29613509   0.18455836 
 7834000    485.07236   -7309.5674   -2989.5563   -791.33154   -6276.6751    6109.1954 0.0050006583    0.2961365   0.18454682 
 7836000    509.07342   -7309.6449   -4933.0437    -2205.869   -5560.4489    5038.7991 0.0049994126   0.29612685   0.18456379 
 7838000    524.58818   -7311.3634   -3544.4716   -286.46574   -3416.7596    4377.8054 0.0049991867   0.29611929   0.18456385 
 7840000     463.3246   -7309.1894   -5808.4593    2459.0179   -6388.2486    3131.9986 0.0049981304   0.29613316   0.18456371 
 7842000    504.26691    -7311.641   -6129.3025   -94.575781   -4918.7467    6142.9605 0.0049979799    0.2961284   0.18455415 
 7844000      488.531   -7307.1378   -5939.0749   -701.03332   -5175.0801    6133.7473 0.0049965929   0.29612967    0.1845554 
 7846000    487.37086   -7309.1129    -5402.875    1175.5617   -5000.1912    6396.3407 0.0049952636   0.29612752   0.18456089 
 7848000    544.99528   -7308.6345   -3296.8683    96.655791   -4942.1766    5210.5212 0.0049939106   0.29614855   0.18456417 
 7850000    492.39388   -7309.7034   -3793.0254   -1031.7346   -4642.0514     6176.075 0.0049986963   0.29614467   0.18455502 
 7852000    535.50174   -7308.3791   -3510.6541   -807.54304   -5889.5997    6920.2936  0.005000217   0.29614479   0.18455971 
 7854000    502.20688   -7309.7163   -1326.7214    129.59316   -5933.7904    4805.6892 0.0049997544   0.29614336   0.18455914 
 7856000    431.09786   -7308.2975   -1910.8795   -2195.2201   -8075.2789    4022.4397 0.0050003661   0.29613884   0.18456162 
 7858000    489.65549   -7309.3435    1842.3573   -3648.0275   -7907.9141    5251.9461 0.0049996509   0.29614829   0.18455341 
 7860000    506.76074     -7311.05   -1195.5124   -737.44862   -4045.7394    5825.2354 0.0049995481   0.29615206   0.18454601 
 7862000    461.89327    -7309.875   -271.16882   -2444.5105   -6914.7579    3447.1205  0.004998292   0.29616222   0.18455556 
 7864000    508.86919   -7310.9702    371.10251   -2650.9767   -6308.8935    3659.0488 0.0050019501   0.29615661   0.18454966 
 7866000    484.77582   -7310.0039   -2264.1975    955.56717   -5452.4901    3161.5949 0.0050008541   0.29615191   0.18454608 
 7868000    499.51645   -7311.6158   -2084.9821    968.83228   -6913.0146    3714.8255 0.0050006705   0.29615755   0.18454618 
 7870000    466.34151   -7308.5047   -3126.9026   -599.86186   -6445.3863    4997.4084 0.0050002411   0.29615592   0.18456484 
 7872000    516.60064   -7308.5634   -3334.9009    1149.7498   -4907.8456     5509.134 0.0049993903   0.29615991   0.18455285 
 7874000    480.21039   -7309.3468   -4530.9331    727.57789   -7766.7034    6927.3531 0.0049985193   0.29616356   0.18455202 
 7876000    517.85991   -7308.8391   -795.99905    -3501.079   -4685.4013    5866.0397 0.0049982247    0.2961769   0.18454306 
 7878000    497.46935   -7309.3712    -4340.097   -2197.6543   -9299.9654    6941.9718 0.0050018104   0.29617279   0.18454333 
 7880000    480.29994   -7309.1034   -1620.7715    102.65655   -5943.1379     5726.436 0.0050008146   0.29617816   0.18453567 
 7882000     468.1146   -7308.7713   -1555.1739    -1776.022   -9801.5428    5152.5887 0.0050009582   0.29616653   0.18454083 
 7884000    479.19525   -7312.1672   -2628.0797   -910.68178   -6183.4737    3944.4117 0.0049993954   0.29616587   0.18454501 
 7886000    548.92688   -7311.1078   -1897.1802   -1713.9058   -8184.3283    6235.0794 0.0050014617   0.29617841   0.18454156 
 7888000    496.37126   -7310.0404   -3854.4964    72.379149   -9172.3339    2724.7085 0.0050009583   0.29619051   0.18453681 
 7890000    510.13148   -7309.2984   -4019.2307   -444.93872   -5997.3535    4375.7016 0.0049995562   0.29619748   0.18453184 
 7892000    538.20287     -7307.61   -7013.3844    2684.0643   -8326.4145    3069.9089 0.0049983116   0.29618416   0.18453525 
 7894000    514.70369   -7311.9856   -4748.6272   -126.34396   -5344.4279    7507.6865 0.0049970947   0.29617283   0.18454706 
 7896000    491.54487   -7310.2343   -5305.3247    1845.8463   -5986.1527    3843.2165 0.0049961142    0.2961798   0.18454551 
 7898000    492.54697   -7309.9873   -857.11431   -1714.5114   -6309.6956    1033.9194 0.0049952898   0.29619014   0.18453878 
 7900000     499.3206   -7309.5707   -4379.9764   -779.08721   -3028.9585    1961.5803 0.0049944047   0.29618154   0.18451656 
 7902000    519.97417    -7309.572   -4030.9017   -1714.1687   -5626.3144    4916.6141 0.0049959514    0.2961876   0.18451883 
 7904000    481.85953    -7309.379   -5515.7141   -1569.7256   -7709.4226    4032.1393 0.0049952449   0.29618413   0.18453223 
 7906000     500.6297   -7309.9066   -3901.6979    -1359.071   -6134.0426    3870.7563   0.00499432   0.29619693   0.18453802 
 7908000    488.09907   -7310.1566   -3021.8215    458.53614   -8081.0775    3916.9966 0.0049932356   0.29620322   0.18452805 
 7910000    465.14811   -7310.5613   -4129.8715   -1080.7656   -3688.1776    1907.4304 0.0049922302   0.29620608   0.18451055 
 7912000    514.45791   -7310.3911   -6276.5818    2290.9518    -7750.278    5799.4772  0.004992158   0.29619922   0.18450237 
 7914000    468.82407   -7309.5881   -7636.3248   -78.613555   -3056.5772    5117.9618 0.0049910074   0.29619468   0.18452092 
 7916000    502.51887   -7308.0016    -7130.316    1387.8929   -5068.5021     6510.378  0.004989543   0.29618591   0.18451989 
 7918000    486.85593   -7310.9466   -7696.5165    1266.4346   -6033.0186    4576.0998 0.0049882793   0.29618771   0.18452637 
 7920000    518.35325   -7309.6966    -7714.094    1384.9307   -4687.9082    6317.6798 0.0049883367   0.29619556   0.18452996 
 7922000    508.93667    -7310.721   -5329.1376    1735.0471   -4245.6841    5550.2002 0.0049886948   0.29621252   0.18451637 
 7924000    503.35302   -7309.7378   -4262.1274    883.48816   -4631.9356    8053.8267 0.0049876744   0.29619719   0.18451523 
 7926000    504.98549   -7310.3556   -4690.1733    1348.4116   -6952.9317    4654.2578 0.0049865032   0.29618726    0.1845107 
 7928000    488.78769   -7308.4145   -5272.0886   -442.51201   -5824.8078    7628.4869 0.0049860508   0.29620406    0.1845082 
 7930000    490.05839   -7309.7715   -4884.3756    -2024.336   -8023.3999    6650.5647 0.0049863218   0.29621815   0.18451861 
 7932000    508.87684   -7311.3848   -5235.8423    -171.6909   -6020.3398    5234.8766  0.004986211   0.29622178    0.1845268 
 7934000    496.83992    -7311.394   -3873.7449    63.637288    -6860.372    5549.2728 0.0049849522   0.29620187   0.18452422 
 7936000    528.17053    -7307.347   -6117.8813    2385.5479   -9065.7632    6287.8254 0.0049831703   0.29621085   0.18451386 
 7938000     518.4853   -7312.0699   -4229.0095    3677.9299   -6491.3698      6091.39 0.0049824192   0.29623234    0.1845165 
 7940000    504.42415   -7310.6342   -2781.9573    178.25977   -5855.4016    3880.8005 0.0049802525   0.29620668    0.1845075 
 7942000    496.76691    -7309.183   -4778.6208    349.47972   -4451.8158    7649.2988 0.0049797941   0.29621091   0.18450982 
 7944000    529.33501   -7309.2472   -2032.2874    1021.1498   -5691.5036    4517.5756 0.0049804401   0.29621509   0.18452968 
 7946000    481.66902    -7309.778   -4440.7903   -794.19563   -5617.3633    3589.5148 0.0049807943   0.29623289    0.1845334 
 7948000    494.08597   -7310.9785    389.97834   -2094.3462    -3793.166    7828.5378 0.0049819205    0.2962242   0.18451537 
 7950000    463.49607   -7307.5257   -5093.3995    1191.6098   -7129.4591    4338.7821 0.0049802022    0.2962121   0.18450843 
 7952000    506.43467   -7310.1832   -1514.3483    760.10527   -5950.2105    9393.1098 0.0049802073   0.29622102   0.18451533 
 7954000    472.80742   -7310.6651   -6601.2076    523.65807    -5549.144    4627.9357 0.0049790469   0.29622906   0.18452226 
 7956000    481.33838   -7310.0966   -4876.7242    726.34375   -6724.1041     5221.989 0.0049777578   0.29620491   0.18453399 
 7958000    507.26094   -7310.0022   -6688.4869   -1002.2778   -4692.4064    1946.2545 0.0049794667   0.29620479   0.18453111 
 7960000    512.70164   -7309.3462   -6285.9913    2511.6495   -6318.6809     4158.904 0.0049804673   0.29622893   0.18452152 
 7962000    494.79104   -7307.5657   -6394.4318    1941.8569   -6485.8814    3810.4022 0.0049795277   0.29622298   0.18452162 
 7964000    533.20722   -7309.2468   -6554.8156    2136.5658   -6132.9219    3408.5915 0.0049783255   0.29621617   0.18453746 
 7966000    485.35511   -7310.7569   -3906.2309   -285.75601   -8583.6623    6700.6624 0.0049778889     0.296212   0.18453625 
 7968000    486.70841   -7309.2672   -5221.7154     653.8926    -6118.361    1988.5596 0.0049806252   0.29622196   0.18453617 
 7970000    508.04141   -7309.2691   -3719.9753    2108.3728   -7026.5214    7037.9297 0.0049792072   0.29622764   0.18452709 
 7972000    466.73023   -7311.5402   -4995.9806   -1463.7186   -4119.8413    3240.4465  0.004978058   0.29621961   0.18452076 
 7974000    523.21064   -7308.8042   -4332.2071    -82.76235   -9587.5927    4684.1348   0.00497775   0.29621559   0.18451477 
 7976000    489.71232   -7307.3619   -4710.6396    943.16475   -4007.0251    6177.1419 0.0049772664   0.29623177    0.1845163 
 7978000    511.45677   -7309.4423   -2275.9707    810.90428   -4548.2246    4851.3579 0.0049753722   0.29623458    0.1845293 
 7980000    494.57828    -7309.416   -2916.0929     -949.967   -5034.8785    3524.3482  0.004975302    0.2962284   0.18451711 
 7982000    468.95109   -7308.7571   -6005.6747   -117.34336    -4590.357    5589.2218 0.0049789331   0.29623603   0.18453159 
 7984000    473.90878   -7308.3027   -4935.1052    1858.5684   -8995.1523    2079.4298 0.0049786009   0.29624432   0.18453838 
 7986000    493.89899   -7309.6885   -3651.1758   -34.575107   -4495.3654    7146.9774 0.0049775567   0.29625987    0.1845381 
 7988000     460.0719   -7309.1135   -3446.4965     1658.638   -6818.0124    950.98122  0.004976261   0.29624182   0.18453651 
 7990000    486.53005   -7308.2872   -3421.9649    1040.6865   -7867.9281    3732.9313 0.0049759577   0.29623085   0.18451384 
 7992000    521.97607   -7310.3635   -1460.0708   -119.85616   -6429.8744    5887.7319 0.0049748862   0.29625218   0.18450692 
 7994000    495.69479   -7308.9854   -3108.5217   -185.67139   -8197.4142    2212.2635 0.0049774401   0.29626335   0.18451803 
 7996000    503.90693   -7307.3136    2427.6104   -530.96713   -3113.4222    1184.2028 0.0049806388   0.29626403   0.18451924 
 7998000    502.70688   -7309.5581   -4565.6071    3200.4781   -7099.8253    2908.5107 0.0049794085   0.29625822   0.18451418 
 8000000    485.54293   -7309.7757   -423.23029    1319.4112   -5296.9285    3409.8963 0.0049784453   0.29626961   0.18451788 
Loop time of 429338 on 1 procs for 8000000 steps with 400 atoms

Performance: 0.080 ns/day, 298.152 hours/ns, 18.633 timesteps/s
96.5% CPU use with 1 MPI tasks x no OpenMP threads

MPI task timing breakdown:
Section |  min time  |  avg time  |  max time  |%varavg| %total
---------------------------------------------------------------
Pair    | 4.2873e+05 | 4.2873e+05 | 4.2873e+05 |   0.0 | 99.86
Bond    | 121.97     | 121.97     | 121.97     |   0.0 |  0.03
Neigh   | 0.3886     | 0.3886     | 0.3886     |   0.0 |  0.00
Comm    | 299.75     | 299.75     | 299.75     |   0.0 |  0.07
Output  | 3.7064     | 3.7064     | 3.7064     |   0.0 |  0.00
Modify  | 106.34     | 106.34     | 106.34     |   0.0 |  0.02
Other   |            | 80.3       |            |       |  0.02

Nlocal:    400 ave 400 max 400 min
Histogram: 1 0 0 0 0 0 0 0 0 0
Nghost:    7061 ave 7061 max 7061 min
Histogram: 1 0 0 0 0 0 0 0 0 0
Neighs:    186019 ave 186019 max 186019 min
Histogram: 1 0 0 0 0 0 0 0 0 0

Total # of neighbors = 186019
Ave neighs/atom = 465.048
Ave special neighs/atom = 1.5
Neighbor list builds = 68
Dangerous builds = 0
variable     ndens equal count(all)/vol
print        "average viscosity: $v [Pa.s] @ $T K, ${ndens} /A^3"
average viscosity: 0.161921978143812 [Pa.s] @ 500 K, 0.00679845905000744 /A^3
Total wall time: 121:40:22
