LAMMPS (22 Aug 2018)
##
dimension 3
boundary p p p
atom_style full
units metal
kspace_style pppm/cg 1.0e-4
kspace_modify pressure/scalar no
bond_style harmonic
angle_style harmonic

neighbor 2.0 bin
neigh_modify delay 0 every 1 check yes page 500000 one 50000

region box1 block -40.0 40.0 -40.0 40.0 -40.0 40.0
create_box 4 box1 bond/types 2 extra/bond/per/atom 2 angle/types 1 extra/angle/per/atom 1 extra/special/per/atom 10
Created orthogonal box = (-40 -40 -40) to (40 40 40)
  1 by 1 by 1 MPI processor grid

molecule cat_ion cation_mol.txt
Read molecule cat_ion:
  3 atoms with max type 4
  2 bonds with max type 2
  1 angles with max type 1
  0 dihedrals with max type 0
  0 impropers with max type 0

mass    1  86.81 #anion
mass    2  67.07 #ring
mass    3  15.04 #methyl
mass    4  29.07 #ethyl

create_atoms 1 random 40 1340 box1                     #at least 40
Created 40 atoms
  Time spent = 0.00141191 secs
create_atoms 0 random 40 2345 box1 mol cat_ion 1234    #at least 40
Created 120 atoms
  Time spent = 9.39369e-05 secs
#create_atoms 1 single  10.0 0.0 0.0
#create_atoms 0 single 0.0 0.0 0.0 mol cat_ion 1234
group anion type 1
40 atoms in group anion
group ring type 2
40 atoms in group ring
group methyl type 3
40 atoms in group methyl
group ethyl type 4
40 atoms in group ethyl

bond_coeff 1 207.729 2.689748837
bond_coeff 2 207.729 3.04931147
angle_coeff 1 207.729 144.1868904


## -- INTERATOMIC POTENTIALS -- #
pair_style lj/cut/coul/long 18.0
pair_modify mix geometric
#pair_style nm/cut/coul/long 18.0
################### properties to change
## values from easy begin

pair_coeff 1 1 0.03358 4.51
pair_coeff 2 2 0.026533 4.38
pair_coeff 3 3 0.0037311 3.41
pair_coeff 4 4 0.012852 4.38

#create_bonds single/bond 1 2 3
#create_bonds single/bond 2 2 4
#create_bonds single/angle 1 3 2 4

set type 1 charge -0.78
  40 settings made for charge
#set type 2 charge  0.408675
#set type 3 charge  0.317505
#set type 4 charge  0.273820

########################################

write_data solid.data pair ij
PPPM initialization ...
  using 12-bit tables for long-range coulomb (../kspace.cpp:321)
  G vector (1/distance) = 0.103821
  grid = 10 10 10
  stencil order = 5
  estimated absolute RMS force accuracy = 0.00106761
  estimated relative force accuracy = 7.41413e-05
  using double precision FFTs
  3d grid and FFT values/proc = 3375 1000
Neighbor list info ...
  update every 1 steps, delay 0 steps, check yes
  max neighbors/atom: 50000, page size: 500000
  master list distance cutoff = 20
  ghost atom cutoff = 20
  binsize = 10, bins = 8 8 8
  1 neighbor lists, perpetual/occasional/extra = 1 0 0
  (1) pair lj/cut/coul/long, perpetual
      attributes: half, newton on
      pair build: half/bin/newton
      stencil: half/bin/3d/newton
      bin: standard

thermo_style	custom step temp pe ke ebond press density

##################################
variable    T equal 400
variable    V equal vol
variable    dt equal 0.001  # default
variable    p equal 400     # correlation length
variable    s equal 5       # sample interval
variable    d equal $p*$s   # dump interval
variable    d equal 400*$s   
variable    d equal 400*5   

# convert from LAMMPS real units to SI

variable    kB equal 1.3806504e-23    # [J/K/** Boltzmann
variable    bar2Pa equal 100000.0
variable    A2m equal 1.0e-10
variable    ps2s equal 1.0e-12
variable    convert equal ${bar2Pa}*${bar2Pa}*${ps2s}*${A2m}*${A2m}*${A2m}
variable    convert equal 100000*${bar2Pa}*${ps2s}*${A2m}*${A2m}*${A2m}
variable    convert equal 100000*100000*${ps2s}*${A2m}*${A2m}*${A2m}
variable    convert equal 100000*100000*1e-12*${A2m}*${A2m}*${A2m}
variable    convert equal 100000*100000*1e-12*1e-10*${A2m}*${A2m}
variable    convert equal 100000*100000*1e-12*1e-10*1e-10*${A2m}
variable    convert equal 100000*100000*1e-12*1e-10*1e-10*1e-10
timestep    ${dt}
timestep    0.001
variable    tdamp equal ${dt}*10.
variable    tdamp equal 0.001*10.
variable    pdamp equal ${dt}*100.
variable    pdamp equal 0.001*100.
thermo      $d
thermo      2000

variable    ILdens equal density
variable    ILstep equal step
variable    ILtime equal time*1.0e-12 #from ps to s
variable    ILtemp equal temp
variable    ILpe equal pe
variable    ILke equal ke
variable    ILpr equal press

##################################
fix         333 all print 2000 "${ILstep} ${ILtime} ${ILdens} ${ILtemp} ${ILpr} ${ILpe} ${ILke}" file density.dat screen no
dump        1 all dcd $d minim.dcd
dump        1 all dcd 2000 minim.dcd
dump        2 all custom $d dump.atom id mass type x y z
dump        2 all custom 2000 dump.atom id mass type x y z

##################################
##################################
#  Minimize initial
##################################

velocity     all create $T 502844619  mom yes rot yes dist gaussian
velocity     all create 400 502844619  mom yes rot yes dist gaussian
minimize 1.e-4 1.0e-6 1000 10000
PPPM initialization ...
  using 12-bit tables for long-range coulomb (../kspace.cpp:321)
  G vector (1/distance) = 0.103821
  grid = 10 10 10
  stencil order = 5
  estimated absolute RMS force accuracy = 0.00106761
  estimated relative force accuracy = 7.41413e-05
  using double precision FFTs
  3d grid and FFT values/proc = 3375 1000
  PPPM/cg optimization cutoff: 1e-05
  Total charged atoms: 100.0%
  Min/max charged atoms/proc: 100.0% 100.0%
Per MPI rank memory allocation (min/avg/max) = 11.73 | 11.73 | 11.73 Mbytes
Step Temp PotEng KinEng E_bond Press Density 
       0          400    8400890.1    8.2209452   0.58297596 1.051608e+08  0.025685164 
     382          400   -53.273597    8.2209452 0.0029246214   -15.355637  0.025685164 
Loop time of 0.299465 on 1 procs for 382 steps with 160 atoms

83.2% CPU use with 1 MPI tasks x no OpenMP threads

Minimization stats:
  Stopping criterion = energy tolerance
  Energy initial, next-to-last, final = 
         8400890.10824     -53.2686211541     -53.2735974251
  Force two-norm initial, final = 1.48053e+08 2.47445
  Force max component initial, final = 6.53831e+07 1.10191
  Final line search alpha, max atom move = 0.115668 0.127455
  Iterations, force evaluations = 382 702

MPI task timing breakdown:
Section |  min time  |  avg time  |  max time  |%varavg| %total
---------------------------------------------------------------
Pair    | 0.022541   | 0.022541   | 0.022541   |   0.0 |  7.53
Bond    | 0.0044365  | 0.0044365  | 0.0044365  |   0.0 |  1.48
Kspace  | 0.266      | 0.266      | 0.266      |   0.0 | 88.83
Neigh   | 0.0014377  | 0.0014377  | 0.0014377  |   0.0 |  0.48
Comm    | 0.0017414  | 0.0017414  | 0.0017414  |   0.0 |  0.58
Output  | 0          | 0          | 0          |   0.0 |  0.00
Modify  | 0          | 0          | 0          |   0.0 |  0.00
Other   |            | 0.003304   |            |       |  1.10

Nlocal:    160 ave 160 max 160 min
Histogram: 1 0 0 0 0 0 0 0 0 0
Nghost:    350 ave 350 max 350 min
Histogram: 1 0 0 0 0 0 0 0 0 0
Neighs:    931 ave 931 max 931 min
Histogram: 1 0 0 0 0 0 0 0 0 0

Total # of neighbors = 931
Ave neighs/atom = 5.81875
Ave special neighs/atom = 1.5
Neighbor list builds = 16
Dangerous builds = 0

reset_timestep 0
fix 1 all npt temp $T $T ${tdamp} iso 1.0 1.0 ${pdamp}
fix 1 all npt temp 400 $T ${tdamp} iso 1.0 1.0 ${pdamp}
fix 1 all npt temp 400 400 ${tdamp} iso 1.0 1.0 ${pdamp}
fix 1 all npt temp 400 400 0.01 iso 1.0 1.0 ${pdamp}
fix 1 all npt temp 400 400 0.01 iso 1.0 1.0 0.1
run             200000
PPPM initialization ...
  using 12-bit tables for long-range coulomb (../kspace.cpp:321)
  G vector (1/distance) = 0.103821
  grid = 10 10 10
  stencil order = 5
  estimated absolute RMS force accuracy = 0.00106761
  estimated relative force accuracy = 7.41413e-05
  using double precision FFTs
  3d grid and FFT values/proc = 3375 1000
Per MPI rank memory allocation (min/avg/max) = 10.6 | 10.6 | 10.6 Mbytes
Step Temp PotEng KinEng E_bond Press Density 
       0          400   -53.273597    8.2209452 0.0029246214   -15.355637  0.025685164 
    2000    397.74887   -105.27381    8.1746792  0.054043656    2912.5343   0.54869605 
    4000    374.41683     -115.695    7.6951505   0.13691811    7040.0471   0.79822711 
    6000     350.1577   -119.91456    7.1965682  0.031669943    2560.1001   0.98065828 
    8000    396.02315   -121.23247    8.1392116   0.14965251   -13020.437    1.0734094 
   10000    440.21411   -121.79483    9.0474403   0.10389206   -10949.489    1.0610478 
   12000    393.61958   -123.07638    8.0898125  0.019191475     1784.677    1.0632484 
   14000    416.42992    -122.9428    8.5586188   0.10824548    9157.7827    1.1015335 
   16000    379.15144   -123.16548     7.792458  0.013558982   -1751.0965    1.1115318 
   18000    408.98453   -122.55584    8.4055985   0.13304959    -11628.94    1.0735574 
   20000    447.37771    -122.6015    9.1946692  0.019785481    1614.3259     1.133506 
   22000    341.25359   -122.12711    7.0135676  0.074443418    8856.4887    1.1433256 
   24000    413.71956   -121.62267    8.5029146  0.010405229    591.39117     1.086077 
   26000    442.97964    -120.5761    9.1042783   0.16693691   -13161.599    1.0454808 
   28000    393.06187    -122.1697    8.0783504  0.060200989   -7858.2068     1.122211 
   30000     385.9432   -121.18117    7.9320447  0.095727137    8514.2616    1.0640316 
   32000    383.96322   -122.22179    7.8913515   0.36877008     19380.99     1.118493 
   34000    419.30016   -122.49281     8.617609  0.011147785   -2488.5731    1.1026531 
   36000    367.37932   -122.57617    7.5505132    0.2246695   -16336.106    1.1100237 
   38000    381.03693   -122.80425    7.8312092  0.033980697   -5471.5247    1.0877923 
   40000    357.82312   -123.79945    7.3541107   0.10032776    9074.5173    1.1353444 
   42000     385.9074   -122.86838     7.931309  0.085296572    8435.1137    1.1081154 
   44000    388.36631   -121.89214    7.9818455  0.095188559   -10573.855    1.0777177 
   46000     391.0988   -121.96259    8.0380046  0.060797484    -8410.439    1.0724212 
   48000    431.53332   -123.13072    8.8690295  0.087925203     7098.997    1.0822819 
   50000     412.2936   -121.07785    8.4736078   0.20998639    13401.538    1.0707347 
   52000    427.08494   -122.27564    8.7776048  0.035789368   -5516.3749    1.1034307 
   54000    388.47549    -121.2957    7.9840892   0.10039076   -11511.249    1.0777609 
   56000    481.78777   -123.76565    9.9018772  0.015181055    1216.1386    1.1478359 
   58000    417.34837   -120.96184    8.5774952   0.21998391    13297.371    1.0493247 
   60000    396.89642   -122.64461    8.1571594  0.070045703    7096.2957    1.0997685 
   62000    393.23015   -123.22588    8.0818088   0.11925489   -11705.685     1.115796 
   64000    394.00638   -122.53711    8.0977622   0.06557347   -8042.9174    1.1073833 
   66000    394.79223   -122.63353    8.1139132  0.073357393    7433.6056    1.1078178 
   68000    402.81104   -123.90519    8.2787188  0.097852015    9132.3799    1.1209074 
   70000    440.05752   -121.63002    9.0442219   0.13800984   -12612.842    1.0710112 
   72000    417.65085   -121.85138     8.583712   0.20463923   -15007.411    1.0779115 
   74000    409.68111   -122.10612    8.4199148  0.054925925    5973.2057    1.1058244 
   76000    398.37942   -122.75509    8.1876384   0.13127465    11210.116    1.1168533 
   78000    387.68421    -122.7347    7.9678266  0.013993384   -67.527837    1.1127842 
   80000    376.43335   -122.06257    7.7365949  0.094056571   -10767.145    1.0811527 
   82000    394.20451   -122.70155    8.1018341  0.013249306   -2330.9877    1.0980289 
   84000    379.82847   -122.57786    7.8063725   0.13177515    10277.882    1.1253395 
   86000    360.74305   -122.55801    7.4141221  0.020080563    2031.6013    1.1431221 
   88000    415.22061   -123.07224    8.5337648  0.080819017   -10088.994    1.0836991 
   90000    413.33442   -121.21277    8.4949991   0.21230276   -15711.597    1.0749794 
   92000    375.56729   -121.99319    7.7187953  0.026710945    1878.7271    1.0962239 
   94000    392.59922   -121.27563    8.0688417   0.34826237    18290.318    1.0732749 
   96000    426.50987   -121.78725    8.7657857  0.057267515    5624.4824     1.066063 
   98000    395.00103   -122.84689    8.1182046   0.18757539   -15119.773    1.1037468 
  100000    389.59183   -120.64654    8.0070328   0.25856494    -16990.97     1.037105 
  102000     366.2889    -121.4131    7.5281024   0.17198036    11093.597    1.0496941 
  104000    337.29892   -122.10556    6.9322899   0.29857049    16292.897    1.0801745 
  106000    416.28229   -122.76904    8.5555847  0.036409594    3377.8711     1.116061 
  108000    412.75482   -122.47319    8.4830869   0.43024914   -22113.667    1.1080747 
  110000    379.39925    -121.1479    7.7975512   0.11798916   -11555.207    1.0760747 
  112000    416.53252    -120.3992    8.5607277  0.051871125    5187.2387    1.0363934 
  114000    392.41509   -123.18923    8.0650575   0.16195803    12013.651    1.1250476 
  116000     386.9128   -123.17406    7.9519723  0.037859789   -6675.7315    1.0918244 
  118000    367.54709   -123.50356    7.5539612   0.11183839   -11099.067    1.1364975 
  120000    398.46435   -122.22861     8.189384   0.04049808    4545.2438    1.1099673 
  122000    386.20277   -120.92702    7.9373796   0.21674571    12807.968    1.0596021 
  124000    426.80161    -123.9237    8.7717817  0.013360611   -2349.6283     1.118984 
  126000    416.17602   -121.59352    8.5534007  0.078624801   -8424.6952    1.0850699 
  128000    447.74567   -122.86955    9.2022315  0.033369984     3333.939    1.1159986 
  130000    386.03304   -122.72832    7.9338911    0.1607015    11837.067    1.1039532 
  132000    409.57496   -121.08168    8.4177333  0.022126548    -4424.634    1.0516659 
  134000    394.65321   -121.18029     8.111056  0.078917235   -9167.9356    1.0553127 
  136000    422.12175   -121.13121    8.6755995  0.021842229    1487.4964    1.0499308 
  138000    436.27518   -122.42777    8.9664858   0.22632279    14666.174    1.1181797 
  140000    405.34527   -122.28179    8.3308032  0.058994774    6162.0704     1.117151 
  142000    406.05476   -121.46847    8.3453849   0.23191401   -17250.943    1.0822854 
  144000    358.53982   -121.44165    7.3688406  0.078639268   -9406.2714    1.0778248 
  146000    455.68129   -123.87034    9.3653273  0.056401186    6581.0855    1.1374201 
  148000    424.76504   -122.41284    8.7299253   0.20205458     13399.68    1.1011834 
  150000    386.03003   -122.58201    7.9338293  0.060347709   -8505.3687    1.0701512 
  152000    432.62875   -122.09521    8.8915432   0.19557138   -14698.887    1.0822145 
  154000    355.45282   -123.33118    7.3053955  0.027628245    3004.7064    1.1343088 
  156000    389.73255   -122.23396    8.0099249    0.3338803    17526.973    1.0940035 
  158000    367.61387   -123.17399    7.5553337  0.020643309   -2683.1485    1.1363943 
  160000    433.34187   -121.97911    8.9061994   0.34219636   -18934.624    1.1074916 
  162000    423.13397   -121.57534    8.6964031  0.025680394   -4247.4298    1.0776451 
  164000      398.061    -121.8375    8.1810943   0.12391828    10901.015    1.1032934 
  166000    434.42752   -122.83214    8.9285121  0.031479578     3147.467    1.0824303 
  168000    432.94668   -123.42489    8.8980774   0.10400207   -10616.059    1.1288957 
  170000    380.64546    -122.6152    7.8231637  0.040002575   -6502.4109    1.0699916 
  172000    403.55222   -123.83937    8.2939516  0.044328542    5292.7128    1.1390192 
  174000      348.549   -122.58406    7.1635056  0.052624237    6579.1171    1.1332891 
  176000      357.941   -119.61731    7.3565335   0.17194588   -13695.683    1.0542744 
  178000    386.57529   -123.68322    7.9450356   0.11190985   -11609.089    1.1167806 
  180000    375.58058   -122.23441    7.7190685  0.062879091    7050.4425    1.1160901 
  182000    380.45411   -121.99408     7.819231   0.22963186     14074.96    1.0888538 
  184000    431.51397   -122.22381    8.8686318  0.017764292    870.84318    1.0878319 
  186000    386.45487   -121.63827    7.9425607   0.28458804   -17952.131    1.0821591 
  188000    362.79269   -122.75439    7.4562471  0.032521443   -5665.5277    1.0897263 
  190000    390.52861   -121.80915    8.0262858   0.17270695    13011.774    1.1186115 
  192000    420.68313   -123.34398    8.6460325   0.12320973    9415.3438    1.1005161 
  194000     394.1158   -123.39087     8.100011   0.06400464   -8469.7165    1.1007007 
  196000    396.00441   -123.49268    8.1388264   0.13211839   -12785.665    1.1123909 
  198000    364.99793   -122.85062    7.5015699   0.19244357    14212.882    1.1360215 
  200000    382.08182   -122.48899    7.8526844   0.12693807    10717.454     1.088934 
Loop time of 283.122 on 1 procs for 200000 steps with 160 atoms

Performance: 61.034 ns/day, 0.393 hours/ns, 706.410 timesteps/s
98.1% CPU use with 1 MPI tasks x no OpenMP threads

MPI task timing breakdown:
Section |  min time  |  avg time  |  max time  |%varavg| %total
---------------------------------------------------------------
Pair    | 160.2      | 160.2      | 160.2      |   0.0 | 56.58
Bond    | 1.4246     | 1.4246     | 1.4246     |   0.0 |  0.50
Kspace  | 64.463     | 64.463     | 64.463     |   0.0 | 22.77
Neigh   | 3.6696     | 3.6696     | 3.6696     |   0.0 |  1.30
Comm    | 3.398      | 3.398      | 3.398      |   0.0 |  1.20
Output  | 0.034992   | 0.034992   | 0.034992   |   0.0 |  0.01
Modify  | 49.069     | 49.069     | 49.069     |   0.0 | 17.33
Other   |            | 0.8592     |            |       |  0.30

Nlocal:    160 ave 160 max 160 min
Histogram: 1 0 0 0 0 0 0 0 0 0
Nghost:    3143 ave 3143 max 3143 min
Histogram: 1 0 0 0 0 0 0 0 0 0
Neighs:    35449 ave 35449 max 35449 min
Histogram: 1 0 0 0 0 0 0 0 0 0

Total # of neighbors = 35449
Ave neighs/atom = 221.556
Ave special neighs/atom = 1.5
Neighbor list builds = 3180
Dangerous builds = 0
unfix 1
unfix 333
fix 1 all nvt temp $T $T ${tdamp}
fix 1 all nvt temp 400 $T ${tdamp}
fix 1 all nvt temp 400 400 ${tdamp}
fix 1 all nvt temp 400 400 0.01

reset_timestep 0
variable     pxy equal pxy
variable     pxz equal pxz
variable     pyz equal pyz
fix          SS all ave/correlate $s $p $d              v_pxy v_pxz v_pyz type auto file S0St.dat ave running
fix          SS all ave/correlate 5 $p $d              v_pxy v_pxz v_pyz type auto file S0St.dat ave running
fix          SS all ave/correlate 5 400 $d              v_pxy v_pxz v_pyz type auto file S0St.dat ave running
fix          SS all ave/correlate 5 400 2000              v_pxy v_pxz v_pyz type auto file S0St.dat ave running
variable     scale equal ${convert}/(${kB}*$T)*$V*$s*${dt}
variable     scale equal 1e-32/(${kB}*$T)*$V*$s*${dt}
variable     scale equal 1e-32/(1.3806504e-23*$T)*$V*$s*${dt}
variable     scale equal 1e-32/(1.3806504e-23*400)*$V*$s*${dt}
variable     scale equal 1e-32/(1.3806504e-23*400)*12076.7691711873*$s*${dt}
variable     scale equal 1e-32/(1.3806504e-23*400)*12076.7691711873*5*${dt}
variable     scale equal 1e-32/(1.3806504e-23*400)*12076.7691711873*5*0.001
variable     v11 equal trap(f_SS[3])*${scale}
variable     v11 equal trap(f_SS[3])*1.09339492922931e-10
variable     v22 equal trap(f_SS[4])*${scale}
variable     v22 equal trap(f_SS[4])*1.09339492922931e-10
variable     v33 equal trap(f_SS[5])*${scale}
variable     v33 equal trap(f_SS[5])*1.09339492922931e-10
variable     v equal (v_v11+v_v22+v_v33)/3.0
fix          333 all print $d "${ILstep} ${ILtime} ${ILdens} ${ILtemp} ${ILpr} ${ILpe} ${v}" file visco.dat screen no
fix          333 all print 2000 "${ILstep} ${ILtime} ${ILdens} ${ILtemp} ${ILpr} ${ILpe} ${v}" file visco.dat screen no
thermo_style custom step temp pe press v_pxy v_pxz v_pyz v_v11 v_v22 v_v33
run          8000000
PPPM initialization ...
  using 12-bit tables for long-range coulomb (../kspace.cpp:321)
  G vector (1/distance) = 0.133052
  grid = 5 5 5
  stencil order = 5
  estimated absolute RMS force accuracy = 0.00073741
  estimated relative force accuracy = 5.12103e-05
  using double precision FFTs
  3d grid and FFT values/proc = 1000 125
Per MPI rank memory allocation (min/avg/max) = 10.65 | 10.65 | 10.65 Mbytes
Step Temp PotEng Press v_pxy v_pxz v_pyz v_v11 v_v22 v_v33 
       0    382.08182   -122.48638    10723.046   -869.07884    177.12001   -103.04423 4.1291952e-05 1.7150719e-06 5.8048959e-07 
    2000    426.63282    -122.4131    -6153.557     1520.872   -208.62144   -1561.9003 0.00044957292 -6.8712665e-05 0.00030060307 
    4000    416.45055   -121.64914    3858.9326    -468.1163   -57.490951   -551.22378 -0.000180438 0.00040867291 0.00037577805 
    6000    381.95422    -122.8206   -517.50289   -82.624767    468.23469    215.12986 -0.00014049993 0.00038529437 0.00031821122 
    8000    484.72095   -122.01251    -7733.564   -735.54176    1734.6769   -1000.6029 -4.9080773e-05 0.00038049625 0.00085186178 
   10000    405.43532   -121.30825    8282.3028   -1210.1822   -1033.5258    1818.0806 1.3999888e-05 0.00038755325 0.00050301255 
   12000    370.14755   -122.10941   -7188.1701    949.25859   -67.273957   -720.16517 0.00011732879 0.00032324989 0.00050053231 
   14000    414.85202   -122.52552    5404.7605   -238.40018   -805.78492   -22.969054 4.7508003e-05 0.00024289783 0.0008748651 
   16000    365.90262   -122.81524    1670.4941    865.57409    198.56749     125.5161 0.00016202962 0.0002072129 0.00091238082 
   18000    431.69557   -120.75934   -5613.4671    954.31763    1819.3418     288.2663 0.00015627053 0.0002332918 0.00087027672 
   20000    415.46317   -122.69052    7026.1292   -773.32831   -602.00769    154.31316 0.00040379111 0.00028307705 0.0008102325 
   22000    416.50372   -122.15686   -8599.1407    1662.3362    1827.4913   -793.43719 0.00073056413 0.00029548464 0.00090179885 
   24000    344.82901    -122.8795    3383.9819   -130.88982   -633.86947   -478.18066 0.00073127725 0.00026922884 0.00081810639 
   26000    398.24826   -122.10829    1179.4696    41.363786   -823.00455    -267.0517 0.00067551467 0.00026585606 0.00076220408 
   28000    379.91341   -122.64555   -4120.1588    541.54333    1311.4632   -675.90628 0.00063346762 0.00029125069 0.00070899238 
   30000    421.01706   -121.41227    9888.1056   -1159.6392   -715.91977   -860.90153 0.00072297008 0.00028605961 0.00068461328 
   32000    397.46435   -122.17148   -7548.8017   -454.54052    513.11939    156.24199 0.00085898781 0.00023290876 0.00071839288 
   34000    410.85704   -121.51439    3494.9399     186.1525    446.63506    124.87482 0.00084728381 0.00023375027 0.00065336386 
   36000    386.77867   -122.24648   -2019.2473   -126.02815    2762.2801   -56.327428 0.00080855456 0.00016441088 0.0006976381 
   38000    399.67631   -122.93971   -7465.4931   -430.77226    234.11502   -1563.9871 0.00076695829 0.00013442624 0.0011107113 
   40000    405.43605   -121.99802    7145.2485    501.27631    -58.52872    1708.8575 0.00073049302 0.00017979867 0.0012443005 
   42000     421.2377   -121.90691   -6402.6814    938.82803    1109.7064   -958.31314 0.00069830725 0.00014398473 0.0012614531 
   44000    402.16765   -121.87037    6069.5565   -466.26526   -417.99651    176.30957 0.00070951028 0.00017435904 0.0012526177 
   46000     439.8668   -123.16814     1957.267   -494.42138   -327.02763    594.51185 0.00073121906 0.00018016842 0.0011926115 
   48000    333.80615   -122.91103   -5611.9782    427.71656   -951.65162    -1448.693 0.00072026876 0.00028736704 0.0011407994 
   50000     390.6436   -122.17018    5980.6084    241.13515    395.01195    145.67176 0.0007279719 0.00029778274 0.0011915945 
   52000    436.11792   -121.21045   -7598.8454   -886.42949    130.21945   -1361.7437 0.00075307329 0.00028461675 0.0011356531 
   54000    393.96037   -121.65901    3805.7885   -44.637664    1479.9957    779.40891 0.00072644778 0.00028985865 0.0010935528 
   56000    410.70392   -122.44628    794.90772    80.689281    846.91436   -682.88428 0.00078501779 0.00028023893 0.0010496891 
   58000    454.18619   -121.76196   -3721.8964    1011.2611   -661.83558   -103.55043 0.00081132202 0.00028377847 0.0010105377 
   60000    351.29746   -122.81316    7166.8337   -1023.4632    48.558662    553.53631 0.00086637294 0.00027224183 0.00096891088 
   62000    367.48349   -122.19782   -7642.6009    167.47174   -886.65375   -242.53056 0.00087632531 0.00027324433 0.00093410523 
   64000    362.04422   -121.80672    2798.4027   -553.76756   -381.93526   -1077.5399 0.00083075832 0.00027506082 0.00094805023 
   66000     439.2599   -122.22411   -562.86312   -339.21047    795.91047    861.62412 0.00083563466 0.00027316041 0.00095876788 
   68000    419.14076   -122.14968   -6022.1276    1113.6111    6.1195957    366.37494 0.00081000128 0.00026206315 0.00093333537 
   70000    366.08879   -121.70128    7734.1945    298.16559   -813.96502    13.610411 0.00079519604 0.00026721341 0.00096751961 
   72000    432.46905   -120.77873   -4931.1355    1490.4158    2480.4309   -429.23539 0.00081934576 0.0002808073 0.0010413196 
   74000    396.14408     -121.787     5368.967   -892.44316   -1328.8685     1584.959 0.00081607902 0.0003184442 0.0010685554 
   76000    425.44816   -121.32541    1583.1316   -575.87093    609.74079   -211.56891  0.000875484 0.00036624424 0.0011564543 
   78000    363.96719   -122.96536   -5902.7597     1586.492   -998.21061    183.12493 0.00084074552 0.00035334016 0.0011711143 
   80000    420.19338   -123.01935    4709.5544   -392.81687     637.4756   -1133.3885 0.00082653608 0.00037113654  0.001204369 
   82000    378.77084   -122.79478   -8328.7329   -341.74618   -252.20806    83.855635 0.0007988994 0.0003655112 0.0012205969 
   84000    418.66689   -121.58759    4373.8059    1194.8966    203.45178   -685.24734 0.00082788026 0.00035981497 0.0012217754 
   86000    389.32665   -122.65543    1271.6308    294.38866    437.27057    1208.6151 0.00097782164 0.00036894992 0.0012128917 
   88000    399.66114    -120.9116   -2498.3481    426.50465    318.65864   -992.75359 0.00095750466 0.0003502521 0.0011983698 
   90000    392.13275   -123.53871    6428.0184    -1929.548   -647.71922   -613.32776 0.00092501317 0.0003829511 0.0011874413 
   92000    397.30795   -121.08908   -6469.0076    1280.4586   -261.09127   -138.97908 0.00092365153 0.00037367916 0.0011720731 
   94000    442.76243    -122.3157    3118.4509    452.73399   -31.930925      1345.23 0.00090952126 0.00036705557 0.0011543467 
   96000    403.16256   -121.00941   -110.37044    609.35736   -596.39451    455.80481 0.00098400806 0.00039063338 0.0011282318 
   98000    376.90588   -122.72821   -4804.0104    819.76914    872.78389    245.23037 0.00095325756 0.00047900328 0.0011216143 
  100000    384.83117   -122.45447    7484.5297   -983.86461      -132.29   -1859.0768 0.00094678105 0.00051016029 0.0010975119 
  102000    399.48404   -123.04119   -6445.6821    2602.2458   -1065.2979    1269.5802 0.00092741009 0.00050301946  0.001086152 
  104000    399.26047   -122.60091    4868.1474   -712.49656    -800.1104   -923.12245 0.00095379607 0.0004905349 0.0010611977 
  106000    404.22296   -121.44935    328.16571      345.059   -1223.0224    191.59504 0.00094381841 0.0004864669 0.0010415039 
  108000    398.27913   -121.96877   -5322.8515    1369.1067    501.86615   -883.63137 0.00094138375 0.00047496871 0.0010210402 
  110000    390.09668   -121.30108    5239.5034   -145.36067    205.82413    1889.5301 0.00094739224 0.00047357473 0.0010037021 
  112000    400.35978   -122.47716   -7071.5085    1148.0387    -279.9626   -156.29221 0.00094297818 0.00046719789 0.0010032731 
  114000    445.87331   -122.80344    4237.8126   -785.31608    1233.8493   -381.77655 0.00092438598 0.00046674829 0.0010036801 
  116000    405.83341   -123.20742    1051.3181    277.91234    287.82958   -206.89135 0.00091681992 0.00044869572 0.00098285654 
  118000    391.19945    -123.3337   -3228.6999     -263.613    1840.5178    894.64946 0.00090119261 0.00048907687 0.0009763244 
  120000    399.79516   -121.90755    6543.6514    1165.9747    880.77079   -1762.3289 0.00088749475 0.00047151892 0.00098316166 
  122000    428.27856   -122.34784   -6989.5889   -1020.4253   -1642.4863    924.78993 0.00088438296 0.00045722037 0.00097242397 
  124000    391.48261   -123.01345      1853.14    386.43486   -441.30493    -695.1006 0.00085772654 0.00045147723 0.00096474636 
  126000    359.98508   -122.83704     -295.627    292.16017   -170.21381    601.71888 0.00087801402 0.00044823414 0.00096058021 
  128000    392.54604   -121.62121    -4202.324    -2085.325    1507.6902    961.88884 0.00087509625 0.00044396033 0.00096938477 
  130000    375.19076   -123.13239    6066.9209    1891.5969   -236.56419   -2365.9856 0.00086322449 0.00043534726 0.0009537555 
  132000    395.32532   -121.79786   -4723.9686   -2119.5459    308.63281    521.88054 0.00085521571 0.00043839301 0.00094266455 
  134000    434.40193    -121.2729    4929.2652    2089.3231   -525.68909   -1164.8722 0.0008420371 0.00046912054 0.00094991146 
  136000    401.26556   -121.45299   -343.16621    422.44868    685.68772    1638.6649 0.00083152539 0.00047371532 0.00093358931 
  138000    418.01583   -122.86225   -5326.0376   -420.90101    49.901908    555.35065 0.00083411489 0.00046929519 0.00093548233 
  140000    391.70066   -122.71855    4902.2256     2137.301    2545.2323    159.73331 0.00087812008 0.00047166973 0.00091610287 
  142000    473.96928    -121.8867   -6705.7335    -586.8808    -1371.972    720.79138 0.00085743788 0.00048986242 0.00090902192 
  144000    338.60814   -122.14634    4811.9931    856.34168    652.47314   -1469.3576 0.00084810235 0.00048014809 0.00089344388 
  146000    383.08134   -122.27953    992.41842    212.12354    439.62644    145.82739 0.00083752979 0.00048250908 0.00088807001 
  148000    377.06318   -122.95983   -2608.0522    163.33345    883.85234    390.29953 0.00082035228 0.00049795433 0.00087834537 
  150000    371.86207   -122.61695    5437.5581   -1544.1075     1289.413   -647.83131 0.00081366316 0.00050279433 0.00087212601 
  152000    405.18828   -122.20151   -7488.8622    2249.6428    307.54914   -777.94163 0.00082121196 0.00049646639 0.00086976444 
  154000    421.04365   -122.07004    2389.4445   -465.58566    1150.5925   -290.81661 0.00083970255 0.00049597861 0.00087920497 
  156000    424.27766   -122.93137   -919.08082    757.34173   -129.50944   -453.12272 0.00084622095 0.00050904268 0.00086762749 
  158000    393.26662    -121.1537   -3017.7189    350.16009     728.8829    9.4709041 0.00083915213 0.00052919429 0.00085642351 
  160000    382.57821   -122.89394    5426.8547    461.00276   -1613.8686    181.68735 0.00083030339 0.00054046369 0.0008478415 
  162000    422.85086   -122.60484   -4659.5519   -1548.2616    470.81209   -317.31458 0.00084329294 0.00053565015 0.00083661112 
  164000    419.50567   -121.32573    4147.3098    1199.7327    523.50675   -2142.8296 0.00083417015 0.00055771437 0.00083418232 
  166000    399.15887   -122.57308   -1140.9792    35.221985   -668.33758     243.9667 0.00082243959 0.00055481666 0.00083259105 
  168000    431.46469   -120.77757     -4795.25   -103.90665   -144.56422    2068.5457 0.00081380355 0.00055685351 0.00084526236 
  170000    417.35254   -121.28753    4803.9353   -964.19257     749.9856   -345.43539 0.0008058136 0.00055971223 0.00087889245 
  172000    415.65767   -120.97179   -5150.5784   -172.34527   -814.32253    1254.6655 0.00084047048 0.00055234674 0.00090325479 
  174000    422.44557   -122.39896    4683.5716    -92.39217    1819.7996   -230.94009 0.00084158511 0.00055572101 0.0009172634 
  176000    339.86422   -122.85209    1020.5003   -445.90528    72.627217   -150.12907 0.00083074026 0.00055966864 0.00090788427 
  178000    402.85818    -122.4347   -1788.1762   -23.391996   -592.43679    114.35603 0.00082502466 0.0005552966 0.00090760969 
  180000    400.05049   -122.14039    6227.1357    380.40759    1772.8299   -200.92816 0.00081511646 0.00055436718 0.00089359361 
  182000    449.11861   -121.66828    -6129.743    -539.7517    336.91023   -1468.6429 0.00080670157 0.0005506573 0.00088776373 
  184000    367.38355   -122.67091    2037.7277     433.8069   -223.63851   -978.77806 0.00080102505 0.00054750968 0.00088834695 
  186000    383.41938   -122.42544    107.71621   -738.79441    88.235966   -643.29031 0.00079456946 0.00054418498 0.00087434092 
  188000    376.16335   -122.62689   -3053.8311   -879.63577   -44.307408     315.4739 0.00079358552 0.00055295333 0.00086737054 
  190000     377.0987    -121.9284    6600.3444   -446.99528    690.67446    682.91309 0.00079299258 0.00055034844 0.0008596233 
  192000    398.42778   -121.58269   -4729.5341   -137.37901   -831.73998   -829.61218 0.00078951789 0.00054323096 0.00084682975 
  194000    392.60227   -122.87018    2852.1879    1480.8801    936.70887   -808.15528 0.00077987523 0.00054138558 0.00083645155 
  196000    392.35012   -123.13953   -1106.6391   -291.53078    1289.5054    510.49626 0.00077869085 0.0005334179 0.00082641934 
  198000    387.35032   -123.06447   -4533.0953   -1260.5642    -1330.812   -604.61666 0.00077148807 0.00053005089 0.00082580839 
  200000    408.06275   -122.44187    5029.0284    1828.7435    756.93351   -293.69325 0.00077061357 0.00053023995 0.00081614183 
  202000    386.81262   -121.74117    -3348.423   -616.06417     65.38553     94.61583 0.00076081053 0.00052930152 0.00080848756 
  204000    398.96563   -121.60495    3972.0638   -307.74437   -142.18553    23.665179 0.00075701051 0.00054126281 0.00079903863 
  206000     430.6045   -121.97371    985.80494    1103.7672     15.27446    -1111.552 0.00075047538 0.00053201505 0.00079324983 
  208000    345.72172   -122.65228   -2825.0698   -1081.3737   -232.14186   -992.99451 0.00075934631 0.00052869159 0.00078597052 
  210000    407.95649   -122.22828    3286.2957     1038.882    1631.1069    867.26824 0.00075490875 0.00052179307 0.00079105528 
  212000    416.65168   -121.36204   -5975.0844    1427.2459    1571.9091    299.47916 0.00076285403 0.0005143172 0.0007850828 
  214000    391.47612   -122.28917    2081.8399   -78.354522    1361.3545     479.0158 0.00075215929 0.00050792395 0.0007804166 
  216000     387.1653   -123.38258    1004.0874    969.43666   -933.27045    1216.0146 0.00074979664 0.00055903988 0.0007713318 
  218000    380.58609   -122.73536   -2066.6373   -1370.3482    108.42196   -281.60364 0.00074520461 0.0005771228 0.00076640665 
  220000    395.38751   -122.30967    5294.0138    1536.7679    523.24303     360.4118 0.00073954433 0.00057347364 0.00075863393 
  222000    396.44935   -122.16599   -4311.8691   -519.44911   -1938.9828    421.90201 0.00073066317 0.00056876402 0.00075038294 
  224000     378.6848   -120.84276    2227.0028    431.81157    214.00197   -52.944629 0.00072828305 0.00057170958 0.00074208124 
  226000    394.44486   -122.47266   -1907.1757    28.276637   -1163.9449    105.62156 0.00074075767 0.00056755902 0.00073892236 
  228000    386.16705   -121.79602   -3003.5072    5.9605637    1511.9337    707.33394 0.00073377739 0.00056322931 0.00074079457 
  230000    346.72994   -123.26292    3428.1097    409.95384   -1982.0845   -73.994616 0.0007235074 0.00056574627 0.00074507633 
  232000    345.68757   -122.73838   -3026.9605    1107.9558    1448.0191    498.40913 0.00072112971 0.00055944171 0.00074309599 
  234000      477.656   -121.88067    3566.9333    43.888113   -1095.2247   -1475.6452 0.00071779879 0.00055527937 0.0007388863 
  236000    371.76034   -122.03357    843.36087    165.37857    724.26933    464.29779 0.00071762329 0.00055454141 0.00074307618 
  238000    380.86275   -121.65445   -2894.3412    1995.0205    583.54074    1163.3659 0.00071908226 0.0005522847 0.00075736732 
  240000    409.90043   -121.02044      3337.43   -51.816818   -521.57961    230.74067 0.00071858901 0.00055201476 0.00078279192 
  242000    376.84127   -121.99547   -4184.9138    2202.0024    5.2151182   -429.79812 0.00070955554 0.00055054007 0.00077576287 
  244000     334.7919   -122.23723    2088.6175    -623.4634   -427.50127    510.13106 0.00070444066 0.00054589949 0.00077251435 
  246000    431.47718   -122.00414    835.24108    670.13703     1093.608   -608.37546 0.00070263414 0.00054183452 0.00080159792 
  248000    402.95762     -122.788   -2107.3956     1120.511   -1166.2233   -184.53967 0.00069766476 0.00054035757 0.00082548008 
  250000    383.64476    -121.6833    3685.4569   -1364.7368    1251.6884   -1144.1419 0.00070896353 0.00053453145 0.0008934087 
  252000     394.3648   -122.24371   -5697.5809    2096.8837    1292.8387     168.8599 0.00072619109 0.00053349107 0.00089384662 
  254000      402.628    -123.1581    571.00579    601.77842   -285.03352    1713.3673 0.00073376264 0.00053164043 0.00090847608 
  256000    418.19627   -121.18429   -1400.8213    855.57881    1043.1385    869.51101 0.00074125118 0.00052823979 0.0009188467 
  258000    393.12089   -122.13505   -1549.9819   -245.77579    294.14624    2015.4275 0.00073192727 0.00052410513 0.00095136323 
  260000     369.1287   -122.06979    3792.4545    1170.5097    943.03635   -1148.6562 0.00072772279 0.00053304687 0.00097466147 
  262000    397.13883   -122.92301   -3605.5234    100.20499   -299.92205    1963.5479 0.00072154764 0.00053298616 0.00096943172 
  264000    405.65803   -122.14797    4458.6157   -545.94751    517.69612    -454.6886 0.00072011346 0.00052853686 0.00096562709 
  266000    403.51609   -122.42718   -668.54289   -10.192957   -289.98082    730.06843 0.00071350904 0.00052508579 0.00095624854 
  268000    425.55627   -122.12393   -3300.5101   -159.16355     216.5799   -660.11682 0.00070897297 0.00052119771 0.00095959299 
  270000    372.78653   -121.39432     3376.133   -907.78697    1314.5662   -1712.4478 0.00070284727 0.00051795345 0.00097355239 
  272000    426.58045   -122.47005   -4068.1802   -553.92116    582.85584    546.06589 0.00070692447 0.00053170987 0.00097593554 
  274000    446.24404    -122.0945    2893.2041    -807.3253   -1008.6327   -1153.2635 0.00070055354 0.00052920863 0.00096818099 
  276000    386.05857   -122.98432    219.60335    1769.4909   -684.70315    459.89849 0.00071037286 0.00052555153 0.00096311921 
  278000    458.28545   -120.90045   -1237.5224   -501.23889    346.41987    1119.6423 0.00070521851 0.00052181784 0.00095686861 
  280000    408.70852   -121.17882    4012.2763    629.58687   -327.54095   -309.53015 0.00070117098 0.00052818654 0.00096533075 
  282000    399.51615   -122.91709   -4393.9336    692.97458    1602.4744    197.84229 0.00074998282 0.00052645494 0.00096752413 
  284000     413.0861   -121.88974    1984.2102   -749.67283    -975.6574   -280.80641 0.00074335577 0.00052047236 0.00095678421 
  286000    407.91568   -121.73804   -1084.6644   -1125.9205    563.82908      1004.67 0.00073990201 0.00052028926 0.00095151693 
  288000      430.223    -122.4426   -1129.0344   -770.40414   -308.29442    218.92936 0.00073426282 0.00051620073 0.00095224408 
  290000    415.85765   -122.61934    3942.2404   -143.07106   -983.44246    507.28621 0.00073049255 0.00051461984 0.00094597137 
  292000    333.71804   -122.62565   -3175.3628     117.7527    19.864511    366.21141 0.00072401382 0.00051575499 0.00094320846 
  294000    413.55585   -122.31229    3638.1569   -37.355206    1211.7762    1458.9077 0.0007186018 0.00051327028 0.00093770221 
  296000    384.87838   -123.34215   -2418.8635   -141.28631   -1867.0618   -339.37158 0.00071548758 0.0005100921 0.0009307622 
  298000    401.10703   -121.80574   -2567.1796   -895.24192   -302.54937     1037.442 0.00072098403 0.00050848203 0.00092600469 
  300000    406.75912   -121.35087    1846.7714   -1341.2256   -690.14045   -739.79802 0.00071550374 0.00050438361 0.00091950657 
  302000    446.48834    -123.1749   -3939.8827   -1039.4867   -383.63685   -763.56812 0.00071288209 0.00050853851 0.00092011803 
  304000    389.94759   -122.51271    2875.0311    735.94712    410.20249   -1880.4355 0.0007239249 0.00051356404 0.00091240692 
  306000     416.2844   -122.28434   -659.08656    573.12205   -541.41124   -106.45415 0.0007250219 0.00052964244 0.00090692281 
  308000    394.57695   -122.35871   -400.19026    2103.2051   -575.05375   -299.17875 0.00072093976 0.00053378852 0.00092150497 
  310000    391.92814   -122.51719    1720.1987   -408.37571   -190.42751   -678.77263 0.00071689076 0.00053192391 0.00092532922 
  312000    385.24084   -122.31284   -3898.7472    422.22603    439.57655    169.81525 0.00071258635 0.00053569504 0.00091987009 
  314000    413.19335   -122.33684    2827.7646   -1089.5404   -437.60614    239.44655 0.00070638546 0.00053300934 0.00091851708 
  316000    376.97441   -122.66355   -1458.0735    1612.9545   -461.21669    644.75189 0.00070168417 0.00052851725 0.00092043606 
  318000    379.06853   -122.21245    577.93554   -162.19624    -418.1211    678.47787 0.00070138294 0.00054467859 0.00094466427 
  320000    409.04453   -121.98777    3006.4736   -2009.9952   -355.43472   -863.82887 0.00069636324 0.00055344331 0.00095662112 
  322000    402.60518   -122.28207   -2376.9562    265.48007   -612.09173    853.59714 0.00069394514 0.00054928877 0.0009517371 
  324000    452.47267   -121.58522    2834.1718    573.88673    685.33302   -1508.4742 0.0006903252 0.00054953449 0.00094827399 
  326000     422.6525   -121.96009   -2366.6632    1316.7612   -11.273462    547.09017 0.00068733968 0.00055539008 0.00094890678 
  328000    407.65976   -122.18461   -1576.1511    810.33374    346.22937   -209.57419 0.00069082013 0.00055518417 0.00094906056 
  330000    361.51492   -122.25959    353.21913   -150.38236   -1050.7248     80.72883 0.00069017883 0.00055347869 0.00094344118 
  332000    319.76717   -122.22772   -2213.2411   -51.546052    134.47389    -508.3445 0.00068575359 0.00054958547 0.00094027594 
  334000    438.27675   -122.61756    3358.7595    400.89812    710.63657   -714.22478 0.00068275638 0.00055157052 0.00093455859 
  336000    474.40417   -122.29395   -1390.7623    580.31645    1953.0562    1754.5334 0.00069953014 0.00054822982 0.00095124669 
  338000    359.83173   -122.36621   -299.21367   -1433.9932    247.66313   -803.41784 0.00069160348 0.00054403413 0.00095546725 
  340000    371.83802   -122.14617    483.76961    776.75472   -257.22328    857.37314 0.00070082482 0.00054286118 0.00095233081 
  342000    417.88502   -122.03647   -3044.8326    174.88369     1609.562   -207.99435 0.00069909496 0.00055840683 0.00094663429 
  344000    411.98209   -121.86452    2725.5798   -1001.3333     1181.926   -16.408405 0.00071301826 0.00055335094 0.00094315547 
  346000    399.33671   -122.62411   -2446.9447    126.86983    1032.1184    -10.68478 0.00071813173 0.00055072183 0.00094223512 
  348000    397.82539   -123.31781    1265.1715    413.45854    203.73487   -1022.6862 0.00071497008 0.00055043312 0.00093644614 
  350000    369.89217   -123.13267    1166.4192   -1887.2045   -1257.6094    749.08595 0.00071400785 0.00054765514 0.00093935961 
  352000    467.31831   -122.56164   -2103.3085    1931.8336    702.92605    1263.4547 0.00071015944 0.00054712173 0.00094709038 
  354000    373.80245   -122.79755    1286.3793    1465.7621    1842.3401   -500.70798   0.00070797 0.00054670281 0.00095467815 
  356000    427.89197   -122.66934   -4207.6938   -2460.8447   -677.80555    1728.8446 0.00070558443 0.0005439351 0.0010294178 
  358000    412.72248   -121.95194    772.64814   -488.71801    311.89221   -161.87134 0.00070214352 0.00054171857 0.0010364203 
  360000    378.01891   -122.00921   -564.20927    1188.1277   -174.18049     1220.385 0.00069813884 0.00054389112 0.0010343462 
  362000     371.2629   -122.26896   -1246.8359   -151.97206    986.52133   -215.03067 0.00069450941 0.00054079231 0.0010475085 
  364000    426.71693   -121.90079    4093.8028    1474.8552    560.48683    1749.5933 0.00069928532 0.0005407386 0.0010486614 
  366000    401.49753    -121.6693   -1780.6163    1178.1715   -175.04967   -953.87042 0.00069718803 0.00053831542  0.001043065 
  368000    396.31629    -122.5128    1174.5527    165.24046   -603.70466   -133.68983 0.00069409331 0.00053938882 0.0010376249 
  370000    413.21942    -122.4882   -994.66599    653.10593    120.65796    1430.8776 0.00069123168 0.00054390106 0.0010347345 
  372000    389.74004   -123.19388    -3171.394   -366.72382    841.21144   -932.01605 0.0007000717 0.00054511713 0.0010288207 
  374000    402.29127    -122.0688    2566.7086     163.4702    1520.6606    804.70355 0.00070060888 0.00055236992  0.001024541 
  376000    414.62753   -123.20794   -3508.9826   -1652.4542    1167.7919    183.16904 0.00070026406 0.00055777825 0.0010200264 
  378000    422.53696   -121.96394    2710.2059    931.74135   -1560.7998   -910.16908 0.00070669053 0.00055238955 0.0010232905 
  380000    432.28012   -122.16717    358.42899   -1329.3859    473.67885   -276.92767 0.00071068492 0.00055113067 0.0010140091 
  382000    388.30064   -122.07461    -2226.379    114.80109   -1169.4601    994.07631 0.00071029275 0.00055860658 0.0010199931 
  384000    418.66917   -123.64578    389.90577    1080.5822   -1409.1846    302.49612 0.00070309959 0.00055530136 0.0010167068 
  386000    410.98648    -121.2638   -3479.0172   -11.875037    261.81217   -1150.2467 0.00069937871 0.00055177721 0.0010199772 
  388000    398.62588   -121.68882    824.31122    582.59355   -968.82743    229.71767 0.00069829725 0.00054907279 0.0010286143 
  390000    382.73717   -122.62317   -455.03793   -408.86186   -193.41416   -2193.0622 0.0007044691 0.00054758446 0.0010262969 
  392000    399.52039   -122.97025     158.1669    1530.5409    204.49046   -1497.6081 0.00070425978 0.00054525841 0.0010232785 
  394000    408.44395   -122.20662    3104.5015    238.95571   -686.01275   -1262.3479 0.00070131617 0.00054920853  0.001013066 
  396000    395.61826   -122.39489   -2510.9042    1079.8986   -469.32834   -368.32518 0.00071004008 0.00055007738 0.0010150141 
  398000    390.84463   -123.04352    808.72859   -1053.9122   -356.89722    503.62936 0.00070603567 0.00054482476   0.00100886 
  400000    339.75272   -122.58427   -1301.7361    1318.4751    1178.9854    481.09162 0.00070277349 0.00054172463 0.0010058741 
  402000    424.85319   -123.12768    -1652.119   -760.89012   -2236.0245   -75.692344 0.00070176999 0.0005393541 0.0010009551 
  404000    392.93857   -122.50681    1994.9301   -808.15764    336.44743   -245.52406 0.00070543302 0.00053764845 0.00099483037 
  406000    384.54606   -123.06351   -2076.1401    1170.6457    68.308448    832.81826 0.00070359779 0.00053865657 0.00098943634 
  408000    344.45739   -122.85139    1809.7521    1427.8798   -516.61145    327.32764 0.00070087134 0.00053898549 0.00098903904 
  410000    418.40046   -122.32297   -1169.6525   -149.57894    2911.1637    897.90594 0.00069822081 0.00054092468 0.00099695441 
  412000    454.35264      -121.29   -668.75344    1493.5676    153.48776    28.815056 0.00069484249 0.00053774808 0.00099926031 
  414000    379.99888   -122.81632     42.11613   -2784.0496   -1152.4376   -246.74382 0.00069126922 0.00054096989 0.00099637559 
  416000    338.63009    -121.8696   -2876.4226    1229.9639    1772.9774    -58.77427 0.00068914811 0.00054359885 0.00099678838 
  418000    348.19178   -123.17878     951.2603   -368.04383   -301.83715    528.97398 0.00068643411 0.00054166413 0.00099419885 
  420000    389.06655   -122.88357   -317.19436     2326.203   -807.27103    137.47803 0.00068299539 0.00053794868 0.00098760209 
  422000    444.72502   -122.23047    1153.9299   -771.52074   -239.50303   -932.58347 0.00067912459 0.00053706636 0.0009819399 
  424000    366.95252   -122.38777    2311.0436    830.70467    425.78189   -582.68684 0.00067675093 0.00053518257 0.00097787674 
  426000     435.7753    -122.5983   -1873.0798   -417.70021   -562.58322   -250.36184 0.00067369568 0.00053774847 0.00097511456 
  428000    354.93795   -121.98668    1069.5189   -951.96109    1467.7925     329.9781 0.00067025329 0.00053300254 0.00097484103 
  430000    419.57906   -122.78991   -1850.2515      455.471    380.33065    1023.2738 0.00067431773 0.00053252154 0.00096909592 
  432000    363.34387   -122.41972   -807.79816   -3009.6278   -416.07472   -1208.7305 0.00067449117 0.00053307773 0.00096662043 
  434000    413.22898   -122.01702     1614.819    608.58336   -879.38517   -680.27805 0.00067215183 0.00053030437 0.00096414033 
  436000    409.86083    -122.6555   -1022.1134    2515.5606   -110.19746    -1050.167 0.00067008685 0.00053246726 0.00096127695 
  438000    403.46628   -121.73305    2668.9893   -873.95679   -1110.8545    384.42692 0.00067070972 0.00053238311 0.00096182839 
  440000    505.33996    -123.1367   -1234.7742   -181.59141    327.81544   -72.263029 0.0006699849 0.00053681133 0.00096570991 
  442000    419.32761   -121.81438   -154.25912   -414.25331   -2198.6054   -2717.4453 0.00066884811 0.00053416984 0.0009699752 
  444000    363.83093   -122.35737   -11.750153   -9.0040764    337.55978    1802.9494 0.00066909033 0.0005327917 0.00096782143 
  446000    384.14276    -121.9091   -2302.2167   -850.40732   -701.07879   -156.49808 0.00066666602 0.00053137415 0.0009642568 
  448000    400.24642   -122.09287    2591.9883   -1232.0712    1204.5748   -76.665143 0.00067009338 0.00052983931 0.00096042941 
  450000      409.207   -122.21946   -1405.7926   -701.73015    598.34448   -458.93644 0.00068117658 0.00052696674 0.00096237663 
  452000    383.46867   -121.13967    1377.5251    1277.0343    1419.1296    -661.0736 0.00067738571 0.00052742117 0.00096006006 
  454000    391.55496   -121.81512    531.11294    70.665966   -469.78641     958.7465 0.00067776874 0.00053269485 0.00095606571 
  456000    409.23256   -122.44467   -1837.9271    2007.8058   -1223.6072   -1591.1655 0.00067835104 0.00053144685 0.00095103856 
  458000    392.51801   -122.43841   -273.65178   -2086.2666    445.92846    523.39325 0.00067458352 0.00053005506 0.00094517232 
  460000    427.94316   -121.78851   -526.52238    811.16691    54.541486   -184.76008 0.00067185616 0.00052768909 0.00094200249 
  462000    386.82602   -121.54675    654.16375    468.34064   -1537.3583    240.14879 0.00066950859 0.0005277302 0.00093930619 
  464000    408.13424   -122.39997    821.71561    -223.6625   -385.77648   -744.45127 0.00068930191 0.00052432432 0.00093479171 
  466000    414.57407   -122.30772   -722.24763     -849.875   -1233.7129   -1770.3263 0.00068942011 0.0005245432 0.00093009862 
  468000    463.93468   -122.08077    1565.7478   -582.53536    663.68836    3004.8457 0.00068679459 0.00052411438 0.00092629616 
  470000    376.77925    -122.5672   -1165.5542   -355.62823    185.87015   -662.34485 0.00068373923 0.00052326531 0.00092120916 
  472000     413.2659   -121.69758   -414.88984   -548.17669   -204.33426   -621.18835 0.00068423488 0.00053539259 0.00091682268 
  474000    402.27637   -122.44981   -649.42223    201.14442    2147.0049    1368.0311 0.00069379151 0.00054881539 0.00091608499 
  476000     393.2053   -122.22821   -228.63679   -1404.8891    1656.0617    1293.9756 0.00069035912 0.00055729645 0.0009133546 
  478000    414.33943   -123.00951     1628.038   -287.53785    812.52274   -671.14231 0.00069154186 0.00055997059 0.00091058502 
  480000    421.29121   -121.97822    17.793484   -447.75673    496.99241    414.32278 0.00068877535 0.0005570504 0.00090594552 
  482000    415.60255   -122.61138    933.81111     332.2372   -744.48589   -539.59831 0.00068918986 0.00055490331 0.00090351807 
  484000    359.50254   -122.77976    88.521103    428.50014    424.96158    619.05943 0.00069106462 0.00056100868 0.00089953726 
  486000     412.5399   -122.25089   -1047.2198    1322.1008    2538.0337   -38.842877 0.00069284387 0.00057391077 0.00089569567 
  488000    456.99275   -122.57877   -55.897126    1216.8798   -164.04652    1244.5558 0.00069189901 0.00058109631 0.00089479409 
  490000    429.98664   -122.12967   -1222.4139     1795.204    1064.8533     1438.888 0.00069094621 0.00057838992 0.00089341672 
  492000    354.24259   -121.99452    546.90972    266.44358    703.19214   -530.69277  0.000702464 0.00057667897 0.00089122576 
  494000      366.846    -122.6711    -336.3142   -581.46657    1350.4957    821.83302 0.00069943216 0.00057406737 0.00089088551 
  496000    435.84458   -121.20123    338.80584   -1055.5688    272.96264   -993.36212 0.00069617477 0.00057537578 0.00089320375 
  498000    399.12933    -122.8744    257.74997    1644.7585     1118.314    -452.7908 0.00069676665 0.00057727028 0.00088954258 
  500000    408.47336    -121.9929   -813.43313    375.85046   -169.67969   -1756.4419 0.00069389678 0.00058986276 0.00088672807 
  502000    379.35733   -121.07601   -618.72128    62.431158    1573.9297    1193.0799 0.00069129943 0.00060241424 0.00088379714 
  504000    438.64933   -123.07635   -24.358876   -797.69478    879.99817   -825.70373 0.0006878909 0.00060934308 0.00088527052 
  506000    391.18767   -121.72018   -459.03151   -1423.9052    1060.6079    158.25857 0.00068505152 0.00060846183 0.00088376128 
  508000    405.18153   -122.01787    856.45315    -54.78743    1187.4118   -423.54597 0.0006825703 0.0006044274 0.00089085395 
  510000    419.71733    -121.6595     893.9199   -681.13161   -193.57243    654.59539 0.00067999485 0.00060117638 0.00088897668 
  512000    416.80762   -122.38219   -743.13473    527.37767    221.84413   -1767.4279 0.00067707276 0.00059868853 0.00088494606 
  514000    397.73848   -121.54427    716.98151   -2158.8348   -218.26785    1720.9304  0.000674547 0.00059762471 0.00088164357 
  516000    407.23127   -121.83033   -497.43473    1050.3411   -504.14038   -1585.5956 0.00067537422 0.00060038647 0.00088017514 
  518000    395.06029   -121.77791   -30.476701   -1065.2339    498.79004     727.5982 0.00068060577 0.00059850403  0.000880085 
  520000    382.64057   -121.94364    11.417013   -30.081159    370.75086    1139.8226 0.00068146735 0.00060043648 0.00087785816 
  522000    436.38976   -121.92147    360.63841   -1246.3361    197.51767   -397.28489 0.00068824714 0.00061577216 0.00087400453 
  524000    404.51615   -122.24044    771.20762    194.46372     624.2071    311.81643 0.00068364345 0.00062178608 0.00087048893 
  526000    408.29982   -122.82939   -828.49251   -12.611462    -379.3876      390.075 0.00068235483 0.00062000327 0.00087145006 
  528000    459.66436   -122.26138   -211.15445    505.18241    1893.6076   -390.09639 0.00068035668 0.00061714508 0.00088351168 
  530000    426.55695    -122.6205    -936.7078    107.86903   -105.20121    1490.3547 0.0006793156 0.00061553779 0.00088187511 
  532000    396.24733   -121.56655    113.08312    -88.01387   -177.03842    468.87075 0.00067723812 0.0006141946 0.00087866294 
  534000    386.19983   -122.34256    171.94499    951.18283    716.13211    1864.9168 0.0006741536 0.00061233544 0.0008755738 
  536000    428.48056   -122.13696   -776.00829   -1307.3702    62.346181   -64.719332 0.00067470451 0.00061001825 0.0008763881 
  538000    440.67317   -122.80179    1043.0761    2593.2262   -296.65976    472.08408 0.00067225289 0.00060767198 0.00089821911 
  540000    371.85075   -122.64819   -852.61767   -702.88098   -1612.6707    310.90068 0.00067367977 0.0006153968 0.00089343245 
  542000    424.47325   -122.48973    753.24681    1079.0724   -20.775221    1114.2477 0.00066972223 0.00062677862 0.00089290635 
  544000    353.46932   -122.09372   -310.88476   -229.88223    414.17461   -102.52105 0.00066734966 0.00062516595 0.00089224651 
  546000     436.1443    -121.9842   -1422.3398   -459.77966      362.844    206.15482 0.00066636749 0.00062417945 0.00089070886 
  548000    420.87145   -122.24268    176.11746   -781.80165    562.93323   -410.91354 0.00066372346 0.00062118463 0.0008880154 
  550000    395.81146   -123.04039   -1024.8823    233.26307    1801.2299    682.80022 0.00066591496 0.00062002556 0.00088880591 
  552000    407.33593   -121.20367    1078.0921    654.67731    304.94279   -961.73119 0.00066422768 0.00061706561 0.00088444069 
  554000    402.52104   -123.00731    326.59935    141.81503   -1073.3603   -929.94082 0.00066226502 0.00061510946 0.0008817495 
  556000    390.27976   -122.75694   -182.18506     1104.541   -665.93515   -327.70095 0.00066500733 0.00061327615 0.00087942518 
  558000    413.62132    -121.7316    718.27736   -1405.0434   -2186.3555    1439.6345 0.00066520316 0.00061925298 0.00088066196 
  560000    371.31758   -122.22478   -346.41863   -2478.2325   -824.26904   -1188.4042 0.00066248262 0.00061668895 0.00087879215 
  562000     392.5321   -122.71021    -554.3221    195.94861   -206.15635    667.23483 0.00066094016 0.00061489766 0.00087605073 
  564000    393.59479   -123.21531    61.397958   -775.82632   -1131.0232   -511.25456 0.0006595666 0.00061278748 0.00087557185 
  566000    378.37408   -122.58936   -567.40544   -2221.4265     1986.188   -2740.4514 0.00065641949 0.00061111116 0.00087477297 
  568000     399.5931   -121.70143    66.154645    1134.6017    1336.1953   -222.10961 0.00065315496 0.00060960082 0.00087401401 
  570000    447.85184   -122.91775    381.15224   -130.34631    133.85839    873.03268 0.00065098997 0.00060867086 0.00087404585 
  572000    379.13405   -122.61007   -1657.3776   -679.60435    2350.3836    -1779.291 0.00065094101 0.00060671467 0.00087131614 
  574000    377.39063   -123.03642   -45.857481    484.25318   -2167.0402    1112.1237 0.00065150384 0.00060673397 0.0008709555 
  576000    403.35114   -122.71352   -1573.3779    587.59661    685.33936   -793.20258 0.00065188669 0.00060390065 0.00088104111 
  578000    396.66339   -123.23913   -230.62727    949.30172   -497.26275    704.39261 0.00065663939 0.0006013045 0.00087934003 
  580000    399.86055   -123.21395   -47.337019    854.76439  -0.41097477   -432.60092 0.00065861643 0.00060167565 0.0008821346 
  582000     432.0353   -123.20657    -193.2764   -246.10942   -2131.3279   -650.84296 0.00066217739 0.00060455124 0.00087627142 
  584000    408.26642   -122.33526    806.15196    1358.7939    1389.9794   -89.665672 0.00065924455 0.00060392533 0.00087379859 
  586000    422.50283   -122.24874    -1689.475   -1553.4034    1777.8653   -1163.2117 0.00065836679 0.00061517089 0.00087119455 
  588000    395.03997   -120.96172    1013.2856    1277.3283    -1210.667    1765.3115 0.00065948384 0.00061548193 0.00087244971 
  590000    339.37584    -122.2876   -563.71794    278.84867    67.248152   -336.95313 0.00065602127 0.00061247512 0.00087178152 
  592000    422.62485   -121.14482    804.39842   -621.56804    2323.3047   -566.74085 0.00065384795 0.00061102857 0.00087057915 
  594000    412.26887   -122.71634    1457.2627    2180.5369   -1080.8044   -338.48162 0.0006531549 0.00060836331 0.00087250049 
  596000    415.33537   -122.75526   -1323.8115   -158.28427    496.87531   -2361.0677 0.00065716797 0.00060734532 0.00087796638 
  598000    403.45662   -122.90537    865.03692   -989.47351   -522.17139   -1233.9464 0.00065840901 0.00060525143 0.0008916046 
  600000     436.2174   -121.98759   -595.45796   -1095.1832   -157.65653    816.93415 0.0006606798 0.00060338999 0.00089792538 
  602000    427.81147   -121.49454   -964.68417    2248.3958    1011.5241   -123.06752 0.00066210714 0.00060752754 0.00089521886 
  604000    374.04478   -121.95974    -159.8242    471.64929    208.48657     246.1011 0.00066350695 0.00060620783 0.00089257818 
  606000    424.79158   -122.87141   -1052.0527    749.21716   -1996.5111   -1130.9382 0.00066372663 0.00060490582 0.00089361732 
  608000     391.7223   -123.34136    1719.6665   -760.42216    2022.4392    2410.1082 0.00066225775 0.00060366257 0.00089056906 
  610000    394.44093   -122.22375   -465.37724   -303.22133   -100.01568    -1369.944 0.00066023478 0.0006023155 0.00088866567 
  612000    405.94993   -121.30412    1522.7961    1581.0518   -10.857698    967.96906 0.00065704456 0.00060013714 0.00088581121 
  614000     414.9548   -122.63033    712.28043    16.239753    43.689578    1571.4202 0.00065733648 0.00060041054 0.00088721947 
  616000     378.7756   -122.15887   -1126.1433   -551.40338    1023.4633   -451.41806 0.0006541474 0.00060587233 0.00088486985 
  618000    398.86551   -122.39016    740.48591    498.17586    1031.7624    10.602204 0.00065423105 0.00060351909 0.00088816458 
  620000    424.65909   -122.08333   -1370.4998    257.99983   -868.03556   -775.67368 0.00065454775 0.00060181973 0.00089306009 
  622000    383.50914   -121.72219    712.37276   -1297.7629   -533.53622   -1253.5932 0.00065820477 0.00060019815 0.0008981892 
  624000    374.41021   -121.95001    491.64388   -1169.1246   -185.72562   -547.62944 0.00066058715 0.0005979923 0.0009023506 
  626000    402.94339   -121.90448    -155.0563   -708.75224    810.25507    968.34169 0.00065729245 0.00059620921 0.00090071467 
  628000    400.28572   -122.49991    685.29517   -243.89268    737.63126    871.62128 0.00065511112 0.00059540541 0.00089798443 
  630000     385.2277   -123.41917   -1911.6196   -1.9688575    305.56584    637.67197 0.00065294788 0.00059756717 0.00089566666 
  632000    363.10403    -122.5709   -706.86417    212.95092    3364.5213     1677.669 0.00065107697 0.00059834848 0.00089396679 
  634000    422.51454   -121.57346   -467.10183   -1845.5716    534.42558    1060.7317 0.00065004737 0.00059607308 0.0008947193 
  636000    399.07563    -122.3052   -893.90553   -648.79746   -296.55408   -831.16417 0.00064936415 0.00060577733 0.00089161432 
  638000    446.92356   -121.74226    1756.2283    1021.1078   -1517.8564    1952.2554 0.00064731999 0.00060963147 0.0008893621 
  640000    412.99502   -121.71822   -710.74245     -1556.57   -349.95875    1417.4498 0.00064681784 0.00060801058 0.00088824661 
  642000    406.21412    -121.6452    838.89957    992.16501   -602.16803    -137.9062 0.00064365323 0.00061020561 0.00088783252 
  644000    416.09717   -121.95768     294.8672   -1561.3256   -2056.3254    1532.6018 0.00066093523 0.00061089645 0.00089464581 
  646000    390.31255    -122.2704     -1496.18   -1056.7243    373.43501   -985.76703 0.00066428262 0.00060932896 0.00089365871 
  648000    392.09095   -121.71122   -134.95006    97.667604    248.52383    1232.8659 0.00066180271 0.00061088818 0.00089499146 
  650000    347.78651   -121.48964   -1390.8073    1443.6245   -999.71347    1334.7524 0.00066136416 0.00060963389 0.00089172459 
  652000    385.88163   -121.55889   -42.860323   -211.80365     1413.201    80.150199 0.0006597181 0.00060823226 0.00088844892 
  654000    397.57837   -123.44947   -409.36032     637.6217    656.84956    2338.1602 0.00066629888 0.00060642226 0.00089069928 
  656000    350.53242   -122.59259     36.89896    158.72534    1323.1683   -186.14231 0.00066202263 0.00060463191 0.00088895099 
  658000    394.70761   -121.52895    1670.4365   -196.90158    205.05163   -674.14854 0.00066447163 0.00060427429 0.00088645651 
  660000    423.43887   -122.01117   -887.73292    404.36811   -162.46931    481.36167 0.00066118747 0.00060779775 0.00088520714 
  662000    398.83117   -122.05309    265.12161    1089.3363    234.14496    2176.0465 0.00065655509 0.00060732953 0.00090758135 
  664000    457.73046   -121.81193    547.84896    2078.0496   -553.98754    2208.7745 0.00065460418 0.00060583926 0.00090484506 
  666000    408.45668   -120.69391   -461.60801     1788.757   -241.75507    1470.1443 0.00065316636 0.00060470417 0.00091327296 
  668000    451.28027   -122.04672    1490.3075    -2672.681    1580.8972   -239.13071 0.00065182601 0.00060222786 0.00091016511 
  670000    375.97139   -123.25271   -787.79911   -1377.0295   -338.71352    513.25507 0.00065164857 0.00060129366 0.00090779906 
  672000    436.56424   -123.18147   -550.62504   -959.51709   -354.99435    108.50895 0.00065178053 0.00060096304 0.00091307739 
  674000    414.18044   -122.80261   -1176.7765    1761.8816    -1881.611    455.12032 0.00064974635 0.00060368684 0.0009099712 
  676000    410.54323   -122.39077   -1008.2552    1890.4109   -625.23729    685.67747 0.0006479694 0.00059820017 0.00090785499 
  678000    454.43262   -123.79086    -564.3505   -451.54366    263.74111    1138.9122 0.00064588982 0.00059508765 0.00090539136 
  680000    368.50981   -123.24264   -1209.1194    85.264123   -29.011244   -98.020273 0.00064619283 0.00059638853 0.00090319422 
  682000     367.4624    -122.6095    83.750064     1156.496    1189.9572    1860.0499 0.00064439259 0.00059453118 0.00090038864 
  684000    383.24333   -122.04812    776.17334    919.64783   -97.587548   -2467.2779 0.00064360515 0.00059412709 0.00089753668 
  686000    371.15692   -122.79311   -585.15751   -436.87955   -2214.0147   -1237.6651 0.00063926959 0.00059192468 0.0008952062 
  688000    401.50458   -122.51991    145.65283   -751.30722    1955.9471    242.62271 0.00063734966 0.00059155194 0.00089273017 
  690000    447.56707   -122.66807    -1226.031    1956.3952    566.45482   -224.99692 0.00063772667 0.00059019227 0.00089018941 
  692000    449.31152   -122.39303   -743.95187   -1649.0456    156.35925    1316.2744 0.0006361108 0.00058949594 0.00088784174 
  694000    416.90332   -123.01022   -576.85242     456.6135    -902.7791   -84.211138 0.00064104051 0.00058755475 0.00088540063 
  696000    404.38066   -122.19805   -379.35802    729.40344    1447.0207    2099.2349 0.00064081294 0.00058774686 0.00088276329 
  698000     391.2271   -121.80157    -16.08992   -281.09945    1840.4082    808.74708 0.00063845694 0.00058911527 0.00088083683 
  700000    395.79029   -121.25025   -1135.3028    1398.5104     539.8365    550.59368 0.00063703315 0.00058734253 0.00087969148 
  702000    398.64299   -122.02507   -489.29815   -1303.5034    487.07927   -56.825035 0.00063581329 0.00058731045 0.00087576849 
  704000    381.98046   -123.08023   -886.72376   -29.056701   -854.72982   -118.29347 0.00063821155 0.00058715673 0.00087356358 
  706000    322.73219   -122.37667    522.77689   -393.02116    1324.9989    53.784986 0.00063981749 0.00058573033 0.00087472852 
  708000    388.22531   -123.35731    162.96651   -318.71896   -202.45193    383.99018 0.00063784402 0.00058512544 0.00087761175 
  710000    453.23318   -121.18689    465.38012    1153.9963   -933.29114   -234.60867 0.00063628771 0.00058475847 0.00087554846 
  712000    375.48905   -121.68782       476.07   -1323.5763   -765.31162     771.5759 0.00063474217 0.00058369538 0.00087469698 
  714000    427.57132   -122.49306   -637.52218    9.7026839    633.88529   -516.78903 0.00063454168 0.00058176176 0.00087260127 
  716000     405.0761   -122.16283   -609.81265    -1996.158    493.99216    622.09104 0.00063373611 0.00058047135 0.00087024915 
  718000    378.94614   -122.13218     -1061.34   -73.831055   -448.43228   -1969.5152 0.00063163707 0.00057919289 0.00087282211 
  720000    436.84991   -121.71578   -802.60166    3376.6867    -247.6083   -302.27689 0.00063102848 0.00057862819 0.00088019573 
  722000    401.08172   -121.60529    357.79141     1988.669    822.45461    31.730787 0.00063000805 0.00057804149 0.00087834979 
  724000    405.12611   -122.65044   -558.24231    773.49533     474.6434    679.70417 0.00062896092 0.00057648692 0.00087999158 
  726000    385.28733   -122.94635   -31.532819    1137.4765    2369.5848   -379.34432 0.00063015379 0.00057719149 0.00087981152 
  728000    375.38403   -121.83322     671.0491    875.05369   -95.225375   -138.25368 0.00063052598 0.00058239136 0.00087861838 
  730000    429.94424   -123.00279   -600.11534    1405.5007   -489.85073   -154.38295 0.00063318383 0.00059118761 0.00087540344 
  732000    376.61641   -122.70684    817.29193    823.81941    857.68319    2355.9028 0.00063869364 0.00058848878 0.00087371327 
  734000    389.38577   -123.02065     -998.016   -1983.7091    120.75922   -1051.5635 0.00064070351 0.00059093593 0.00087311989 
  736000    382.82421    -123.5514    -175.2388    1244.0075   -2108.3761   -220.87393 0.00063893067 0.00059019906 0.00087284064 
  738000    457.17972   -122.58796    -119.1235   -372.81609    1919.9575   -2535.5294 0.00063883719 0.00059033413 0.0008735429 
  740000    433.57283    -122.3875   -707.51256   -771.63724    60.147162    -596.4177 0.00063711519 0.00058945853 0.00087180054 
  742000      420.676   -121.97951    677.89434    485.86873   -421.83735    304.28734 0.00063637228 0.00058740719 0.00086894351 
  744000    407.89521   -122.18011   -981.85157   -2311.7285    829.54678    99.895854 0.00063515473 0.00058610342 0.00086605397 
  746000    382.97579   -122.01349   -526.27013      1006.99   -222.48536   -1579.4292 0.00063347579 0.00058529265 0.00086569217 
  748000    396.98171   -120.55154    407.37698   -302.03315    985.78737      389.317 0.00063240178 0.00058638883 0.00086310384 
  750000    414.52299   -121.85643    -577.7155   -514.18353   -332.86246   -522.61745 0.00063120995 0.0005848355 0.00086714757 
  752000    417.20629   -122.38863    1089.3517    554.15562    1409.7154   -120.34526 0.00063024173 0.00058373033 0.00087063252 
  754000    387.87106   -121.99052   -778.48943   -239.81241    702.19175   -120.60386 0.00062873699 0.00058426379 0.00086866107 
  756000    415.03154   -121.97372    956.79863   -464.25041     -3206.88    962.34389 0.00062709605 0.00058234569 0.00087683404 
  758000    378.54535   -121.38071     596.6167    147.06723    2650.8123   -1511.3086 0.00062793926 0.00058099523 0.00087654031 
  760000    394.81782   -121.66008   -1651.0654   -1323.6947   -3474.0024    191.81435 0.00062690145 0.00058983018 0.00087475634 
  762000    390.06929   -122.90053    730.92708    123.76799    1555.3675    271.54049 0.00062523341 0.00059063247 0.00087360492 
  764000    341.62173   -122.31075   -2127.3584   -1407.0114   -2476.6901   -398.64708 0.00062387758 0.00059043417 0.00087392197 
  766000     421.4513   -122.16128    1379.3199    -249.0475   -741.21208   -688.46881 0.00062222293 0.00058907604 0.00087176032 
  768000    391.55585   -123.02096    39.092252    1623.9855   -56.877966   -464.71378 0.00062595967 0.00058777665 0.00087070589 
  770000     396.6657   -122.64865   -1270.1207    1196.5141    896.61793    233.01443 0.00062911117 0.00058606185 0.00087337135 
  772000    376.45655   -121.79833    1381.6084    461.37218    72.842019    876.72511 0.00062857699 0.00058803659 0.00087182909 
  774000    395.24371   -122.87044   -1861.0236    976.71135    625.25906    -791.1822 0.00062718709 0.00059215802 0.00086964855 
  776000    425.99217   -123.29902    1002.9737    133.44707    706.38911    131.27151 0.00062522171 0.00059026745 0.00086952291 
  778000    392.10696   -122.00941   -234.79192   -1782.7691    1557.3103    269.69347 0.00062662084 0.0005890138 0.00086935346 
  780000    387.88994   -121.01043   -259.18698    496.96259    1040.9174    1377.9578 0.00062663794 0.0005898596 0.00087780244 
  782000     409.2089   -121.57332    2889.8612    11.277719   -1096.9065   -625.17705 0.00062470475 0.00058691718 0.00087808394 
  784000    375.16137   -123.60738   -2821.1447    917.55824   -2369.0983   -222.37612 0.00063251214 0.00058535016 0.00087544368 
  786000     399.7477    -122.4623    2076.4161    3.4012276    1258.1589    605.33013 0.00063340479 0.00058414453 0.00087686608 
  788000    412.81778   -122.08855   -233.14962    2205.8111     -1.44286     914.7658 0.0006319726 0.00058580068 0.00087740591 
  790000    391.20338   -123.47603   -1868.9254   -865.22446    -298.4298   -341.02287 0.00064224575 0.00058368517 0.00087494706 
  792000     395.1005   -122.36115    734.63211    1283.6798    124.04928    1453.6002 0.00064299412 0.00058223486 0.00087329439 
  794000    412.65974   -122.81936   -2555.3427    1891.2062    929.19534    46.597972 0.00064351047 0.00058205175 0.00087095553 
  796000    410.25187   -122.81621    1255.6472    975.97046    1614.5325    8.0701971 0.00064601103 0.00058014684 0.00086939273 
  798000    400.85988   -121.89353   -844.28616    1378.0267   -1204.8895   -996.50687 0.00064443702 0.00057869227 0.00086798799 
  800000    386.68729   -123.10017   -433.76825   -1509.3817   -352.72818   -19.131091 0.00065030667 0.0005787241 0.00086601363 
  802000    373.31094   -122.24534    434.41058   -848.15725    458.35992    -460.4412 0.00064778225 0.00057741049 0.00086371068 
  804000    374.28461   -121.83947   -2257.4293   -1838.8124   -548.00721   -646.20103 0.0006461362 0.00057899075 0.0008628068 
  806000    391.39442   -121.65393    2005.8876    604.50524    1402.9574    2090.4825 0.00064498785 0.00057868337 0.00086087857 
  808000    386.00819   -122.47675   -790.32756    -399.6113      859.823   -293.78168 0.0006441387 0.00058122522 0.00085954831 
  810000       348.86   -122.54355   -17.914848   -260.94428   -1158.0612    966.37394 0.00064263642 0.00058833263 0.00085813469 
  812000    454.45622   -121.25446    1418.8154   -1287.9219    582.59857   -799.34612 0.00064619459 0.00059282895 0.00085554211 
  814000    392.18402   -122.30333   -1368.4069   -1492.0424    1803.6952    247.82263 0.00065368257 0.00059255362 0.00085341474 
  816000    403.54448   -123.06514    878.34839    806.74304   -618.06769    -729.5526 0.00065366525 0.00059765912 0.00085163338 
  818000    453.57188   -121.04289   -1955.2698    192.95238   -1037.9052    -1661.606 0.00065495633 0.00059552591 0.00084987561 
  820000    386.76648   -121.52426    97.854795    817.68503    1237.9321    1589.4022 0.00065348992 0.00059511067 0.00084867214 
  822000    391.39229   -121.36845    322.80145   -2235.4723    3992.2513   -142.07616 0.00065166517 0.0005953495 0.00084600176 
  824000    381.03305   -121.82108   -1930.0095   -412.86482    1548.8518    -82.91568 0.0006516974 0.00060474585 0.0008546027 
  826000    354.82618   -121.54099    1852.5242    28.005348    269.55242   -35.485841 0.00065017285 0.0006022549 0.00085780095 
  828000    389.86583   -122.61644   -2044.4604    1144.9756    530.87175   -1358.2355 0.00064861877 0.00060089729 0.00085738237 
  830000    399.18948     -122.594    260.96974    656.71216   -618.02637    471.48853 0.00064732655 0.00060164064 0.00085460392 
  832000    383.60096   -121.31987     569.8639   -734.75974    1502.7084    1243.2767 0.00064785895 0.0006016591 0.0008527347 
  834000    403.36264   -121.43135   -1244.3604   -656.25438   -1230.8254     1139.874 0.00064791388 0.00060043606 0.00085596301 
  836000    399.36245   -121.88702    1632.3576    1034.1434    956.01008     -781.046 0.0006516505 0.00059981797 0.00085425875 
  838000    382.66832     -122.321   -809.85129   -1127.7545   -194.56939     -441.687 0.00064980874 0.00060026369 0.00085152106 
  840000    405.23324   -122.80769    731.07302    965.67978    224.67349   -1257.4917 0.0006481389 0.00059961267 0.00085357055 
  842000    409.60527    -122.4263     759.0697    263.62253   -1982.2336   -2378.5422 0.00064669248 0.00059842539 0.00085576705 
  844000     397.8937   -123.29032   -1541.2618    2187.8823    366.06101   -222.10129 0.00064484199 0.00059701393 0.00085780505 
  846000    423.89141   -123.13688   -146.26047    456.85763    792.60796   -1122.0321 0.00064405111 0.00059650848 0.00085619426 
  848000      401.884   -122.01089   -1848.5501    2052.2343    1884.6317   -1428.6521 0.00064488343 0.00059595968 0.00085662134 
  850000     356.4413   -122.71309   -508.60223   -493.44089    1545.3173   -49.421565 0.00064553496 0.00059566579 0.00085613803 
  852000    323.18502    -123.9856   -9.8781135   -1290.8877    1072.3109   -1494.5168 0.00064447821 0.00059425633 0.00085341691 
  854000    382.26679   -122.66186   -1807.3569   -688.64637   -1059.0815    468.46288 0.00064769554 0.00059308936 0.00085158984 
  856000    431.30021   -122.63041    2075.5836    531.59801   -1649.0584     350.8855  0.000648323 0.0005945316 0.00084977252 
  858000    403.47138   -123.39592    -1666.166   -1176.5429    -2590.255   -290.82475 0.00064664937 0.00059308163 0.00084766081 
  860000    411.41548   -122.47768    882.21877   -1563.9241   -568.26128    1335.3251 0.00064602527 0.00059183759 0.00084575753 
  862000    402.22733   -122.75914    1023.6311    -60.99705   -656.98309   -2620.9406 0.00064397655 0.00059377917 0.00084429647 
  864000    400.53837   -122.16037   -1344.0687   -2316.4671   -2204.4547     208.8499 0.00064267572 0.00059524203 0.00084272689 
  866000    432.64685   -122.50249    1828.5794    715.05997    1669.3229    3496.4283 0.00064144549 0.00059358302 0.00084133915 
  868000    425.16231   -121.78662   -1479.0967   -1684.0518   -1974.2872   -1358.7434 0.00064094781 0.00059388153 0.00084177001 
  870000    393.00895   -122.35601    269.72153    -311.7469    496.83213    2351.1345 0.00064608884 0.00059511931 0.00084288405 
  872000    432.86441   -121.51762    1026.2705    102.27026    585.41623    -2833.287 0.00064783033 0.00059392084 0.00084252588 
  874000    379.05356   -122.20005   -1586.7896    300.83274    1708.1475    47.354103 0.00064662593 0.00059493513 0.00084728147 
  876000    399.71816   -122.62174    601.10119    1962.1164    -1196.508    1375.0296 0.00064583119 0.00059345668 0.00085107079 
  878000    380.02027   -122.81739   -1205.0122    -340.7002    -618.1824    322.37387 0.00064712881 0.00059269158 0.00085293053 
  880000    396.35737   -121.46828    376.12757    735.07888    -1573.817    1734.3071 0.00065238997 0.00059184388  0.000852258 
  882000    427.77275   -121.37808    1529.5364   -267.24211    39.467779   -662.55026 0.00065451586 0.00059042684 0.00085072287 
  884000    375.60436     -122.126    -1080.054    672.96184   -797.32216   -255.63967 0.00065172124 0.00059132996 0.00085628264 
  886000    423.17696    -121.4866    1909.7764    1608.1749    87.921007   -157.94023 0.00065097416 0.00059073464 0.00086814057 
  888000    387.28091    -122.7551   -1177.0061     433.5522   -249.87365    700.87192 0.00065254939 0.00058977558 0.00086826736 
  890000    399.87575   -122.45081   -952.11502    3341.2287   -846.49069    785.57508 0.00065577104 0.00058929604 0.00086877291 
  892000    433.63561   -121.96618    131.92747    704.41503    -499.6385   -2039.6848 0.00065841317 0.00059096893 0.00086720175 
  894000    379.10084   -122.59839   -2355.9621   -986.87657   -123.99477   -650.03137 0.00065703157 0.00058995013 0.00086521356 
  896000    412.71209   -122.58448    435.85152    464.57738   -2054.1442    679.36881 0.00065555931 0.00058949423 0.00086292679 
  898000    399.45181   -121.75606   -669.35245   -158.48946   -315.42456    2468.8605 0.00065475873 0.00059013294 0.00086096361 
  900000    382.32199    -122.2369    843.87608    1126.0422    87.572622   -207.92661 0.00065330548 0.00058625027 0.0008634246 
  902000    385.00322   -122.11701    999.18946   -235.11922    1561.0458    971.98562  0.000650909 0.00058587791 0.00086769294 
  904000    418.21992    -121.7279   -1239.9398   -993.71961    314.77147     1943.756 0.00064882729 0.00058501596 0.00086687786 
  906000    406.96886    -122.1784    927.35087   -1140.0052    1952.8039    2112.9601 0.00064826995 0.00058497162 0.00086493824 
  908000    384.59941    -121.9745   -2404.8852   -3282.7417   -574.61384   -438.36599 0.00064631394 0.00058726341 0.00086422115 
  910000    382.44177   -122.55498    1309.6621    -439.9571    815.59332    1459.9421 0.00065066598 0.00058584267 0.00086249323 
  912000    388.53139    -122.0795    383.60295   -402.43567   -559.51233   -323.26622 0.0006540725 0.00058487631 0.00086208074 
  914000    418.53439   -123.06326   -766.55953     2541.867   -441.49903    2990.4211 0.00065205832 0.00058827103 0.00086052136 
  916000    422.39972   -121.86751    1469.2322   -488.46436   -2250.0622   -1642.4419 0.00065319564 0.0005880407 0.00085785575 
  918000    400.72554   -122.70712   -2266.8375   -1640.6801    779.73923    1299.9298 0.00065621371 0.00059228678 0.00085675083 
  920000    375.69125   -122.62247   -223.51333   -540.94894   -1684.6724   -416.99165 0.00065507696 0.00059208461 0.0008563305 
  922000    401.50429   -123.39081   -1144.0074    1753.6702   -655.74156    -160.5224 0.00065559657 0.00059079043 0.00085466722 
  924000     430.3013   -122.49528   -1682.7203      2229.98    340.22427    1485.2202 0.00065378418 0.00058948857 0.00085709239 
  926000    364.56228   -123.31353   -60.873859   -1533.6303   -1290.8639   -1129.0717 0.00065271648 0.00058883764 0.00085494901 
  928000    388.66675   -122.47138   -1665.6382   -1037.6286     58.51909    447.77471 0.00065231467 0.00058677915 0.00085860462 
  930000    464.58277   -121.02249    988.49242    22.742974    1249.3785   -2131.2668 0.00065068976 0.00058578046 0.00085799389 
  932000    409.46313   -122.49741    68.927189    224.04501    708.74291   -313.17102 0.00064947188 0.00058544339 0.00085695421 
  934000    417.85217   -122.06528   -196.88747    564.60039    977.91781    1360.6334 0.00064809217 0.00058421748 0.00085546147 
  936000    402.45863   -122.06539    1962.3924   -597.31197    1716.6061   -1078.2974 0.00064703013 0.00058443384 0.00085898714 
  938000    369.02542   -121.51359   -855.73907    851.78651    112.41434   -403.56351 0.00064716215 0.00058441534 0.00086103578 
  940000    371.56056   -122.38751     244.0241   -198.53892    329.55335    130.50313 0.00064628988 0.00058248568 0.00086036431 
  942000    406.51253   -122.58195   -128.24234    112.20522   -1333.4799    262.76532 0.00064447146 0.00058129423 0.00085851539 
  944000    413.14988   -121.46734    -1778.276   -1345.9549   -1069.4501   -1982.5207 0.00064353105 0.00058456279 0.00085968065 
  946000    399.66368   -121.76297    686.13566    207.09219   -1364.9212    -3.389829 0.0006426113 0.00058584192 0.00085820677 
  948000    370.07985   -123.59137   -2797.2802   -56.854626    1232.9758   -2035.1518 0.00064394472 0.0005855514 0.00085927327 
  950000    381.86037   -122.82732    48.858373    810.37504    -1389.651    391.16202 0.00064311341 0.00058459077 0.00085643431 
  952000    366.52619   -121.72334    783.40388    10.661233    912.29772   -933.12776 0.00064435338 0.00058324323 0.0008550743 
  954000    399.95765   -122.53348   -806.89258    283.40002    467.19944    2121.9531 0.00064462834 0.00058270017 0.00085582499 
  956000    412.70497   -121.94911    2351.8469   -2289.5257    1667.8462   -1132.0102 0.00064335386 0.00058167882 0.00085466062 
  958000    403.87943   -121.97704   -1365.2183    183.56744    127.34169   -1152.4651 0.00064194541 0.00058056286 0.00085279346 
  960000    407.14616   -122.66667    550.32658    3.3906365    572.66256   -501.12385 0.00064085316 0.00057937779 0.00085325806 
  962000    390.74144   -123.22397   -1437.7454   -2223.7829     1827.344   -380.79619 0.00063944994 0.00057856903 0.00085338861 
  964000    410.96347   -122.58494   -1077.2349    590.74747    758.40871    1350.2913 0.00063843125 0.00058207348 0.00085474028 
  966000    411.19171   -122.04765    1653.6391   -1624.5741   -282.73773   -463.57257 0.0006373514 0.00058118199 0.00085436262 
  968000    418.05299   -122.57124   -2299.8321   -1103.9636   -653.79085    1347.4469 0.00063681129 0.00058674143 0.00085454541 
  970000     408.9675   -122.55112    984.09975   -2818.8942   -701.44867    -766.3254 0.00064389912 0.00058421062 0.0008535922 
  972000    378.81084   -122.42466   -759.79582   -2064.9031   -1019.3473    109.38857 0.00064955151 0.00058485112 0.00085246927 
  974000    406.60508   -122.17245   -661.14507    2606.1375    1247.7344    450.13212 0.0006535443 0.00058446876 0.00085343395 
  976000    378.93817    -121.5218    1630.7701    1061.8821    2041.8539    449.87151 0.00065326403 0.0005857304 0.00085238576 
  978000    345.67635   -121.80429   -1580.6362    1853.5973   -167.91276    593.15495 0.00065281566 0.00058725041 0.00085331058 
  980000    379.30599   -122.75295    961.83864    914.82746    323.91513    -847.4575 0.00065143219 0.0005876375 0.00085198606 
  982000    398.14556   -122.15697   -679.79641   -1352.9758   -1321.1183    302.89494 0.00065110003 0.00058490598 0.00085122172 
  984000    364.09052   -121.71263   -794.31033    1923.8142    119.44326    641.25484 0.00065178841 0.00058562671 0.00085013772 
  986000    390.10128   -121.62429     3018.552   -472.72736   -2070.3315    1652.5317 0.00064995274 0.00058633645 0.00084909927 
  988000    418.04386   -122.75016   -2461.3033    697.84169    466.60078    1444.9059 0.00064906659 0.00058510441 0.00084696006 
  990000    346.05756   -122.89951     2098.655   -1248.2842   -1928.8226     24.19725 0.00064742954 0.00058778527 0.00084518036 
  992000    404.70298   -123.44065   -1265.4617    263.16682    540.16488     283.8947 0.00065154931 0.00058869892 0.00084357964 
  994000    381.26261   -122.32698   -1735.9312    419.89709   -387.95784    338.20222 0.00065041483 0.0005873876 0.0008423491 
  996000     400.3168   -121.59481    1635.2359     1774.582     457.9089    1457.7511 0.00064939466 0.00059024471 0.00084115635 
  998000    360.67175   -121.95362   -2924.3786   -484.14946    1507.7462   -240.37718 0.00064955077 0.00059234233 0.00083895844 
 1000000    369.06752   -121.90199     1490.291    406.18213   -259.65869   -2365.4308 0.0006486111 0.00059215051 0.0008370501 
 1002000     425.5124   -121.90897    -930.0586   -2906.2886    183.52768    304.38498 0.00064802575 0.00059119197 0.00083747336 
 1004000    346.63736   -122.80477   -800.15845    534.53133    1057.6722   -926.53852 0.00064940756 0.00059057643 0.00083420344 
 1006000     418.7326   -121.68888    1958.3669    483.08909    1653.9189   -1406.3334 0.00065348275 0.00058942357 0.00083268834 
 1008000    390.15754   -122.80835   -2078.5529   -658.25389    1617.4871    2290.9589 0.0006551877 0.00058899581 0.00083186638 
 1010000    390.18234   -121.17206    2058.1717   -1824.3272   -953.02859   -101.46019 0.00065534244 0.00059031328 0.00083335178 
 1012000    422.85284   -122.58991   -1938.0199     231.5031   -422.24152    953.19804 0.00065402555 0.00058963967 0.00084124387 
 1014000    413.04384   -122.23257    40.033227    816.99957     1210.973   -217.51921 0.00065374783 0.00059160036 0.00084578513 
 1016000    442.66841   -121.81705    783.92368    2544.6209     1425.238    295.28347 0.00065541964 0.00059291412 0.00084722044 
 1018000    409.74622   -122.77059   -2994.8254   -43.939345   -111.86947    -1730.485 0.0006549943 0.00059190794 0.00084604956 
 1020000    355.78922   -121.71258    1566.7531    1540.5211   -605.90532    350.41102 0.00065388446 0.0005909406 0.00084580354 
 1022000    364.45723   -121.52189   -1992.1213    32.075073   -43.709945    609.01272 0.00065321318 0.00059408681 0.00084384336 
 1024000    402.61176   -123.22533    282.85873   -40.510664   -253.46644    399.91576 0.00065266344 0.0005926837 0.00084242794 
 1026000    389.57295   -121.42526    973.97108    242.20743    771.92764    490.08834 0.00065517303 0.00059236562 0.00084093425 
 1028000    410.08478   -121.66573   -919.81379   -2267.7812    1072.1791     1403.846 0.00065914739 0.0006009298 0.0008392295 
 1030000    425.18628   -121.80858    2659.7708   -1175.2411   -1495.7784   -275.70545 0.00066080712 0.0005996599 0.00083718413 
 1032000    376.58294    -122.1827   -1177.8619   -1914.1935   -853.72019   -1622.8836 0.00066459406 0.0005985108 0.00083496244 
 1034000    388.81396   -122.83529    292.44854   -559.05931    774.11505   -316.51793 0.00066092701 0.00059911543 0.00083353389 
 1036000    467.62344   -121.60667     517.1371   -966.79269    504.31665     610.0531 0.00066434295 0.00059782863 0.00083329179 
 1038000    409.79084   -122.45036   -1939.2999   -1605.1199    1730.9569   -611.89157 0.00066316638 0.00059674612 0.00083169393 
 1040000    441.00945   -122.26496    411.96009   -1803.3511   -1543.7091   -375.39158 0.0006623654 0.00059539946 0.00082999418 
 1042000    394.84244   -122.82083   -1944.3905   -596.01975     1997.472   -1729.2824 0.00066143816 0.00059406691 0.00082941645 
 1044000    426.88253   -122.55502    351.14194   -73.930052   -600.93152    560.77751 0.00066011925 0.00059368182 0.0008278928 
 1046000    427.16331   -123.70096   -391.28116   -1968.8266    833.03893   -35.761521 0.00065856784 0.00059363096 0.0008258889 
 1048000    432.38187   -123.58691   -227.44969   -1767.8234   -2585.0074   -817.08019 0.00065746999 0.00059304336 0.00082523288 
 1050000    410.08829   -122.28928    927.78701    2063.6162    867.39754    1555.7756 0.00065727691 0.00059315851 0.00082422281 
 1052000    403.30286   -121.93398    -480.6991   -1631.1901   -41.858809    -55.83081 0.00065639627 0.00059207786 0.00082354436 
 1054000    395.76661   -122.82322    614.99177    1339.3903   -2171.9017    1493.6608 0.00065511343 0.00059798619 0.00082150164 
 1056000    367.92031   -122.05734   -491.95923    1780.9854   -522.90031    987.93546 0.0006534382 0.00059585735 0.00082054399 
 1058000    402.08006   -122.68508   -1114.7689   -1510.7288   -470.94081   -1216.0868 0.00065225682 0.0005958701 0.00082438916 
 1060000    400.71781   -122.47012    519.37838    -17.19065    1340.1494   -250.62188 0.00065166399 0.00059551713 0.00082583928 
 1062000     435.9599   -122.24008   -1831.4688   -154.69428    486.78307    -1778.788 0.00065071587 0.00059601044 0.00082558146 
 1064000    436.82923   -122.50519    252.25467   -1122.7357    356.68912   -1530.9915 0.00065133829 0.00059522918 0.00082443408 
 1066000    395.52296   -122.89869   -683.95278   -177.64601   -558.05479   -1965.8243 0.00064929019 0.00059481095 0.00082507154 
 1068000    405.61129    -122.0588   -1074.2135    1111.2507    570.25909    910.54445 0.00064849591 0.00059408741 0.00082461086 
 1070000    368.31562   -122.76457    214.51917    1544.2496    1057.0875   -649.85033 0.00064661635 0.00059353602 0.00082343125 
 1072000    384.55777   -123.26437   -951.41979     22.79041    1403.9128   -1186.6885 0.00065080069 0.00059247639 0.00082272569 
 1074000    406.16251   -121.72919    1228.2424    1030.4845    157.67988   -515.16902 0.00065065588 0.00059149468 0.00082270796 
 1076000    406.93113   -121.62643    931.36445    989.22356    1901.3473    73.996741 0.00064920618 0.00059768366 0.00082170135 
 1078000     382.3224   -122.07802   -613.99597    953.92009    822.67011    1863.8483 0.0006469943 0.00059702959 0.0008205782 
 1080000     420.8618   -120.63898    2335.1304   -2355.0477    1479.9024   -2010.5221 0.00064833144 0.00060293086 0.0008206086 
 1082000    382.57045   -122.53153   -768.16828    1553.0741    189.69122     355.0663 0.00064584134 0.00061081941 0.00081991348 
 1084000    427.16285    -122.7494    216.78514    629.82535   -282.34291   -634.87634 0.00064551845 0.00060890492 0.00082447948 
 1086000    423.56372   -123.48193   -185.88724    547.29075    1719.9097     1.418923 0.0006450892 0.00060823603 0.00082377704 
 1088000    401.26367    -123.1128   -1647.1251    1243.3793   -1385.8934    221.03065 0.00064427633 0.00060902331 0.00082301734 
 1090000    418.13821   -122.13573    1113.2789    474.43536    -100.7179   -1453.0036 0.00064301645 0.00060758387 0.00082141003 
 1092000    460.83259   -122.73206   -1572.6495   -427.40216    848.28075    2509.5968 0.00064229826 0.00060749843 0.00082727265 
 1094000    383.17643   -122.47176   -90.807769       1765.8   -76.081726   -31.013959 0.00064157196 0.00060803362 0.00082736883 
 1096000    396.12089   -122.13014    295.30222   -196.32988   -995.01991    -332.4322 0.00064657321 0.00060722292 0.00082601121 
 1098000    435.05899   -122.49991   -1317.8055   -594.17014    2590.9654    2284.4228 0.00064683499 0.0006070008 0.00082449409 
 1100000    359.14774   -122.11673    301.56702    560.79409   -1216.7416    597.62083 0.00064611595 0.00060539702 0.00082451887 
 1102000    419.31114   -121.84726   -1049.4206    1493.3861   -424.62882    1383.4349 0.00064570084 0.00060444205 0.00082292889 
 1104000    389.05067   -121.66098    713.38612   -965.77936   -554.64854    281.98358 0.0006472661 0.0006038055 0.00082327989 
 1106000    388.50668   -123.29281   -645.74501   -894.80718   -626.44641    1511.9639 0.00064625697 0.00060312561 0.00082176134 
 1108000     363.0217   -122.36892   -585.46374    199.02062    1485.0474    1429.2152 0.00064687796 0.00060223537 0.00082028742 
 1110000    391.15527   -121.61893    80.128178   -2424.4232   -105.74907   -1210.1098 0.00064565525 0.00060193675 0.00082158151 
 1112000    453.88303   -122.16403    137.17608   -860.22913    1384.6969    2567.6204 0.00064492851 0.00060220693 0.00081995387 
 1114000    403.92646   -123.85727   -566.80012   -102.09952   -696.87945   -286.87471 0.00064476957 0.00060253194 0.00081890293 
 1116000    368.78515   -122.22329   -387.42988    452.04208   -1205.4358    766.12942 0.00064706809 0.00060158616 0.00081734726 
 1118000    391.71526   -122.09192   -561.29894   -244.57094   -1073.2233    1224.5492  0.000657113 0.00060175037 0.00081590298 
 1120000    435.95744   -123.28765    145.37751   -55.014911   -854.51654   -1957.3681 0.00065740414 0.00060148345 0.00081541187 
 1122000    378.07108    -122.0634     848.1682    157.93314    1316.2732    1076.8928 0.00065704597 0.00060052807 0.00082073488 
 1124000    375.02919   -122.89254    612.25338   -294.76527    -807.5884   -2504.9452 0.00065601822 0.00059961416 0.0008340952 
 1126000    432.60517   -122.64436    516.00411    1366.4705   -888.40389    943.47047 0.00065971263 0.00059898342 0.00083150692 
 1128000    355.57514   -122.19834    275.17011    1157.3165   -827.62095   -2624.9535 0.00065856706 0.0005983847 0.00083148246 
 1130000    375.59472   -121.83812   -60.918644   -630.87153   -2142.0379   -180.03948 0.00065740953 0.00059721256 0.0008302557 
 1132000    399.13358    -121.7762    13.494414   -1483.3594   -1327.7986    2955.6018 0.0006564355 0.00059637397 0.00082886626 
 1134000    425.00764   -122.31261     331.2763    1.8750543    1825.3339   -278.26362 0.00065537395 0.00059593205 0.00082879679 
 1136000    397.69285   -122.66181   -186.65065   -2382.8622   -340.09674   -917.37342 0.00065608366 0.00059523756 0.00082921626 
 1138000     386.1081   -121.82453     292.4339   -963.51978    393.06955   -638.66685 0.00065455546 0.00059728605 0.00082716823 
 1140000    403.73991   -122.24532   -501.02773   -180.72941    783.45673    387.87752 0.00065527947 0.00059606712 0.00082753425 
 1142000    392.05383   -122.79094    -1428.786   -91.179121   -1974.6314    -931.6795 0.00065503577 0.00059960223 0.00082663373 
 1144000    392.60933   -121.64891   -1425.4331     272.6944    1311.4726   -1186.9687 0.00065502902 0.00059886491 0.0008255098 
 1146000    404.88182   -121.77083   -1206.8981    1162.1953   -1312.3689    -3260.835 0.00065490676 0.00059724892 0.00082407419 
 1148000    407.69022    -122.0697   -209.74421   -523.77817    1756.6975    840.81347 0.00065449012 0.00059729926 0.00082374795 
 1150000    380.63969   -120.85535    662.08338    1750.3834    1105.2864   -454.17671 0.00065381593 0.00059812266 0.00082849724 
 1152000    416.71802   -122.83306    1389.0445    905.18836    790.82267   -1988.6059 0.00065342667 0.00059734545 0.00083103083 
 1154000     397.3184   -122.39073    633.03947   -564.70349   -588.36737   -1011.9221 0.00065422867 0.00059902083 0.00082886669 
 1156000    402.14463    -121.6398     103.5072    2730.4956   -4387.9843    -624.1694 0.00065499205 0.00059931048 0.00082879138 
 1158000    379.06602   -121.11712    23.927123    1907.0581    1612.4702   -58.739921 0.00066612201 0.00059833569 0.00082704514 
 1160000    396.23802    -121.2998    139.86384    1046.4863   -2790.8144    3459.9458 0.00067017491 0.00059777659 0.00082682973 
 1162000    420.81223   -121.90291    284.40275    1477.5905    1375.0096   -2446.4122 0.00066965503 0.00059729883 0.00082641544 
 1164000     404.1927   -121.79051   -337.63168    184.53582   -299.27246    1109.5892 0.00066890907 0.00059739968 0.00082673033 
 1166000    424.37149   -121.58539    913.88603    349.10344    1070.5627    -373.4157 0.00066802612 0.00059691978 0.00083137799 
 1168000    360.86333   -122.20373   -723.99737    -36.68545   -286.28295    3056.4748 0.00066663214 0.00059807369 0.00084199944 
 1170000    448.38835   -121.37008   -701.18685   -2216.4337   -144.61526    463.77481 0.0006664877 0.00059822193 0.00084444065 
 1172000    399.69871   -122.58983   -532.46664    1024.6959    2258.1043   -595.28647 0.00066573912 0.00059808838 0.00084261058 
 1174000    408.93904   -122.88751   -676.51093   -2954.0578    1432.0413    -736.3492 0.0006648599 0.0005973522 0.00084124357 
 1176000     356.4698   -123.00856     336.8893   -2062.3662    901.32479   -396.18946 0.00066374057 0.00059608749 0.00084031402 
 1178000    360.42255   -122.53987    149.81625     1247.229    1114.3574   -2224.5529 0.0006633554 0.00059514996 0.00084172883 
 1180000    412.81661   -122.16385    1535.5828   -949.63272    913.55757    403.69245 0.00066189777 0.00059557213 0.00084326674 
 1182000    397.82538   -122.23026    1317.1499    -1038.437    937.08426   -1907.5715 0.00066121992 0.00059572505 0.00084158468 
 1184000    418.26425   -122.31357   -653.21556    635.83002    833.54728    1723.4091 0.00066006226 0.00059523508 0.0008434117 
 1186000    388.14542   -122.12925    100.65136    625.98012   -1924.8812    566.71478 0.00066140052 0.00059419254 0.00084185055 
 1188000    383.94934   -122.43007   -1478.8343   -246.55889    250.23737    94.462156 0.00066325317 0.0005954053 0.0008405206 
 1190000    369.76247   -122.16611   -1529.4475    337.02804    926.99002    1957.9682 0.00066261798 0.00059449389 0.00083954179 
 1192000     398.5603   -122.87489   -445.36916   -290.16449   -3402.0926   -1134.5995 0.00066152819 0.00059328668 0.00083955149 
 1194000    385.19283   -121.84945    -508.2919    1646.0918     213.0971    1683.9915 0.00066210105 0.00059285049 0.00083945657 
 1196000    363.30569   -121.19266    1003.1034   -2606.7153    207.10395    1838.4257 0.00066233168 0.00059188253 0.00083854074 
 1198000    416.53268    -121.0341    927.23277    329.76427    299.79876   -2403.1277 0.00066078531 0.00059171132 0.00083737072 
 1200000    418.09447   -122.90336   -601.33225    1611.6995   -416.51258    1054.6138 0.00066125315 0.00059522604 0.00083610768 
 1202000    448.01005   -120.12672    935.30493   -1265.6129    1655.0218    3423.0263 0.00066114846 0.0005957136 0.00083575879 
 1204000    434.53181   -121.01412   -233.40462   -1638.7542   -461.12173    -754.6634 0.00065959369 0.00059445535 0.00083373339 
 1206000    360.22301    -121.2262    2005.5875    1248.2023    132.81356    1727.9153 0.00065864856 0.00059445297 0.00083259173 
 1208000    385.84763   -121.37217    388.61575    207.98092    758.17953    1499.8063 0.00065756938 0.00059314574 0.00083263759 
 1210000     389.1665   -122.09602    715.54216    -74.17091   -468.97246   -563.54223 0.00065732385 0.00059231794 0.0008331257 
 1212000    407.13535   -122.74912   -1054.7933   -1276.3136    908.22171    1207.6676 0.00065886898 0.00059177557 0.00083181084 
 1214000    404.42598   -123.22093    -1946.225    521.95783    1386.8966   -2142.4177 0.00065751658 0.00059131867 0.00083033531 
 1216000    393.40105   -121.66777   -1367.9296    1730.8419   -1946.9003   -111.76081 0.00065960121 0.00059486597 0.0008302402 
 1218000    445.43453   -122.91225   -2188.4648   -2107.2598    691.90752    1125.0297 0.00065860134 0.00059767547 0.00082851696 
 1220000    402.98335   -122.29107    719.96678   -447.83927    1873.7517    2913.3169 0.00066075757 0.00059837916 0.0008286195 
 1222000    385.46382   -122.09356   -437.70502    887.89092   -3979.3489   -971.76788 0.00065996425 0.00060180135 0.0008300061 
 1224000    382.45024   -121.43683    1569.1794   -501.37453    454.98541    1164.6696 0.00065997918 0.00060093893 0.00083428925 
 1226000    393.55185   -123.33881    1115.5828    1383.2994     -1702.42   -1638.3279 0.00065813754 0.00060195413 0.00083331505 
 1228000    476.17991   -122.67998   -1255.7014   -690.26295   -10.671235    12.587608 0.00065753066 0.00060008175 0.00083237375 
 1230000     441.5034   -122.72162    268.16468    112.22509    939.09243    2748.6582 0.00065706681 0.00059911649 0.00083108601 
 1232000     382.8251   -121.80021   -1876.8789   -1466.0133    1293.2096    3556.4565 0.00065686355 0.00060024611 0.00083083604 
 1234000    375.59405   -122.73265   -1368.5815   -2239.6715    1221.0552    1213.8511 0.00065523331 0.00059835335 0.00083029258 
 1236000    396.31451   -122.91692    152.02844    592.96673    1076.4186    322.66787 0.00065531657 0.00059716668 0.00082855499 
 1238000    370.53152    -122.4888   -1790.2671   -130.44898   -2293.7916   -1454.5363 0.00065456736 0.0005964737 0.00082725259 
 1240000     366.4403   -122.70798    847.76263    2278.9861     87.20427   -1539.1693 0.00065407601 0.00059666162 0.00082808837 
 1242000     420.9677   -122.23744   -1199.5873    1510.9645   -514.07217   -1128.7507 0.0006529886 0.00059583318 0.0008288074 
 1244000     385.9448   -122.23233   -837.23809    1447.3142    805.03913   -1325.1359 0.00065181085 0.00059538622 0.00082710053 
 1246000    393.70384   -121.55086     777.0079   -858.94946     1272.215   -601.51453 0.00065534275 0.00059733831 0.00082585008 
 1248000    425.46817   -121.44111   -781.42995    968.19047    597.49175   -830.58288 0.00065389359 0.00059885687 0.00082595838 
 1250000      363.338   -122.47219    1570.2133    182.61809   -1847.8949   -355.72388 0.0006537756 0.00059777813 0.00082459599 
 1252000    450.89625   -122.54524    1192.1075    1312.7018    2249.1297    -2494.093 0.00065583685 0.0005973489 0.00082376414 
 1254000    423.41191    -122.7066    765.06065   -209.14753    364.68471    58.650717 0.00065579531 0.00059663148 0.00082437397 
 1256000    384.85974   -121.57443    903.24479   -731.50612    981.16442   -1202.4321 0.00065652717 0.00059776176 0.0008254706 
 1258000    415.18646   -121.94995   -1694.3264    239.21649   -380.01912   -556.90333 0.00065828132 0.00059712476 0.00082315751 
 1260000     414.5667   -122.54627   -98.292449   -1112.5517   -1828.5269   -221.22445 0.00065855317 0.00059883568 0.00082169971 
 1262000    375.19134   -122.54988   -3650.5814   -200.93004    1417.7536   -93.703399 0.0006571195 0.00059907744 0.00081997551 
 1264000     378.5259   -122.48764   -1688.8484    656.00485   -3066.7855   -135.84816 0.00065588195 0.00059866703 0.00082311944 
 1266000    388.07435   -122.04068   -257.76838    685.96412    63.138131    2853.8859 0.00065811369 0.00059803432 0.00082305362 
 1268000    400.60085   -121.51416    -616.5326   -3208.1796   -838.95261    118.89271 0.00065829169 0.00059711875 0.00082214915 
 1270000    374.15056   -121.94852    2558.5664    166.98285    2149.2061   -412.57441 0.00066023655 0.00059640071 0.00082044242 
 1272000     415.1901    -123.0621   -1591.8911    3186.3616    3088.6873   -747.48678 0.00065919944 0.00059672332 0.00081976708 
 1274000    355.34456   -122.30771    880.67638    1477.3036    483.83116   -1688.4862 0.00066467219 0.00059796133 0.00081831611 
 1276000    425.72309   -123.31926   -321.23214    961.97497   -2229.9356   -1831.4408 0.00066625288 0.00059674479 0.00081724222 
 1278000    342.19214   -120.53534   -176.24291    -228.1333   -585.01856   -515.73543 0.00066557485 0.0005962596 0.00081606215 
 1280000    367.35081   -122.37945    2764.2104    150.68333    -1165.257   -1352.3141 0.00066438164 0.00059507633 0.00081486086 
 1282000    416.34118   -122.63799   -1494.9133   -111.02078   -2441.2086    -1550.396 0.00066295128 0.00059554587 0.00081359987 
 1284000    398.41331    -122.1235    1077.3927    1026.9251   -1931.2199    2410.2635 0.00066156836 0.00059592853 0.00081296648 
 1286000    320.51666   -122.16741    347.15563   -810.80781   -397.22553   -685.15007 0.00066248929 0.00059862217 0.00081213196 
 1288000    331.48487   -122.16536    -2993.784   -342.41614    291.54256    1989.6508 0.00066340242 0.00059716441 0.0008114126 
 1290000    404.30932   -122.30196   -239.37625    356.73196   -1168.1583    1059.2149 0.00066241969 0.00059639799 0.00080959098 
 1292000    440.42938   -122.75802   -3919.3642   -539.92599     686.1797    2413.6712 0.00066220736 0.00059695776 0.00081493134 
 1294000    431.39522   -122.05489    681.42352   -275.69533    1504.6918   -1051.5755 0.00066148362 0.00059695717 0.00081714844 
 1296000    365.32089   -122.67643   -307.05353   -1655.0042   -1555.7836   -1865.1511 0.00066340228 0.00059647123 0.00081851136 
 1298000    401.85932   -121.70606    384.15069    1602.9653   -262.84799   -1286.2681 0.00066559581  0.000596153 0.00081768211 
 1300000    389.11464   -121.81023    2543.5404   -1237.1818    1976.3597    -1299.929 0.0006645085 0.00059533778 0.0008166868 
 1302000     400.1422   -122.73257   -1404.8075   -1602.7338    387.50695   -997.03006 0.00066324474 0.00059384258 0.00081494574 
 1304000    403.25664    -122.7801    874.38317    -2380.199   -543.70133   -662.92524 0.00066233762 0.00059544022 0.00081354912 
 1306000    417.88209   -123.14879   -2121.7369    433.55331   -384.03666   -175.46554 0.00066208792 0.0005953225 0.0008131566 
 1308000     388.9768   -121.40698    -66.61298   -936.72582   -1614.4232   -554.93632 0.0006608517 0.00059490487  0.000811688 
 1310000    388.39038   -122.68184    1209.0705    1573.2175    362.33997    3736.4995 0.00065986045 0.00059428605 0.00081038984 
 1312000    379.24493   -121.91968   -2464.3638   -559.02409    710.48289   -243.20146 0.00065901617 0.00059360491 0.00080895662 
 1314000    384.89572   -123.01487    595.98583   -1437.0443   -1780.4522   -618.73274 0.00065845168 0.00059295292 0.00080788923 
 1316000    415.40525   -122.27934   -2186.4849   -555.85791   -454.62512    -397.1194 0.00065723208 0.00059314933 0.00080850704 
 1318000    384.74693   -121.87976   -1314.9292   -1897.2255    677.59482    654.56252 0.00065866646 0.0005929372 0.00081061906 
 1320000    377.90136    -121.6977    746.36652   -1649.2265    2460.1787    1595.5476 0.00067139524 0.00059278862 0.0008095981 
 1322000    403.46296   -123.10878   -1997.0515    613.87447    -2579.847    174.40441 0.00067644817 0.00059250872 0.00081046441 
 1324000    344.83139   -121.92157    2265.2589   -429.99765    79.948924   -95.884088 0.00067672718 0.00059313859 0.00080929424 
 1326000    386.84716    -121.6247    783.52523   -85.330647   -1658.7307   -76.778806 0.0006785823 0.0005928288 0.00081465774 
 1328000    412.51973   -122.34289    233.89663    58.554208    491.22463    937.40136 0.00067858941 0.00059148689 0.00081379667 
 1330000    390.85753   -121.29179    2252.6799   -633.93243   -132.19469   -1216.5098 0.0006771749 0.00059382013 0.00081263737 
 1332000     390.3563    -121.5646   -1277.2247   -3757.1778    13.166416    2038.6374 0.00067698081 0.00059441497 0.00081091288 
 1334000      435.858   -121.99193    857.15464    1816.8893    657.98485    -578.8261 0.00067617084 0.00059489743 0.00081061011 
 1336000     374.3275   -122.29165   -1941.7553   -260.87699    -778.0198    962.86297 0.00067495766 0.00059400181 0.00080999095 
 1338000    439.04782   -121.31299   -797.71948    940.73576    524.69429    794.73647 0.00067378369 0.00059406853 0.0008096023 
 1340000    379.26329   -121.99671    697.31093    473.44375   -49.597915    1094.3081 0.00067426359 0.00059294189 0.00080864697 
 1342000    413.10346   -122.80918   -2254.1045   -331.10699       3364.9   -493.22598 0.00067408182 0.00059206371 0.00080842935 
 1344000    396.91308    -122.1707    1641.9904   -324.86097    1447.9781     642.7187 0.00067205741 0.00059118173 0.00080906363 
 1346000    400.92001   -122.12136   -1715.2653    -1858.772    3424.5159    56.118152 0.00067112009 0.00059019634 0.0008113163 
 1348000     386.3921   -123.60196   -97.978567    622.99554    1824.1936   -2480.5976 0.00067052573 0.00059148894 0.00081228456 
 1350000     364.4654   -121.85331    1205.0443   -739.87235    -2155.096    108.61069 0.00066970139 0.00059177941 0.0008107292 
 1352000    384.62944   -121.50479   -957.29475    190.65926    1656.4018   -564.94971 0.00066867017 0.00059120847  0.000810346 
 1354000    390.75547   -123.23882    1067.6448   -330.51539    2035.8146    1438.5973 0.00066815075 0.00059041102 0.00081115044 
 1356000    391.92722   -122.17253   -899.05378     1112.497    362.55139    189.49596 0.00066853499 0.00058972201 0.00081241859 
 1358000    420.63183    -122.2211    596.81951    1460.4062   -2593.4189    203.29034 0.00066752428 0.00058914386 0.00081111414 
 1360000    401.43058   -123.26503   -621.07846   -1488.9677    185.17178    -2941.738 0.00066639595 0.00058999284 0.00081149243 
 1362000    403.76393   -122.67774   -1731.7775    1180.4123   -2298.9411   -1221.7616 0.00066606038 0.00058866432 0.00081033296 
 1364000    382.00678   -122.19862    609.74035   -2305.8481   -816.16566    782.65075 0.0006655048 0.00058913151 0.00080893489 
 1366000    447.40106   -122.07801   -1874.3205    546.73963   -147.37705    529.56909 0.00066512777 0.00058770157 0.00080991314 
 1368000    397.28003   -121.82002   -329.88359    810.23446    1868.3421    3309.0568 0.00066448418 0.00059195809 0.00080984695 
 1370000    386.94152   -122.24926    1554.8407   -1498.9737   -2178.5513   -1392.6472 0.0006646675 0.00059601205 0.00080853186 
 1372000    396.41229   -122.35259   -793.97787    307.13377    2815.3669    3214.6144 0.00066404575 0.0005952873 0.00080922101 
 1374000    389.95978   -122.45599     260.6009   -1110.9971   -1092.4297     -645.409 0.00066292839 0.00059517176 0.00080897648 
 1376000    403.67489   -122.16782   -900.74731     1510.283    1290.6735   -129.06435 0.00066227614 0.0005957185 0.00080786916 
 1378000    408.81889   -123.24133   -798.81226   -447.34533   -251.00578    1258.0717 0.00066260736 0.00059503235 0.00080681987 
 1380000    388.12589   -123.04876   -46.576637    477.85466   -1066.8301   -323.64248 0.00066137948 0.00059399643 0.00080664544 
 1382000    425.44009   -122.05149   -586.73369   -267.71388     1976.359    476.38705 0.00066076055 0.00060058807 0.00080654787 
 1384000    395.28926   -122.70817    404.39658   -1741.3633   -1841.6726   -878.62868 0.00066218005 0.00060208352 0.00080575122 
 1386000    384.02665   -121.33065    167.74304    1462.6592   -114.91586   -802.56397 0.00066109216 0.00060119614 0.00080557156 
 1388000    421.50439    -121.7327   -775.78805   -1736.8247     -488.879   -1677.6387 0.00066061745 0.00060257325 0.00080827202 
 1390000     406.5799   -122.15216    443.83526   -874.70621    1920.0487    2395.3886 0.00066087938 0.00060732337 0.00081514088 
 1392000    387.64862   -121.12016   -1460.1708   -324.36478    2549.5835    1744.4199 0.00066378758 0.00060701167 0.00081965789 
 1394000    393.61144   -121.63578    807.27383    1003.2551    2885.3923    796.46379 0.00066306506 0.00060797351 0.00082898694 
 1396000    400.48112   -121.33195   -513.86953    119.07369   -1922.5234    146.70596 0.00066182843 0.00060778068 0.00082682629 
 1398000    401.60776   -120.64131    384.54992   -699.81649    3646.8018    -314.8742 0.00066092523 0.00060782995 0.00082563577 
 1400000    345.51675   -121.38026    1049.2611    608.10774    211.32373    506.37542 0.00065974755 0.00060703734 0.00082612545 
 1402000    391.70147   -122.59654   -1824.3479     635.8823   -374.03442   -1959.9929 0.00065898401 0.00060616676 0.00082425612 
 1404000    414.56937   -122.44554   -169.01088    2637.1289   -328.86133   -798.29591 0.00065871208 0.00060687847 0.00082367797 
 1406000    398.64973   -121.58404   -1408.5515     601.5014   -1501.0547    -2699.223 0.00065742769 0.00060788203 0.00082232122 
 1408000    410.87994   -121.57683   -901.00549    505.16926    1107.8511   -536.78145 0.00065767365 0.00060674483 0.00082233912 
 1410000    386.37644   -121.88126   -139.76153    1039.3854   -3273.8991    226.47267 0.00066226447 0.00060642451 0.00082460894 
 1412000    334.71142   -122.04088   -777.43277    8.8430654     410.1189   -1915.3991 0.00066227552 0.00060767391 0.00082341363 
 1414000    425.75278   -122.29697    2008.4688    4586.7357   -254.39112    2009.2543 0.00066058022 0.00060968447 0.00082212925 
 1416000    436.83109   -123.41944   -898.53743    384.50885   -939.89938   -243.36527 0.00065910322 0.00060899297 0.00082210662 
 1418000    391.62987   -122.85434    732.53878   -199.19678    -925.6586   -595.02243 0.00065848127 0.00060851621 0.00082185913 
 1420000    362.40498   -122.94058   -927.32542   -1932.5517   -1359.7948   -280.78387 0.00065803722 0.00060759861 0.00082077953 
 1422000    405.50155   -122.05046   -647.79848    55.693842   -360.57991   -796.31438 0.00065722266 0.00061070083 0.00081996404 
 1424000    393.59179   -121.18954    818.87932   -1000.0967    229.44845   -146.99908 0.00065644388 0.00061328768 0.00081933472 
 1426000    395.31303    -121.5531   -1670.3983   -1482.1167    1249.0609     3177.708 0.00065776354 0.00061802575 0.00081835073 
 1428000    379.83013   -122.00556    722.28418    962.16453    64.515027   -1187.4708 0.00066217622 0.00063664753 0.00081752899 
 1430000    379.99669   -121.93702   -1794.2752    546.99167    1689.3612    149.53554 0.00066452401 0.00063824667 0.00081874203 
 1432000    423.25732   -122.57033   -1099.4834   -2630.4519     -1992.23    310.64854 0.00066428685 0.00063739483 0.00082210081 
 1434000    370.98816   -123.16069    419.43807    2435.4472   -26.850972    1151.6907 0.00066464828 0.00063692338 0.00082232906 
 1436000    376.01816   -122.66921   -2166.2743    1771.5426   -524.92989   -857.47707 0.00066683115 0.00063619339 0.00082156983 
 1438000    420.53679   -121.80327    1757.6441   -571.58077   -1468.6475    1262.9637 0.00067056896 0.00063598472 0.00082147061 
 1440000    392.66691   -122.19797   -495.04344    1207.1617   -1131.5869   -1845.7209 0.00067218143 0.00063521199 0.00082061915 
 1442000    411.99202   -121.38909    1316.2463    -474.4115    49.558476     801.8138 0.00067062911 0.00063600531 0.00082015915 
 1444000    377.49047   -122.31998   -359.39756   -1237.2411    1601.4549    242.76736 0.00066959285 0.00063757859 0.00082009866 
 1446000    429.37605    -122.0937   -756.84029    -1306.679    627.04086    488.62995 0.00066920544 0.00063663698 0.00081888106 
 1448000    392.93226   -122.28652    1549.2391    59.601169    602.56836    271.66079 0.00066819526 0.00063563762 0.00081841004 
 1450000    413.03299   -121.76864   -2076.9813   -1673.9183   -2053.0278   -3698.9426 0.00066807356 0.00063521711 0.00081793493 
 1452000    364.79781   -122.49733   -258.20561   -1307.0089   -1088.9076    884.48967 0.00066733934 0.00063417083  0.000817115 
 1454000    399.85476   -122.55269   -1120.8182   -501.45034   -1189.9521   -1832.2801 0.00066631344 0.00063397826 0.00081955138 
 1456000    417.80395   -122.43024   -889.22971    324.94531    1405.8527   -2555.2342 0.00066619307 0.00063386694 0.0008186195 
 1458000    400.97899   -121.94304    1347.9922   -2801.4666    2023.6619    1215.8837 0.00066680794 0.00063288032 0.00081743355 
 1460000    437.27663   -121.78332   -1306.6868    636.78503   -1485.2487   -761.02206 0.00066916354 0.0006324698 0.00081784383 
 1462000    400.50343    -121.8191    2503.8019   -1520.5267    571.19259    1994.6147 0.00067005599 0.00063170236 0.00082057962 
 1464000    408.95893   -122.34419    363.65982   -502.44738   -1622.6347    1091.9876 0.00066979062 0.00063066599 0.00081976743 
 1466000    397.41921   -122.31997   -422.71528    913.91749    9.1232823   -1670.2494 0.00067104415 0.0006297755 0.00081867563 
 1468000    352.65738   -122.98794    1476.1335    1976.1357    1597.9608    2318.8128 0.00067259036 0.00063011884 0.00081760763 
 1470000     360.5247   -122.43464   -1930.2806   -1553.4436    1954.2713    2038.3796 0.00067292994 0.00062952695 0.00081637932 
 1472000    390.92001   -121.81573    1170.6894    1314.9089    2121.3905   -2428.8376 0.00067262375 0.00063180031 0.00081588877 
 1474000    394.38599   -122.78592   -2157.5448   -1203.7618   -233.64102   -490.00396 0.00067385495 0.00063500927 0.00081500961 
 1476000    404.47596   -121.79272   -1214.9307   -165.60515   -1132.2492    46.402828 0.00067431824 0.00063316298 0.00081383031 
 1478000    434.60137   -123.10363   -475.61821    512.83973    379.99884   -1886.6959 0.0006736794 0.0006323433 0.00081243449 
 1480000    413.00959     -122.787   -3314.2005    1546.2667     61.30325   -22.850199 0.00067266129 0.00063156574 0.0008114078 
 1482000    399.62105   -121.84559    2070.2334     1351.534     628.8885   -619.05123 0.00067189569 0.00063321017 0.00081229098 
 1484000    429.51907   -122.66539   -1432.1309    -1690.766    113.23839     1811.857 0.00067169219 0.00063640043 0.00081163299 
 1486000    400.89846   -122.44066    747.69046    1371.7626    763.37886   -89.311892 0.00067360335 0.00063624314 0.00081074111 
 1488000    423.28932   -122.73772    965.45304   -517.23179   -841.67682   -1194.9075 0.00067517267 0.00063546309 0.00080943857 
 1490000    394.67123   -123.08974   -797.81791    859.39563    535.31082   -386.80115 0.00067492673 0.00063482021 0.00080910424 
 1492000    383.20186   -122.67663    2716.0442    2173.2293     2181.848     1003.863 0.00067487401 0.00063561589 0.0008099927 
 1494000    450.05699   -122.53457    -1384.879   -21.453625    1446.2345     1911.408 0.00067424815 0.00063572789 0.0008088849 
 1496000    446.45148   -122.20887    373.75244    1277.8947    205.92232   -560.37438 0.00067324695 0.00063772398 0.00080960245 
 1498000    338.41368   -122.39235   -1435.4674    328.23191    1970.2682    438.23357 0.00067396722 0.00064184296 0.0008092582 
 1500000    365.00183   -122.26545   -3678.6158    734.83293   -583.67972   -1936.4716 0.00067766663 0.00064230127 0.00080831073 
 1502000    369.74779    -121.6825   -187.02697    715.84662    -296.1766   -1239.7176 0.00067763179 0.00064244503 0.00080722311 
 1504000    414.32765   -121.65143   -2797.5661     -756.197    790.78972     1094.751 0.00067726427 0.00064263491 0.0008063813 
 1506000    366.68822   -122.11789    88.414555   -241.46175    1132.3289    -2811.595 0.00067631996 0.00064708795 0.0008053135 
 1508000    425.48543   -122.99057    116.65892   -1359.3067    623.26228    2648.1405 0.00067692368 0.00065451891 0.00080409467 
 1510000    381.00307   -123.26159   -1410.9385    1499.8917   -809.44822     1425.744 0.00067638093 0.00065764485 0.00080309105 
 1512000    380.96942   -122.31256     1748.779   -812.54053    682.75665   -1447.7438 0.00067563708 0.00066161208 0.00080220235 
 1514000    380.23118   -122.81442   -75.271349   -373.25037    1367.0419    1192.1584 0.00067589156 0.00066716549 0.00080118175 
 1516000    372.05325   -122.92375    -148.5747   -918.85175   -1064.8868    193.91065 0.00067574947 0.00066770014 0.00080014243 
 1518000      458.059   -123.11116    60.484808    1515.2559    1619.9898   -2864.3429 0.00067463554 0.00066697696 0.00079903996 
 1520000    384.58009   -122.96472   -1372.4931    2275.6544   -2025.6778   -1069.6096 0.00067397141 0.0006661302 0.00079847433 
 1522000    404.94216   -122.42865    295.37335   -896.26471   -1802.5406    1125.8437 0.00067298267 0.00066584543 0.00079836547 
 1524000    383.46462   -122.92453   -2959.2097    180.17086   -991.22075   -2254.8069 0.00067218296 0.00066497436 0.00079812706 
 1526000    417.22467    -122.1087    107.99366    301.94439   -186.06157    580.98524 0.00067132491 0.00066391253 0.00079725224 
 1528000     415.8484   -122.03547   -686.71751   -3364.2876   -481.57226    810.75785 0.00067040869 0.0006636712 0.00079801221 
 1530000     367.4184   -122.42076   -370.32516   -2420.7655     -2727.97   -2194.5284 0.00067022163 0.0006630487 0.00080338398 
 1532000    404.92863   -122.08876    1762.0311   -1534.6095    704.41603     1082.839 0.00067049806 0.00066224303 0.00080170857 
 1534000    391.92276   -122.22165   -290.11373   -3295.7083    1231.0787    1615.6606 0.0006698915 0.00066092651 0.00080072613 
 1536000    377.43577    -122.2224    2336.1332    1637.9981   -1382.9605    2095.3584 0.00067053923 0.00066051802 0.00079999818 
 1538000    437.27203   -123.19585   -355.53489   -926.27814    1090.6768     463.4572 0.00067012221 0.00066617286 0.00079884063 
 1540000    398.21491   -122.64587   -304.77366    612.67061    114.67694     735.5203 0.0006703155 0.00066877643 0.00079797578 
 1542000    407.10323   -122.78228   -126.58853    78.084386    227.82746    59.162205 0.00066955388 0.0006679179 0.00079769539 
 1544000    403.78049   -122.82765   -2499.4618     58.32703   -2140.4462   -103.51358 0.00066918781 0.00066986266 0.0008043717 
 1546000    399.92184   -123.34315   -365.01308    1717.2874    332.90916    1735.9435 0.00066848143 0.00066885347 0.00081381213 
 1548000     427.5756   -121.89104   -2274.7502   -1898.3943    426.17452    320.39031 0.0006676273 0.00066870975 0.00082429462 
 1550000    385.44546   -122.25738   -668.70076    3698.2816   -3087.5058   -1624.2038 0.00066672361 0.00066900988 0.00082798543 
 1552000    426.34578   -122.10118   -1357.5356   -1318.5704     825.0355    709.98015 0.00066737838 0.00066801974 0.00082818767 
 1554000    342.51728   -122.24599   -2326.6146    1871.5639   -1609.3681    2815.7016 0.00066647642 0.00066720693 0.00082735322 
 1556000    394.20801   -122.63486     379.6097    2079.0446    2095.5599    817.84959 0.00066586133 0.00066692818 0.00082627141 
 1558000    474.12477   -122.25037   -84.648858    259.40838   -232.21084    -2177.809 0.00066494029 0.00066723013 0.00082739451 
 1560000    417.35209   -122.79697    1588.2339     1437.461   -874.60739    -394.4696 0.00066399664 0.00066665423 0.00082663288 
 1562000    378.52635   -122.61476    1162.1121   -3007.7342   -982.00483   -1905.0672 0.00066364212 0.0006659271 0.00082574823 
 1564000    376.61412   -123.46867    126.28583    -355.3861   -1699.8871   -93.697503 0.00066272848 0.00066533738 0.00082510393 
 1566000    422.77668   -122.69422    571.56548   -493.83094   -1948.5783   -2450.8633 0.0006641039 0.00066527033 0.0008245835 
 1568000    434.04384   -122.03381   -1346.9738    203.77459    1867.4763    2681.2222 0.00066392994 0.00066513715 0.00082531881 
 1570000    424.18027   -121.21888   -1390.2271   -2864.9735    1205.3371    1101.2413 0.00066564291 0.0006641427 0.00082659669 
 1572000    391.56106   -122.62403   -1298.6458    994.32342   -1143.9082   -1911.9535 0.00066457136 0.00066428927 0.0008268909 
 1574000    392.57681    -122.4799   -2022.9291   -289.05253    2388.3284      422.491 0.00066522828 0.00066338516 0.00082591053 
 1576000    405.18515   -122.51753    468.73285   -248.46336    512.05216   -356.30518 0.00066463263 0.00066285609 0.00082715142 
 1578000    379.70083     -122.789    -764.9503    1839.3994    456.37436   -620.56779 0.00066416024 0.00066672036 0.00083707909 
 1580000    418.56446   -123.01364    818.69744   -2407.6808    218.70597   -549.68642 0.00066314741 0.00066672111 0.00084017868 
 1582000    405.49065   -123.42648   -997.11137   -310.99398   -2428.7575   -1226.2302 0.00066308642 0.00066702971 0.00083956867 
 1584000    341.99482   -122.55498   -1243.6742   -1101.3029   -884.94231   -6.2435852 0.00066225989 0.0006664276 0.00083834025 
 1586000     420.0029   -122.48034    754.66374    778.99986   -4983.2117    1626.4211 0.0006626055 0.00066718334 0.00083749332 
 1588000    417.90506   -122.65238   -728.45902     964.7879    516.67568   -863.55011 0.00066393497 0.0006665166 0.00084030742 
 1590000    405.71551   -122.61421    378.01252    978.41517   -2002.6531    362.18993 0.00066317873 0.00066587036 0.00084084734 
 1592000    423.49976   -122.79245   -1131.9058   -1357.3932    136.03076    2374.7314 0.00066239177 0.00066597159 0.00084012132 
 1594000    371.47861     -122.208   -1872.4836   -302.50396   -1745.0299    1074.0679 0.00066195445 0.00066536419 0.00083948411 
 1596000    411.97861    -122.1604   -975.23493   -1061.9893    1148.2381   -139.65342 0.00066181715 0.00066450916 0.00083999563 
 1598000    371.20668   -123.14585   -3583.5731   -3665.2199   -55.148293   -2396.8352 0.00066177064 0.00066350519 0.00083915567 
 1600000    396.73577   -121.86581   -94.045788    1818.4297   -38.453861   -119.04919 0.00066112618 0.00066279428 0.00083802796 
 1602000    418.02853   -121.58601    199.55066   -1978.7207   -70.058602    1673.2879 0.00066054849 0.00066229324 0.00083737108 
 1604000    366.03237   -122.79232    697.19882    1145.5069    517.17651   -159.49453 0.00066034201 0.00066321195 0.00083635853 
 1606000    396.71744   -122.07437    2213.9044   -739.40938   -1243.9202   -1707.4337 0.00065979494 0.0006632017 0.00083585862 
 1608000    414.12393   -123.66156   -1054.3169   -804.42359    1986.2455     1165.877 0.00065941208 0.00066264001 0.00083452035 
 1610000    412.65806   -122.46295    816.58687   -1811.5923    998.07282    1517.3938 0.00065862137 0.00066145265 0.00083393376 
 1612000    414.05936   -122.58255   -1448.8768    1662.6114   -1246.1142    2044.6069 0.00065761538 0.00066197845 0.00083711691 
 1614000    385.82083   -122.05361   -561.03553   -54.687174    3169.2369   -786.55604 0.00065679017 0.00066187241 0.00083616577 
 1616000    418.76731   -122.67616   -1180.7716   -776.21762   -985.94467   -1595.3918 0.00065703146 0.00066374469 0.00083543757 
 1618000    386.76122    -122.0334   -1131.2872   -655.61114    2596.0898   -1171.8952 0.00065673032 0.00066247101 0.00083587138 
 1620000    346.07722   -121.80874   -188.84969    1973.8069   -224.08836   -1823.8977 0.00065606022 0.00066197639 0.00083496335 
 1622000    418.17661   -122.19262   -2230.3921   -1400.5862   -4.8402498   -676.42363 0.00065510605 0.00066132518 0.00083401667 
 1624000    438.77007   -120.94293    114.15036   -1396.8382    -803.3491   -445.56325 0.00065783464 0.00066192799 0.00083376237 
 1626000    413.54741   -121.71109   -597.18583    2555.1806   -919.38569   -1866.7653 0.00065811049 0.00066258401 0.00083249144 
 1628000    397.38682   -122.70341   -1327.7432   -2057.3254    -215.6555   -390.43137 0.00065732515 0.00066163644 0.00083169677 
 1630000    393.06617   -122.73388    2079.3275   -92.941162    1129.2282   -1845.1943 0.00065634457 0.0006610147 0.00083030674 
 1632000    370.88111   -122.92342   -976.23323    1383.7011   -1690.9309   -538.41079 0.00065560961 0.00066013043 0.00082895971 
 1634000    381.61365   -121.82077    1904.2845   -1302.8494   -473.41831    2652.0483 0.00065496317 0.00065941566 0.00083278111 
 1636000    377.89582   -122.71691    124.46651    2021.8458   -4471.3066    1062.9501 0.00065465521 0.00065847276 0.0008374125 
 1638000    411.90663   -122.65929   -1059.8942   -705.79138   -2699.3581    738.43124 0.00065395482 0.00065719192 0.00084070263 
 1640000    371.41661   -121.98811   -1378.9913    1560.2516    135.04184    -476.2196 0.00065373045 0.00065853684 0.00084097626 
 1642000    370.88627   -123.01157   -3121.1075    1495.1798   -362.16676   -324.05799 0.00065410029 0.00066067477 0.00084206644 
 1644000    377.94817   -122.10926   -922.09718   -631.59357   -1115.0426   -432.52577 0.00065360852 0.00066019411 0.00084080613 
 1646000    418.71726   -121.34679   -1215.2744    249.26006    76.639041    2427.0966 0.00065228282 0.00065935487 0.00083997005 
 1648000    371.49689   -121.62553   -1008.2251    -3916.656    -1015.285   -624.69403 0.00065511901 0.00066054569 0.00083973383 
 1650000    389.62015   -121.62005    518.86347    847.32969    -1796.646   -2364.9606 0.00065740456 0.00066127277 0.00083909926 
 1652000    367.97221   -121.67623    -556.7126   -232.18287    585.22783    817.80282 0.00065800165 0.00066107599 0.00084014444 
 1654000    371.12255   -123.35453    -70.73656   -402.67295   -326.49856    1920.3093 0.00065774612 0.00066075824 0.00084018584 
 1656000    400.76069    -121.6202    12.389548    1980.8629     1344.691    -984.2859 0.00065742626 0.00065993701 0.00083944366 
 1658000    435.97968   -121.78678    741.94645   -1201.8768    1678.5028     2040.855 0.00065706381 0.00065939076 0.00083857129 
 1660000    353.42945    -120.6393    1118.3409    887.61154     387.7844   -492.25586 0.00065694824 0.00065811593 0.00083817974 
 1662000    409.20547   -122.19806    888.49004   -2450.7042    301.98994   -193.67971 0.00065861305 0.00065722641 0.00083800571 
 1664000    393.65962    -121.6293   -556.36395   -73.851259   -696.21707     90.79756 0.00066104531 0.00065669322 0.0008388607 
 1666000    443.72686   -121.36809    667.46512    1369.9302   -971.08958    556.95685 0.00066050177 0.00065985482 0.00083890731 
 1668000     380.7813     -123.142    -1836.502    471.63387   -919.49724   -940.58022 0.00066045249 0.00066023496 0.00083815618 
 1670000    414.80615   -121.52371   -591.13921    2193.4742    727.73528    1478.3695 0.00065966231 0.00066281318 0.00083937802 
 1672000    433.96429   -122.14622   -633.73004   -273.41399    2510.0401   -1230.7384 0.00065893373 0.00066454846 0.00083865194 
 1674000    384.37095   -122.71079   -1729.7576    1352.4071   -1053.5786    3372.8835 0.00065853135 0.00066451147 0.0008378438 
 1676000    459.01578   -122.34177   -163.68574    241.59402    2075.6276    -769.1112 0.00066201186 0.00066492044 0.00083970328 
 1678000    408.30665   -121.58236   -344.66361     639.2859   -187.73845    1789.2833 0.00066643969 0.00066528854 0.00083888078 
 1680000    385.61331   -121.91038    630.22915   -1599.2661   -106.31855   -1541.3226 0.00066668054 0.00066623261 0.00084071498 
 1682000    435.16751   -122.60644   -776.67557   -710.16779    237.93338   -14.447925 0.00066591237 0.00066591401 0.00084367341 
 1684000    448.47401   -122.48497   -538.51222   -636.26661    1767.7206    -181.4754 0.00066512778 0.00066542207 0.00084262758 
 1686000    420.23493    -122.1045    1167.3712    379.27756    27.932863    797.03888 0.00066432143 0.00066466067 0.00084155037 
 1688000    410.62698   -122.42992   -817.44111   -1612.7929    -20.56333   -957.59121 0.00066391176 0.0006639709 0.00084058623 
 1690000    388.52706    -121.5869    1787.9432     805.8958    -379.2238   -1066.1127 0.00066314152 0.00066811394 0.00083965078 
 1692000    445.89415   -121.62613   -951.44284     2736.607    1299.5561   -2346.1494 0.00066644012 0.00067158777 0.00083907798 
 1694000    431.33316   -122.46787    626.81236    1383.0007   -2736.5454    1969.4001 0.00066891659 0.00067295889 0.00083824129 
 1696000    350.42608   -122.57412   -1004.9391    580.52924   -676.31511    1245.9695 0.00066807144 0.0006733457 0.00083667469 
 1698000    410.08238   -122.64831   -1706.8098   -2754.6333    2789.1767    2379.3226 0.00066736141 0.0006744315 0.00083786336 
 1700000    445.51381   -123.22725   -422.05807   -1483.7804   -2105.0767    2094.5376 0.00066657643 0.00067606205 0.0008363815 
 1702000    396.22621   -121.82858   -1936.6031    3019.3554   -960.27385    -1959.772 0.00066776425 0.00067562504 0.00083539701 
 1704000    407.51444    -122.1473    924.09077   -327.33552   -791.88198   -1290.5549 0.00066709935 0.00067483409 0.00083495433 
 1706000    345.94966   -122.33566   -6.9374813    304.13244    773.13005   -4243.1326 0.00066639065 0.00067530124 0.00083387323 
 1708000     382.5218   -120.84705    945.83286   -2322.1623   -2752.4545   -1549.7917 0.00066605101 0.00067597995 0.00083402229 
 1710000    367.91505   -121.51046    1131.8298    1168.5811   -2774.8597   -106.49375 0.00067075363 0.00067610053 0.00083393205 
 1712000    371.15293   -122.49872   -2335.6342   -132.56178    -1842.507     995.1672 0.00066995374 0.00067597966 0.00083331157 
 1714000    424.29489   -121.65299    648.49235   -1459.7677    -1238.515    1144.8446 0.00067006864 0.00067458109 0.00083221617 
 1716000    382.25919   -121.71397   -1803.7147    2436.4908    1019.6964    471.85467 0.00066913517 0.00067379486 0.00083291492 
 1718000     417.8212   -122.48086   -523.48819    -1164.176    619.84546   -83.402403 0.00066903532 0.00067308789 0.0008341225 
 1720000    400.25495   -122.47787   -654.65895    1308.9069    1969.2903   -2583.6831 0.0006696404 0.00067290493 0.00083289659 
 1722000    371.86531   -122.68157   -1707.3107    1827.6128    2450.3801    355.96715 0.00067022389 0.00067202074 0.00083212455 
 1724000    389.24272   -123.04436    681.68871   -369.14627    3434.7991   -2412.6077 0.00067071985 0.00067136884 0.00083104912 
 1726000    381.57576   -122.87006   -2299.9078    450.41898     2240.415   -2347.9647 0.00067071398 0.00067185295 0.00083027139 
 1728000     412.4203   -122.65632   -329.46554   -636.77904    1331.7557   -2737.6905 0.00066972976 0.00067113043 0.0008293474 
 1730000    358.60785   -121.46062    -855.5129    84.775579    600.85957    3637.6338  0.000669204 0.00067028413 0.00082839563 
 1732000    389.65028   -121.94564   -412.49286    775.14659   -1094.1023    861.81184 0.00066904023 0.0006699812 0.00082742353 
 1734000    394.34519   -122.44385   -97.841942   -807.64814   -157.18514   -959.81217 0.00066823521 0.00066949564 0.00082647046 
 1736000    406.03111    -123.1267   -1219.5159    580.22175    3010.7767    -1367.914 0.00066820316 0.00066896882 0.00082670592 
 1738000    374.70239   -122.35607    508.79818   -64.232936    2932.4885    70.272763 0.00066798081 0.00066802879 0.00082613652 
 1740000    394.42451   -122.63255   -1654.2541   -2159.9585   -1127.4152    312.31285 0.00066746555 0.00066734157 0.00082514625 
 1742000    359.38713   -122.34917    -161.1473    895.76606    2165.3507    2077.2704 0.00066803622 0.0006694399 0.00082450489 
 1744000    420.21762   -121.84157   -471.46639   -468.47088    2682.1392    1503.2244 0.00067073728 0.00066898143 0.00082365933 
 1746000    435.99753   -122.41863   -1756.1492   -902.66205   -1199.0039   -1293.7209 0.00066998989 0.0006684055 0.00082361776 
 1748000    418.93363   -122.07095    1055.5712    532.53878    928.68549   -1112.5789 0.00066889793 0.00066747495 0.00083037805 
 1750000    399.65213   -122.08461   -2519.2663    1033.9212    2446.0315    2247.6458 0.00066813957 0.00066907826 0.00082885701 
 1752000    404.83662   -121.24556    292.14401   -1474.6545    2338.6906   -318.66314 0.00066765299 0.00067030586 0.00082781047 
 1754000    417.12956   -122.38706   -340.35455    -2608.482   -347.78085   -1990.8933 0.00066876625 0.00066921472 0.00082734001 
 1756000    386.54261   -122.69909   -1908.8014   -2526.4475    1954.8144   -4078.3513 0.00066755675 0.00066871051 0.0008265229 
 1758000    396.44397   -122.15478    584.86192   -42.755578    2955.8674    841.41005 0.00066710494 0.00066798276 0.00082540448 
 1760000    383.54593   -122.87768   -2131.6316      -65.684     697.3057   -1522.7993 0.00066663928 0.00067013928 0.00082652621 
 1762000    359.84761   -121.31181    408.44768   -854.58373    638.56352    62.989675 0.00066728716 0.00066920654 0.00082666781 
 1764000    396.26901   -122.02278   -218.23296   -686.23123   -42.477181    1247.5439 0.00066933847 0.00067180719 0.00082601349 
 1766000    397.21525   -121.43846   -960.70075   -831.01329    342.83096   -2211.9507 0.0006696388 0.00067156557 0.00082535323 
 1768000     393.1626   -122.52184    1952.8513      2890.29   -3161.1882    10.261501 0.00066863656 0.00067182691 0.00082436881 
 1770000    394.68302   -121.40164   -727.67424    68.683398    2865.7765    -1152.826 0.00066822743 0.00067126936 0.00082363411 
 1772000    420.44009     -121.945    837.17327   -342.45935    855.23434   -1642.6257 0.00066756569 0.00067031171 0.00082336647 
 1774000    415.65762   -121.77617   -258.82327   -320.08061   -3952.8251   -522.51077 0.00067153272 0.00066938207 0.00082232042 
 1776000    399.21833   -123.16977   -1021.8543   -1462.6983    1987.6223   -1704.8143 0.0006769631 0.00066903168 0.00082132621 
 1778000    403.37338   -122.73764   -1134.1888   -3886.9903     1609.856    21.569765 0.00068405374 0.00066990389 0.00082051691 
 1780000    444.74984   -123.08102   -2319.8599    -94.96944   -857.63687   -157.86128 0.0006853215 0.00067218495 0.00082047781 
 1782000    400.51769   -121.19036    139.52069   -1710.2762    1097.3045    2302.8065 0.00068687696 0.00067228183 0.00081902099 
 1784000    408.26353   -123.02631   -1663.7071   -26.371915   -408.00165   -2439.5958 0.0006876712 0.00067247723 0.00081879033 
 1786000    391.00421    -122.5946   -218.75466     1778.697    709.42218    159.07175 0.00068764786 0.00067192078 0.00081997675 
 1788000    395.52483   -121.47024    119.31116    1923.4734   -3468.4108   -1421.0697 0.00068718949 0.0006721987 0.00081872193 
 1790000     377.0727    -121.5867    16.692299   -224.96096   -270.76347    1161.8566 0.00068612122 0.00067128119 0.00081784408 
 1792000    451.51067   -121.91918    1547.4158    2312.3277   -2414.9167    885.96105 0.00068724653 0.00067119873 0.00081901652 
 1794000    391.18818   -122.17259    732.21143   -103.11085   -194.20411    2023.3166 0.00068567656 0.00067124927 0.00081913882 
 1796000    412.51968   -122.34264    934.04044    98.170318    944.71394    1183.6622 0.00068523714 0.00067037274 0.00082107486 
 1798000     413.2473   -122.59921    1394.2191    717.32781   -1629.2574   -2739.7966 0.00068433998 0.00066982552 0.00082532376 
 1800000    411.43993   -122.01943   -951.64508   -4183.5562    355.31981   -838.82835 0.00068442526 0.0006691059 0.00082732705 
 1802000    405.78125   -122.10573   -782.50816    160.55661   -1887.9511    -255.9177 0.00068507639 0.00066846476 0.00082737517 
 1804000    378.49126   -122.24456   -3451.8399   -705.16245   -716.34595    1030.5118 0.00068628981 0.00066861419 0.00082653455 
 1806000    402.77516   -121.72331   -2267.0924   -3523.2614     2510.357   -891.79341 0.00068559884 0.00066723243 0.00082564641 
 1808000    378.26672   -121.81732   -1513.7074   -1748.9966   -1444.3204   -1219.3633 0.00068623942 0.00067232311 0.0008251364 
 1810000    443.42021   -121.47216    -979.8766    -2235.976    2228.8673   -1314.5012 0.00068666153 0.00067495047 0.00082568215 
 1812000    386.34822   -121.04498    1579.8803   -97.673466   -4019.0731   -524.23824 0.00068576557 0.00067419932 0.0008250147 
 1814000    429.19508   -121.17484    1262.4371    1005.4661   -1625.9342    4061.7331 0.00068521512 0.00067368785 0.0008238623 
 1816000    417.18732   -121.87736    1818.7538   -44.077786     2724.996      588.325 0.00068482403 0.00067313964 0.00082259839 
 1818000    432.41716   -121.39872    791.85202    420.49273   -1817.2775    434.53365 0.00068440423 0.00067244215 0.00082194645 
 1820000    438.72221   -123.37902   -932.59433   -1719.1437   -948.05309    210.48781 0.00068363963 0.0006726462 0.00082193762 
 1822000    424.21535   -121.73828   -996.77365    31.191052    685.05409   -1808.2829 0.0006831267 0.00067154626 0.00082128449 
 1824000     359.8158    -122.7598   -1655.2273   -1606.3387    3390.0949    70.520273 0.00068314916 0.00067071648 0.00082044338 
 1826000    409.81606   -121.85443   -586.44355    391.73151   -485.51407   -241.35775 0.00068341685 0.00067032249 0.00081965593 
 1828000    462.28947    -121.7313   -885.58021    854.91256     154.2983   -267.12853 0.00068536623 0.00066980114 0.00081878236 
 1830000    427.90952   -121.28242   -652.27809    183.18228    779.73964   -1793.1961 0.00068858225 0.00066923902 0.00081765063 
 1832000    424.58477   -121.99254   -3.6483719   -601.87389   -2795.2057   -677.91477 0.00069185598 0.00066992147 0.00081859113 
 1834000    401.31392   -122.65939   -1067.4466    845.65871    240.48533   -2198.0626 0.00069411636 0.00067313506 0.00081830794 
 1836000    406.85825   -122.58324   -934.89025   -439.67504    32.205591   -1448.4756 0.00069425533 0.00067181277 0.00081833264 
 1838000     379.5802   -122.59322   -79.394986   -657.47281    3286.8032    192.61299 0.00069417323 0.00067117244 0.00081676391 
 1840000    409.46578   -121.87412    1115.9301    661.69751    721.83401   -885.06384 0.00069372913 0.00067102201 0.00081663869 
 1842000    426.67888   -121.27815    1217.1538    1485.0908    3973.8596    369.68105 0.00069706599 0.00067308456 0.00081772412 
 1844000    359.11232   -121.81712    536.76047    1796.2425   -783.07205    681.17732 0.00069916345 0.00067183066 0.00081703737 
 1846000    441.70084   -122.16517   -295.50948   -1649.4319    279.82783    2628.2795 0.00069855084 0.0006716738 0.00081611374 
 1848000    400.13496   -121.43023    -693.1972    1525.4394    604.47155   -2181.8461  0.000697661 0.0006709052 0.00081569883 
 1850000    373.38825   -123.13029   -2084.5969   -1369.8783    -2179.472    369.08355 0.00069834262 0.00067042066 0.00081483424 
 1852000    429.92735   -122.51788    -1630.187   -1127.8662     -499.606    2461.4001 0.00069843109 0.00067037425 0.00081413067 
 1854000    363.56368    -121.9971   -1056.0517   -1706.4221    810.69604   -2358.5163 0.00070266102 0.00067263951 0.00081307856 
 1856000    404.07697   -123.21827   -417.82037   -944.06221     -2115.42   -580.12364 0.00070295863 0.00067443496 0.00081255675 
 1858000    427.16049   -122.25693    114.56825    238.31697    1331.4189    1094.4326 0.00070251482 0.00067542425 0.00081176577 
 1860000    406.55262    -122.1196    498.30427   -340.61529    586.58445   -135.90045 0.00070206775 0.0006802552 0.00081092521 
 1862000    365.86474    -122.1535   -1027.3462    473.00361    146.35552    799.98897 0.0007020568 0.00067952293 0.00081015319 
 1864000    398.93457   -121.71901   -809.28758   -60.120487     -63.0533   -1417.4053 0.0007016545 0.00067866805 0.00080990556 
 1866000    387.60859   -122.34422   -818.12608    1048.9599   -2807.3226    1701.3874 0.00070269415 0.00067872588 0.00080877845 
 1868000    403.72746   -122.81034   -814.01676    2506.1286   -1286.7204   -248.41519 0.00070219004 0.00067798219 0.00080859852 
 1870000    473.32101   -122.69334    1183.6021    941.77972   -2984.4598     751.5652 0.00070222957 0.00067764254 0.00080802436 
 1872000     394.5412   -122.27341   -41.597173    466.91034    811.82555    521.40231 0.00070169899 0.0006774847 0.00080736257 
 1874000    401.60674   -122.37475    281.76605    129.29478    59.894144    201.44737 0.00070077517 0.0006767635 0.00080660209 
 1876000    427.23304   -122.67456   -1012.1982    2335.6673    1792.1823   -342.38835 0.00070015279 0.00067598056 0.00080624955 
 1878000    369.86922   -122.63749   -1903.2764   -295.55042    3490.2027    642.95186 0.00069972718 0.0006763862 0.00080590606 
 1880000    413.41964   -122.19399   -1421.0326   -3073.8979   -2410.0405    6135.0177 0.0006989075 0.00067932581 0.00080504264 
 1882000    412.66796   -121.56872   -750.08787   -825.59309   -193.26479   -1291.8824 0.00069809911 0.00067850615 0.00080577189 
 1884000    375.45324   -122.29173    908.99119    952.41867   -2096.8378    1936.9161 0.00069733288 0.00067805225 0.0008052819 
 1886000    384.18028   -121.81714    748.68489   -1937.5826   -543.76632   -1086.2463 0.00069642278 0.00067742564 0.00080554802 
 1888000     428.6882   -121.54173   -378.87088    2920.2184    -1864.121   -89.600563 0.00069578158 0.00067656389 0.00080857562 
 1890000    397.46942    -121.4645    468.58838   -422.36642   -429.26521   -358.75136 0.00069521556 0.00067838427 0.00081166248 
 1892000    362.94131   -122.82954   -2706.5124   -2450.6968    1603.4638    280.74104 0.00069453344 0.00067781354 0.00081254711 
 1894000    368.51239   -122.96549   -1100.9237   -511.02748   -365.34708   -1830.0062 0.00069479265 0.00067712509 0.00081169506 
 1896000     389.0605    -122.6413   -1052.4766    42.642338    1693.8736   -892.72487 0.00069702742 0.00067616878 0.00081086022 
 1898000    413.23963   -122.41467   -517.52315   -1373.4349    973.05934   -1256.1221 0.0006965142 0.00067599706 0.00081248622 
 1900000    417.64042   -122.50239    2437.5609   -1042.9194    431.91038   -736.35265 0.00069580058 0.00067580802 0.00081115778 
 1902000    387.18459   -122.15747   -237.09441   -466.56445    2601.1369   -779.13358 0.00069573772 0.00067790982 0.00081028244 
 1904000    435.67607   -121.84489    1690.4756   -234.97173   -3147.9838    699.65371 0.00069513331 0.00067778527 0.00080941269 
 1906000    368.14226   -122.74694   -1419.2822    110.85209   -920.78256    -132.3976 0.0006949379 0.00067728401 0.00080864706 
 1908000    399.27083   -122.53147   -1628.8353    516.97272   -1193.3327     556.9983 0.00069431893 0.00067668093 0.00080770341 
 1910000    400.77395   -122.62209   -473.52127   -1016.9022    669.84999    3030.3436 0.00069527788 0.00067642319 0.00080667034 
 1912000     362.3175   -122.18992   -1920.6361    2007.4968   -2966.9398    2893.8241 0.00069509263 0.00067720932 0.00080619205 
 1914000    421.14298   -121.77925    1252.4121    2289.6214    -3929.397   -485.40477 0.00069621691 0.0006769056 0.00080459536 
 1916000    364.56022   -121.73248   -940.16636   -2100.5488   -420.12982   -1826.4258 0.00069496535 0.00067603301 0.00080503557 
 1918000    492.85137   -121.41591     234.1341   -1529.8998    441.14867    3242.4684 0.00069588301 0.00067519525 0.00080423275 
 1920000    397.66109   -122.51318    -792.4466   -3595.4584   -1126.2653   -2182.5992 0.00069660723 0.00067463851 0.00080359483 
 1922000    405.79626   -123.18061   -2264.5672   -855.80192    1000.0686    1660.2769 0.0006957738 0.00067423283 0.0008028454 
 1924000    402.67562   -121.44405    1786.6773   -365.32127   -41.955929    1726.7406 0.00069552139 0.00067346363 0.00080178929 
 1926000    369.21314   -121.60222   -920.86472   -346.91117    2112.6632    1108.7126 0.00069549977 0.00067275469 0.0008020385 
 1928000     407.3176   -123.30561    589.01236   -3960.1274   -291.88115   -664.47837 0.0006953116 0.00067183527 0.00080082421 
 1930000    358.48241   -122.38032    809.13735   -1769.5112   -608.94449    3539.5701 0.00069728844 0.0006720478 0.00080230951 
 1932000    413.02282   -122.55106   -2012.1035   -1547.0097    632.97401   -158.84471 0.00070045723 0.00067159914 0.00080165116 
 1934000    394.35465   -121.54284    1208.7662     287.7451   -491.86918    -1149.965 0.0007043074 0.00067124064 0.00080130716 
 1936000    414.14561   -121.42902    -2475.298    3275.3115   -330.04758     1677.229 0.00070381864 0.00067075129 0.00080047839 
 1938000    446.79338   -122.92051    -357.1082   -1251.6605   -1500.4142   -32.024165 0.0007031833 0.00066987856 0.00079985736 
 1940000    429.87548   -122.70175   -1363.7869    1566.5501   -404.49051   -245.22462 0.00070463302 0.00066879331 0.0008006115 
 1942000    383.93611   -122.50188    -1124.107   -750.66506    125.88256     847.0937 0.0007039274 0.00066804776 0.0008008721 
 1944000    399.78357   -122.68717    951.80314   0.25422384    2326.3361   -61.537407 0.00070412098 0.00066828437 0.00079995933 
 1946000     368.2666   -122.00501   -922.00024   -2274.6196     297.0848    745.13523 0.00070354456 0.00066822209 0.00079928132 
 1948000    389.68534    -122.3527    480.77519   -1260.7433   -1221.4956   -1608.1941 0.00070285826 0.00066757526 0.0007995471 
 1950000      393.765   -122.36902   -902.17613   -3015.0273   -303.72538   -4831.2469 0.00070330295 0.00066683336 0.00079790815 
 1952000    394.98689     -123.078   -1375.4363    738.72603    535.34191    695.32494 0.00070319023 0.00066589535 0.00079795943 
 1954000    416.26011   -122.40755    955.29506   -2076.8413    156.89807    4606.6318 0.00070288669 0.00066492616 0.00079755052 
 1956000    410.65471   -121.90338   -795.11037    2469.3216    -1149.562   -423.34933 0.00070184784 0.00066428164 0.00079713208 
 1958000     415.2651   -122.57857    2541.7781    1967.3641   -2019.8956   -989.69952 0.0007032235 0.00066816492 0.00079747358 
 1960000    371.74998   -122.17018   -957.53677     -660.563    984.00298   -2946.6983 0.00070235306 0.00067209197 0.00079709777 
 1962000    418.38138   -123.00068    27.595811    860.67812   -494.53381    2792.8326 0.00070172847 0.00067866759 0.00079620846 
 1964000    411.76511   -121.76989    1145.1865   -4994.0229   -832.50782    2557.8026 0.00070097007 0.00068027843 0.00079562797 
 1966000    373.83363   -121.17804   -2861.0791   -1635.0324      358.826    211.38088 0.00070050356 0.00067966788 0.00079504792 
 1968000    405.76625   -122.11309    941.97287   -1736.6312    -908.0843     2108.089 0.00069991907 0.00068044132 0.00079435284 
 1970000    340.37518   -122.81363   -2911.7671    1589.0528   -1776.4556    -1320.268 0.00069944312 0.00067968628 0.00079395198 
 1972000    407.44513    -121.4279   -577.69004   -1786.8569    805.54406   -1272.8151 0.00069885372 0.00067918487 0.00079288835 
 1974000    393.95028   -122.63491    712.48288     2894.602    2265.0648    496.49793 0.00069890193 0.00067841577 0.00079217429 
 1976000    398.60455   -121.81789   -2469.0052   -294.96742   -3751.8324    2639.5726 0.00069862354 0.00067821588 0.00079154859 
 1978000     374.5648   -121.40588    3106.2413    743.40597   -111.91843    3566.3818 0.00069802885 0.00067779878 0.00079074486 
 1980000    374.94107   -122.54682   -2492.9225   -1483.7289    1716.2598    1991.0598 0.0006976113 0.00067731395 0.00079131712 
 1982000    406.81859   -121.41362    1110.2626   -2800.9885    1491.5176    240.03132 0.00069717382 0.00067692443 0.00079309772 
 1984000    374.15621   -121.90136    944.86769    774.14321   -2071.8632    723.80064 0.0006980394 0.00067714918 0.00079226228 
 1986000     422.3491   -121.94956   -1706.7083   -2487.5718    758.94781    1220.8755 0.00069833627 0.00067642008 0.00079155012 
 1988000    388.52007   -121.80401    1951.3968   -306.29689    -185.8703   -1569.7593 0.00069903258 0.00067636158 0.00079059522 
 1990000    451.02201   -122.78816   -3599.6495    1560.4382    1056.7335   -1808.4254 0.00069875273 0.00067660555 0.00078963581 
 1992000    389.51705   -121.33935    963.53755    -255.4327    3533.9178   -2398.7223 0.00069813898 0.00067608034 0.00078884062 
 1994000    414.35439   -121.69017   -623.95056   -267.46421   -1675.2209    1279.6213 0.00069775049 0.00067629852 0.00078927404 
 1996000    400.05385   -122.48684   -2311.4073   -1959.9348   -965.32737   -662.97856 0.0007009149   0.00067584 0.00078868686 
 1998000    392.26121   -122.14399    1483.7942     1742.501    1144.9734    773.09059 0.00070016357 0.00067529928 0.00078782882 
 2000000    390.40745   -121.48198   -1545.7858    -1449.072    -1135.747    992.88936 0.00070164386 0.00067834144 0.00078721331 
 2002000    429.26843   -122.26032    1429.9141    216.08816   -3120.6372    1794.8768 0.00070123333 0.00068068957 0.00078723773 
 2004000    370.06996   -122.66659   -1434.3655    -1402.969    1701.2805    338.64562 0.00070086359 0.00068128089 0.00078786843 
 2006000     390.5886   -122.48889   -2157.4837    300.53875    2198.7821   -505.02493 0.00070522158 0.00068306735 0.00078707906 
 2008000    385.94353   -122.39671    763.56022    364.08126   -235.18655    2167.9835 0.00070822152 0.00068246825 0.00078632657 
 2010000    423.50687   -122.82825    -2880.517    884.19425   -1216.9464   -2031.2649  0.000708635 0.00068162533 0.00078581828 
 2012000    372.67561   -123.53938    1173.7187    1933.6191    2554.6364   -2713.8437 0.0007079624 0.00068072809 0.00078506188 
 2014000    364.98756   -122.89654   -1396.1334    -1652.476    1460.1169   -1499.0655 0.00070728557 0.00068029577 0.00078439921 
 2016000    435.03825   -123.31489   -858.10247    369.47327    310.47604    1501.0148 0.00070670252 0.00068008627 0.00078354313 
 2018000     399.4494   -121.83262    724.06695     432.3299   -339.92789   -3746.8956 0.00070619501 0.00068062358 0.00078282394 
 2020000    391.25658   -121.76262   -2838.0941    1695.1171   -2505.6706   -1042.7856 0.00070543209 0.00068039075 0.00078281508 
 2022000    421.11235   -122.50478    1577.6145    1645.9924    343.65039    1043.1794 0.00070485203 0.00067981685 0.00078224443 
 2024000    390.48871   -122.19468   -1616.4694    913.05066   -592.18943   -1016.1335 0.00070377306 0.00067970163 0.00078478083 
 2026000    426.69794   -122.10983    308.27957    226.96622    -1308.041   -1042.9149 0.00070294484 0.00067886082 0.00078307203 
 2028000    411.21702   -122.36781   -94.585612   -785.45774    919.86933    549.67232 0.0007029947 0.00067813926 0.0007825739 
 2030000    405.80091   -123.23604   -2187.6733    -181.5055   -1063.9033    1193.4953 0.00070220846 0.00067780107 0.00078213236 
 2032000    433.70358   -122.24468    627.51885   -1956.0726    181.43196    992.78638 0.00070142763 0.00067865732 0.00078144741 
 2034000    423.60298   -122.39063   -3245.0117   -208.73594    3021.3736   -173.29568 0.0007014165 0.00067777327 0.00078106998 
 2036000    351.07988   -121.68219    532.52421    300.06422   -4761.0219   -1568.9868 0.00070071349 0.0006773407 0.00078071801 
 2038000    397.84232    -122.9101   -1607.4619   -2104.0701    2325.9215    1772.9025 0.00070085177 0.00067686461 0.00077981342 
 2040000    375.05327   -121.85494   -1141.5113    867.99087   -2094.3528    1214.2663 0.0006997554 0.00067630893 0.00077879163 
 2042000    376.04456   -122.18111    1937.3283     96.53917    677.64128   -3035.9777 0.00069909941 0.00067571721 0.00077850383 
 2044000    349.08263   -122.01093   -2043.2857   -2495.1837   -439.92158   -3111.0766 0.00069840243 0.00067533203 0.00077742746 
 2046000    362.94615   -122.36541    1630.4017    765.84941    719.67132    -104.6123 0.0006978724 0.00067490458 0.00077742162 
 2048000    415.05706   -122.35849   -1425.1706   -2231.2027    2572.7527   -29.974384 0.0006979232 0.00067530306 0.00077844918 
 2050000    409.00357   -121.43857   -161.94816    849.61065    251.66542    216.21699 0.00069893002 0.00067491569 0.00077890098 
 2052000    434.80094   -122.19531     1094.255   -3427.0861    1101.3572   -3500.0681 0.00069989117 0.00067437387 0.00077912306 
 2054000    433.09051   -123.32439   -2950.5953    -2814.614      456.947   -3453.5689 0.0006995123 0.00067482596 0.00077849122 
 2056000    434.19223   -121.95713    1932.2571    1933.7845    738.39061   -269.73544 0.00069888964 0.00067673534 0.00077848323 
 2058000     382.8442   -122.03782   -3122.6627  -0.44716924   -1603.1835   -1771.1864 0.00069862915 0.00067761375 0.00077858522 
 2060000    424.25441   -121.22018   -355.34508     1248.973   -1575.3762   -1814.8064 0.00069830092 0.00067679916 0.00077910019 
 2062000     417.7779   -121.84881   -171.16797   -621.23969   -774.79011    369.05549 0.00069776485 0.00067780002 0.0007793653 
 2064000    472.71079   -121.43968   -2545.5807   -684.40465    882.82758   -688.83997 0.0006975835 0.00067809751 0.00077838294 
 2066000    373.12859    -121.6584    2282.6204   -2998.7765    -1211.146    884.52055 0.00069689803 0.00067798805 0.00077783107 
 2068000    400.17134   -122.44788    -2823.865    515.03558    1722.7751    2620.1164 0.00069666024 0.00067783052 0.00077758238 
 2070000    356.96262   -122.81502    2196.4624   -315.54938   -3309.4922   -82.088025 0.0006962221 0.00067732532 0.00077670333 
 2072000    349.32677   -122.60595   -286.65343    1125.3315    3284.7055    307.99525 0.00069550943 0.00067683775 0.00077628065 
 2074000    389.53446   -122.54564   -903.86483    162.03885     806.7003   -2730.0064 0.00069498023 0.0006763486 0.00077538352 
 2076000    382.68219   -122.43086    1248.4881   -1103.9708    379.18729    692.28168 0.00069462608 0.00067556409 0.00077484046 
 2078000    397.34834   -122.53995   -3772.7957   -3.6210462   -2107.5098   -2404.5291 0.00069396577 0.00067608553 0.00077479182 
 2080000    401.19116   -122.54088     652.4291    2393.2069    -967.6308   -59.409015 0.0006940355 0.00067821696 0.00077391737 
 2082000    399.06026   -122.44879   -2862.7674    2258.2996   -1002.4814    3744.8956 0.00069559376 0.00067832525 0.0007733781 
 2084000    404.01342   -120.87531    684.11015    562.83596   -2920.6726    1275.3926 0.00069597722 0.00067868448 0.00077249304 
 2086000    424.81393   -121.84176    1702.7295    2887.9588    1002.9671    -220.4723 0.00069580384 0.00067816961 0.00077237188 
 2088000    415.11208   -122.06609   -1812.2638   -342.82622    939.33215   -2403.8603 0.00069593086 0.00067757827 0.00077202955 
 2090000     435.7427   -122.15286    2490.6078   -466.29355   -4127.1494   -2607.3245 0.0006956337 0.00067687671 0.00077138949 
 2092000    409.07242   -122.57816   -1194.5958    896.72432    373.29284   -2742.8354 0.00069484718 0.00067639909 0.00077222685 
 2094000    388.96638   -121.94581   -381.92316   -2967.2983    1528.1272    1573.3078 0.00069421417 0.00067607527 0.00077147442 
 2096000    456.03681   -121.95927     1340.452   -187.10773    1189.7174    -2446.726 0.00069563767 0.00067556644 0.00077074184 
 2098000    388.61458   -123.35338   -1020.4951   -2772.3878   -3604.0399    601.60183 0.0006948957 0.00067533673 0.00077014294 
 2100000    412.76905   -123.27635    413.64993    -2176.061   -420.82527    3846.0279 0.00069622475 0.0006749969 0.00077218243 
 2102000    408.38772   -121.70827   -1337.4331   -186.54334   -472.92113   -1284.5853 0.00069742241 0.00067444962 0.00077135829 
 2104000    375.59546   -122.44156   -1600.8701    -645.2227    3506.1646    1402.2327 0.00069792273 0.00067508861 0.00077172568 
 2106000    395.57117   -122.71997   -1375.5636    2583.4373   -1501.8582    4951.8449 0.00069747096 0.00067495166 0.00077062632 
 2108000    393.81523    -121.4098   -3191.1535     3328.875   -2698.6742    3544.3821 0.00069701178 0.00067476297 0.00076932601 
 2110000    423.65083   -121.17763    1439.0557   -1456.7909    1714.3753   -2191.5409 0.00069628417 0.00067419948 0.00076831034 
 2112000    400.92483   -120.96657    471.82334     3975.731   -2141.5752    1413.2179 0.00069562182 0.00067358999 0.00076744543 
 2114000    339.29229    -122.3666    1175.9759    1942.2669    86.352702   -1757.0639 0.00069476436 0.00067292616 0.00076688453 
 2116000    396.57105   -122.32183    1058.8005   -39.215158   -476.02441   -693.71772 0.0006938475 0.0006759292 0.00076631151 
 2118000    388.26046   -122.88872   -1658.5056    448.81021   -278.19935   -1063.3248 0.00069381994 0.00067571678 0.0007655328 
 2120000    354.72238   -122.62623   -89.695384   -2606.7334   -304.55459   -2426.4549 0.00069514315 0.00067506064 0.00076536563 
 2122000    413.36356   -121.48266    -1758.467    1307.8685   -4637.2194    2862.7477 0.00070348942 0.00067462909 0.00076587489 
 2124000    398.96956   -121.87183   -968.23343   -2568.6787   -1833.9416    525.63327 0.00070895082 0.00067460797 0.00076597477 
 2126000    390.74549   -122.85725   -790.99324   -196.54621   -129.81503   -636.95788 0.00071053382 0.00067403837 0.00076493484 
 2128000    356.30807   -121.69153    -1297.443   -122.19104    438.95069    6307.9208 0.00071089573 0.00067348524 0.00076397138 
 2130000    417.90566   -121.68208   -113.65154   -1674.3406    310.12485   -5146.2494 0.00071036075 0.0006728803 0.00076496118 
 2132000    381.59642   -122.65187   -2085.5271    607.38183    1564.0138    1670.8135 0.00070970406 0.00067221024 0.00076475399 
 2134000    379.16094   -122.78179   -955.41352    1116.4002    583.91399    229.76549 0.00070942035 0.00067220727 0.00076731489 
 2136000    418.99114   -122.33175    37.084962   -2029.8781   -689.93011    279.41038 0.00070956296 0.00067333105 0.00076617745 
 2138000    383.02998   -121.98086    730.02295   -2083.6439   -1229.6321    4372.6207 0.00070992788 0.00067524933 0.0007656379 
 2140000    388.07074   -121.23685    2160.4061   -3533.2615    -1608.285   -986.12006 0.00070939049 0.00067635988 0.00076533467 
 2142000    363.96649   -121.83817    471.18717   -840.57574   -3927.8611    2366.9279 0.00070887404 0.00067667423 0.00076554014 
 2144000    361.21791   -121.17243    328.87953    544.99198   -1838.9724     2406.865 0.00070944887 0.00067562852 0.00076507347 
 2146000    429.87918   -122.62272    -943.0711   -2378.4432   -500.16128   -865.40571 0.00070976833 0.00067496287 0.00076443792 
 2148000    422.74646   -121.12265   -1365.9112    3516.9847   -557.92723   -752.04898 0.00071141551 0.00067424372 0.00076473853 
 2150000    385.72107   -120.97678   -330.66188    1940.1878    3788.4391    -1423.195 0.00071066619 0.00067647191 0.00076407236 
 2152000    386.96126   -121.60767   -1001.1679    2038.9442    1521.6631   -431.97147 0.00071051285 0.00067891767 0.00076356488 
 2154000    365.77197   -122.29787   -886.85438   -1259.9511    2214.3312    235.80001 0.00071086471 0.00067769862 0.00076303413 
 2156000    379.11891   -121.28136   -386.25455   -878.43437    1844.0533   -4860.1333 0.0007099927 0.00067696684 0.00076293443 
 2158000    358.28942   -122.71716   -1393.0613    187.25078    2824.8863   -1070.5873 0.00070968805 0.00067611198 0.00076232418 
 2160000    376.31334   -121.96073    331.99349    1799.5282    345.73897   -3094.2926 0.0007097755 0.00067668616 0.00076195589 
 2162000    434.70763   -121.91614   -347.91683    -1568.722   -1617.1619    2001.7523 0.00070934629 0.00067784086 0.00076104964 
 2164000    396.03209   -122.51198    881.38616   -111.52682   -3176.4184   -100.75624 0.00071085781 0.00067848957 0.00076054649 
 2166000    410.36097   -123.25232     245.9148   -33.618356   -674.49688   -341.14131 0.00070967728 0.0006779742 0.00076030638 
 2168000    394.88833   -123.11341   -45.225977    1091.8359   -2164.6767   -1187.8467 0.00070949804 0.00067745869 0.00075940809 
 2170000    408.45375   -122.26571    240.93663    4152.3157    1424.1997   -1073.7479 0.0007092448 0.0006774961 0.00075886849 
 2172000     379.2911   -122.91846   -1577.9381    344.10717   -3491.0444   -116.10409 0.00070947511 0.00067652838 0.00075891551 
 2174000    389.39427   -121.87581   -896.30773   -26.355445   -392.32318   -963.73439 0.00071068342 0.00067626518 0.00075796193 
 2176000    378.48242   -122.20909   -1504.9783    1813.1337    3133.5143    689.78776 0.00071452369 0.00067863209 0.0007572386 
 2178000    397.72023   -121.97474   -813.30486    -1797.951   -644.30192   -256.50766 0.00071631291 0.00067866929 0.00075662712 
 2180000     427.3852   -122.89948   -271.50563   -1593.0431    2950.3201    1471.8731 0.00071625815 0.00067819413  0.000757116 
 2182000    406.91247    -123.8491   -1099.2524   -782.70885   -436.85612   -1039.3314 0.00071550815 0.00067918554 0.00075706536 
 2184000    409.97542   -122.08279    685.56454   -1235.5418    -1149.284   -1588.5156 0.00071572222 0.00067855207 0.00075657194 
 2186000    401.22499    -121.5819    716.01851   -140.52517    3922.7362   -798.11062 0.00071639697 0.00067888282 0.00075631688 
 2188000    431.50241   -122.47152    198.43704   -1091.6353    884.03437    365.49231 0.0007161848 0.00067848521 0.00075612198 
 2190000    443.27772   -122.16748    1060.6889     1753.917    606.55667   -2607.8463 0.00071556621  0.000680566 0.00075580851 
 2192000    367.35558   -122.75051   -1864.1517   -591.01432    1553.0448    3438.3504 0.00071499896 0.00068134116 0.00075654244 
 2194000    395.24233   -122.52883    -309.4919    -1746.183   -734.93935     2876.274 0.00071816348 0.00068107776 0.00075702045 
 2196000    404.82374   -122.64266   -693.24044    655.65236   -205.79613    1042.8366 0.00072080207 0.00067994486 0.00075665802 
 2198000    443.43522   -122.41959   -1024.1078   -1784.5069   -108.29782   -762.71334 0.00072012544 0.00067988576 0.00075622682 
 2200000    381.47846   -121.48727    800.32773    2645.5001    394.21574   -2110.7088 0.00072079577 0.00067993724 0.00075644123 
 2202000    385.51347   -122.71109   -1874.3466    2642.2207   -1831.7836   -269.12685 0.00071955099 0.00068076936 0.00075574863 
 2204000    373.84365   -122.55072    535.19518    777.92158    2028.2092    1365.1577 0.00071900769 0.0006817956 0.00075528799 
 2206000    418.38043   -122.83892   -1027.1138    1218.1639   -2710.0139   -388.86382 0.00071827608 0.00068227899 0.00075460916 
 2208000     394.3319   -121.35193    106.30704    2651.9648   -415.49861   -122.52958 0.00071726262 0.00068199561 0.00075367537 
 2210000    375.04441   -123.05275    432.04654   -177.79277   -2188.9339    1428.4661 0.0007163964 0.00068275006 0.00075487468 
 2212000    380.17682    -122.2503   -985.71529    1376.4198   -1172.3659   -1985.1757 0.00071589725 0.0006825399 0.0007548052 
 2214000    383.42954   -122.03247    1183.5866   -2232.1883     -1337.35   -575.29482 0.00071551168 0.00068307098 0.00075575381 
 2216000    391.55181   -121.76873   -1902.2023     -2508.11    2975.1063    -2148.542 0.00071462459 0.00068234293 0.00075662035 
 2218000      400.516   -122.23242   -2045.1712    713.47958   -1805.3795   -445.50599 0.00071388952 0.00068298619 0.00075572651 
 2220000    387.98353   -122.32824   -1066.3707    234.33106   -1646.2258   -2570.5327 0.00071333984 0.00068354004 0.00075565224 
 2222000    364.76938   -122.07169   -2559.1857    1157.1989   -1845.2085    1113.8843 0.00071347962 0.0006887617 0.00075496261 
 2224000    408.55103    -121.1881    2325.8338    391.84369   -1249.6041    707.22712 0.00071574101 0.00068943622 0.00075545691 
 2226000    411.03977   -122.15151    -164.5539    1362.9711    784.32159   -219.32461 0.00071603331 0.00068967244 0.00075530156 
 2228000    469.99825   -121.44314     1415.358   -523.92124   -127.40338    1691.0146 0.00071534689 0.00069011939 0.00075455645 
 2230000    395.75862   -121.42674    1438.0706    -1342.722    1686.7341   -92.104531 0.00071527213 0.00068993871 0.00075408729 
 2232000     369.8937   -121.81786   -1147.5781   -1892.8838   -553.16938    52.417178 0.0007167251 0.00068971144 0.0007541613 
 2234000    425.14817   -121.49984    1132.2946    1457.7203    446.62088    161.14157 0.00071565083 0.00068924069 0.00075405973 
 2236000    390.94107   -122.54846   -2776.3313    724.98947   -40.588877    1384.6616 0.0007159986 0.00068860994 0.00075414064 
 2238000    385.84393   -122.34932   -757.43012   -1924.2065   -4315.9302    2841.2055 0.00071592195 0.00068778732 0.00075369346 
 2240000    400.50431    -122.1741    -1672.392   -536.35717    858.00132   -1260.5449 0.00071603652 0.00068920135 0.00075316736 
 2242000    439.74235   -122.78654   -1965.5935   -3013.4937   -1050.5836    1654.7161 0.00071592853 0.00068916862 0.00075261877 
 2244000    414.64986   -122.33283    293.48035   -279.45344    2785.1121    894.23797 0.00071590367 0.00069049134 0.00075223403 
 2246000    384.72303   -122.56324   -1873.6379    1203.5536   -3386.9847    1359.4055 0.00071678415 0.00068973384 0.00075295418 
 2248000    400.75056    -122.8065     1330.003   -3118.4147   -1802.0619    -1217.601 0.00071712902 0.00068904635 0.00075231387 
 2250000    368.31354   -123.10312    461.75602   -1146.4299    3217.3365    2255.1518 0.00071648565 0.00068856279 0.00075166424 
 2252000    355.52291   -122.46673    807.37723    -819.4184    1336.0143   -1631.1864 0.00071674719 0.00068784074 0.00075093697 
 2254000    426.15599   -122.27658    2918.5487   -162.47541    37.488237    -986.1239 0.00071617732 0.00068832204 0.00075019788 
 2256000    352.44556   -122.32646   -1990.8565   -312.76101    3091.9589   -153.48439 0.00071558637 0.00068857846 0.00075080088 
 2258000    389.61476   -122.33098    251.00314   -967.60882   -4114.8947    1934.0458 0.00071564794 0.00069418197 0.00075001398 
 2260000    416.47723   -122.06228   -2598.3293   -997.08029    1643.9965    3202.6681 0.00071505426 0.00069736254 0.00075024436 
 2262000     381.6582   -122.00201   -1718.0864    3008.2996    739.63832    593.57029 0.00071444419 0.00069808902 0.00074988834 
 2264000    404.76464   -122.37284   -1259.2731   -743.47298   -101.76742   -919.18874 0.00071423006 0.0006986649 0.00074983236 
 2266000    429.17321   -122.38061   -3216.8359    702.76236    2764.5012   -184.58548 0.0007137642 0.00069893466 0.00075122953 
 2268000    438.98644   -122.18518    685.99155    323.76344   -240.51091    2803.4684 0.0007129841 0.00069864691 0.00075059496 
 2270000    432.75119   -122.60501   -1982.4211    616.47973   -593.99281    4325.2481 0.00071245947 0.00069793276 0.00075047959 
 2272000    389.02715   -122.23307    359.98511   -1822.4724    3815.2349    5199.1527 0.0007121465 0.0006977727 0.00075142049 
 2274000    432.68045   -123.21229    1567.5378    1007.1686    1102.7923   -1174.8166 0.00071119636 0.00069696674 0.0007564875 
 2276000    420.80584   -122.56184   -1477.5649    3411.6575    2326.0621   -18.204334 0.00071042708 0.00069761346 0.00076393411 
 2278000    457.75098   -122.61333    1973.9605   -1734.1599    316.37255   -2227.8531 0.00070984054 0.00069959766 0.00076287611 
 2280000     405.9695   -123.62143   -2017.3322    640.21369    1345.9405    177.86372 0.00070968798 0.0006991402 0.00076225683 
 2282000    437.69428   -122.17701   -322.52188    1638.5265    1637.0009   -3622.1546  0.000709072 0.00069849563 0.00076178714 
 2284000    372.43307   -122.99328   -964.22021   -925.24694    849.38421    1776.5392 0.00070957507 0.00069763058 0.00076146722 
 2286000    402.95811   -122.10102   -4086.5521    992.13923   -911.98368   -2886.1669 0.00070964364 0.00069729669 0.00076079682 
 2288000    398.43162   -121.88265   -33.037551    -1655.962    2808.8211    750.48887 0.00070899744 0.00069709472 0.00075991635 
 2290000    449.04666   -122.83243   -3038.7443   -1287.4993   -38.723119    1935.0546 0.00070858801 0.00069663889 0.0007604765 
 2292000    419.12179   -122.79988    851.48192    1631.2226    693.86111   -1665.1102 0.00070830698 0.00069699126 0.00076039947 
 2294000    417.65596   -121.93892     1719.082     2407.188   -138.85428   -2590.1198 0.00070760833 0.00069910473 0.00076062963 
 2296000    422.73108   -122.75215   -938.25898    3628.5287    -1848.106    137.40711 0.0007072185 0.00069819327 0.00076049039 
 2298000    402.91646   -121.85825    3163.2174   -294.85769    1389.4818    2987.2107 0.00070902521 0.00069753428 0.00075983719 
 2300000    402.15336   -122.34188   -2459.0495    1974.8518   -7.3711303    1482.3474 0.00070854169 0.00069700717 0.0007593492 
 2302000    387.33103   -122.14114   -310.49156    -2496.282    2678.0472   -1697.2784 0.00070839011 0.00069649264 0.00075994253 
 2304000    360.43015   -122.68295   -526.41589    1172.3079    1378.9945   -2142.4437 0.00070770818 0.00069796914 0.00076060126 
 2306000    465.91684   -122.27033   -4558.8659   -973.59802    1116.9503    341.17261 0.00070748744 0.00069844301 0.00076080653 
 2308000    375.23336   -120.60362    1419.9436    272.56194    1292.7944    1067.2227 0.00070698395 0.00069775362 0.00076208087 
 2310000    356.05614   -120.84489    -2353.956    1947.0714    2268.8641    154.77695 0.00070700977 0.00069829061 0.00076170389 
 2312000    396.51852   -122.18036    851.70595   -1811.5829   -999.86193   -1288.4491 0.0007069628 0.00069794717 0.00076104131 
 2314000    424.84926   -121.29249    2188.7869   -277.22919    3845.9179    3774.2486 0.00070633248 0.00070054779 0.0007613869 
 2316000     388.9905   -122.15695   -1434.5831   -1205.5301   -1828.7423   -837.07919 0.00070587223 0.00070013103 0.00076125466 
 2318000    376.19384   -121.95336    4332.3083   -718.61698    2192.5678   -242.94692 0.00070672036 0.00069991146 0.00076232866 
 2320000    399.36675    -122.1394   -1765.1103    276.51569    3163.5306    242.90225 0.00070621003 0.0006997506 0.00076224147 
 2322000     392.2325   -121.51823     1723.639    85.496708    877.58467   -3865.3344 0.0007057871 0.00069920943 0.00076229213 
 2324000    430.30644    -121.3338   -345.09889    775.86998    2766.2781     205.1625 0.0007051454 0.00070075316 0.00076550718 
 2326000    394.27152   -121.32293   -3936.1265    316.52385   -1483.0551   -1721.1373 0.0007059549 0.00070247187 0.00076814219 
 2328000    396.24247    -122.6167    398.08979   -1800.0382   -793.23155   -1831.4966 0.00070637073 0.00070312156 0.00077029887 
 2330000    395.21474   -121.95803   -4667.6993    2167.1894    2143.7211    608.03127 0.00070692648 0.00070601239 0.00077154735 
 2332000    429.01448   -122.00079    283.07136   -492.27245   -668.51226   -892.49263 0.0007064297 0.00070532263 0.00077486102 
 2334000    392.21926    -122.4395    434.15483    2938.7678    407.49431   -162.27687 0.00070601324 0.0007048185 0.00077824273 
 2336000    372.00231   -121.76322   -651.13117   -1739.3884    1820.3332   -676.23126 0.00070549589 0.00070456111 0.00078120591 
 2338000    389.55146   -121.76981    4062.0205   -1688.4117   -2770.2672   -1196.3777 0.00070494331 0.00070397578 0.00078096741 
 2340000    406.97739   -123.00688    -1837.274   -2239.2298     2929.114   -131.22698 0.00070900446 0.00070335487 0.00078130154 
 2342000    409.62342   -123.67594    629.49127   -1989.4808    2174.6042   -216.44417 0.00071074881 0.00070272356 0.00078105148 
 2344000    417.10174   -121.62676    659.94041   -2365.2267    306.60341    1123.1864 0.00071130398 0.00070240928 0.00078049031 
 2346000    394.80019   -122.44684   -2002.5153   -45.025452   -287.80798    1229.8833 0.00071096461 0.00070171494 0.00078000348 
 2348000    371.10777   -122.46667     117.0767    1583.4349   -342.07878    588.02536 0.00071117891 0.00070119799 0.00077929309 
 2350000    384.83945   -121.38339   -3424.9286     214.1077    1416.3177    3332.0976 0.00071171249 0.00070066046 0.00077973211 
 2352000    357.24584   -122.45624    -1782.853    735.87225    1654.6686    2951.2508 0.00071127315 0.00070016463 0.00077924745 
 2354000    390.64924   -122.73884   -2347.5808   -832.18398    1445.0517    1470.6644 0.00071071826 0.00069952666 0.00077912785 
 2356000    335.13011   -122.29335   -2039.0612   -524.92689    3553.9312   -2519.3784 0.0007123132 0.00070027975 0.00077992896 
 2358000    405.19711   -122.04885    571.01792   -670.08202     4012.276    -2764.684 0.00071243525 0.0006996774 0.00078125526 
 2360000    400.95399   -122.39522   -727.12532    1335.3708    1232.8234   -2064.1068 0.00071194651 0.00069987285 0.00078136072 
 2362000    416.13657   -121.89067    3317.0882   -1693.5268    2027.2896   -2301.4825 0.0007119732 0.0007001144 0.00078117189 
 2364000    367.93822   -122.01909    279.67657    3350.5091    546.20697   -96.856987 0.00071182297 0.00070012219 0.00078026429 
 2366000    410.91442   -121.63168    665.14586    118.03132   -26.403346   -1549.3635 0.00071210402 0.00069950494 0.00078042974 
 2368000    393.20355   -121.51437     123.5868    1717.4476   -2117.8143   -1254.0553   0.00071131 0.0006990878 0.00077986449 
 2370000    391.54621   -121.84992   -2915.4464    631.56732   -1520.8014    3235.6257 0.00071158273 0.00069862086 0.00077942914 
 2372000    427.36295     -122.098    378.55485    1830.8388    1225.1724   -2063.7164 0.00071181143 0.00069831792 0.00078015434 
 2374000    403.63919   -123.09049   -3441.7364     721.8267   -1602.3701    2717.8696 0.00071140295 0.00069775233 0.00077918839 
 2376000    407.68948   -122.51734   -100.30738    2001.1144   -902.09233     1295.031 0.00071070835 0.00069722208 0.00077948551 
 2378000    368.53738    -122.4047    199.29718   -1205.6701    575.05771    3140.0448 0.00071009983 0.00069696585 0.00078034673 
 2380000    381.58551   -121.42778   -2191.6102    -2240.379   -151.95405    1624.7163 0.00070956904 0.00069654965 0.00078110722 
 2382000    403.98747   -123.06524    1557.4187   -749.73322    1082.2526    1893.8145 0.00070910135 0.00069646314 0.0007809053 
 2384000    378.88222   -122.22552   -3315.6103    757.37513    2562.3691   -1659.8513 0.00070859157 0.00069618721 0.00078007124 
 2386000    381.65465   -122.51334    763.92748    4573.4827   -3728.6939   -1939.6875 0.00070812809 0.00069657557 0.00077952328 
 2388000    384.76362   -122.75466     655.6156    826.79282   -1429.9728   -2996.5257 0.00070736143 0.00069569356 0.00078170208 
 2390000    422.92572   -121.37722   -950.14133   -508.91434    265.88898   -2719.0713 0.00070672617 0.00069533174 0.0007838212 
 2392000    405.88795   -122.74079     2459.109   -747.84277    20.749391    524.06604 0.00070676842 0.00069545109 0.00078535861 
 2394000    409.80023   -122.38026   -3119.6614    -1918.444    1480.9667    1302.2774  0.000706017 0.0006949545 0.00078425551 
 2396000    364.89274   -122.03931   -878.69039    28.504937   -105.32687    437.36142 0.00070555846 0.00069442523 0.00078363604 
 2398000    405.85433   -121.82232   -1465.7217    443.06716   -1141.5708   -871.19223 0.00070490155 0.00069395061 0.00078308425 
 2400000    388.29553   -122.59217   -2955.5138    2331.7431    145.10262   -2114.4879 0.00070428923 0.00069390038 0.00078289358 
 2402000     364.1713   -121.47225    2154.1109      1497.73    1337.7851    2227.4844 0.00070404422 0.0006937555 0.00078205592 
 2404000    407.11588   -122.21411   -2260.7061    3280.3828    1375.3747   -660.09313 0.00070421713 0.00069389972 0.00078140436 
 2406000    401.75051   -122.67383    3115.5417    -392.3054   -196.57417    1595.8284 0.00070735109 0.00069424544 0.00078082877 
 2408000    368.42468   -121.51549    161.29795   -330.25409    2219.1797     4189.819 0.00070739276 0.00069588894 0.00078060561 
 2410000    358.96776   -122.23308   -2456.8886   -2850.0498    -1615.363    -1231.352 0.00070693294 0.00069701583 0.00078010315 
 2412000    415.97977   -122.23044    1988.8835   -2732.8019   -1119.7115     165.8089 0.0007065749 0.00069609325 0.00077950961 
 2414000    407.82166    -122.4891   -3111.2046   -2043.3227    -1965.112   -1250.8422 0.00070650143 0.00069602711 0.0007798211 
 2416000    416.19035   -122.15231    1479.8355    1490.8795   -792.21407    3065.3869 0.00070626903 0.00069546406 0.00077890964 
 2418000    408.26067   -122.82668   -1272.8877   -994.45335    644.94213    1674.2397 0.00070587511 0.00069479512 0.00077831465 
 2420000     368.2375   -122.42273   -1967.0835   -1127.7294   -410.50892    1880.8088 0.00070545729 0.00069424298 0.00077775675 
 2422000    384.35842   -122.33552    1471.9906    1366.2852   -783.54739   -5800.9908 0.00070608224 0.00069374569 0.0007770375 
 2424000    403.68414   -122.05761   -5153.2372   -988.36137   -1200.5109    1396.3462 0.00070557346 0.00069426045   0.00077723 
 2426000     380.8779   -121.94252    2266.3469   -2587.2868    -860.9069    1064.3028 0.00070560763 0.00069408773 0.00077834118 
 2428000    421.89198   -122.89945   -2617.0933   -2055.6924   -157.50905    284.74646 0.00070522919 0.00069492735 0.00077667468 
 2430000    425.11456   -123.12515   -620.79222    373.48667    1362.0629    4588.8296 0.00070470882 0.0006955049 0.00077596985 
 2432000    406.54745   -122.44281    2091.6606    330.60586   -1021.3787    1010.9774 0.00070420476 0.00069562284 0.00077530987 
 2434000    391.54006    -122.4011   -1606.4959    2441.1492    3604.7455    -1341.998 0.00070384371 0.00069559929 0.0007746098 
 2436000    402.84329    -122.2056    3704.1655   -2379.9528   -1588.8637   -879.84859 0.00070304105 0.00069511985 0.00077569676 
 2438000    370.75096   -122.08726   -1781.2923    310.75388    1058.8264    3022.1401 0.00070321781 0.00069512903 0.00077536493 
 2440000    443.33751    -121.5277    470.84033   -1514.5288    548.75761     1486.269 0.00070262895 0.00069433832 0.00077463275 
 2442000    420.68773    -121.9696   -1446.4223     1618.299    3841.9045   -846.41548 0.00070208477 0.00069403907 0.00077399141 
 2444000    401.83954   -122.44842    -4191.371    1744.4998    2733.0501    3265.3949 0.00070148341 0.0006932473 0.0007743977 
 2446000    353.33278   -122.24387    818.44836    2974.6354   -1131.9829   -360.87813 0.00070077496 0.00069553314 0.00077560512 
 2448000    438.48783   -122.69572   -3591.4656   -1033.6629   -1845.5419   -970.35973 0.0007005134 0.00069591648 0.00077481488 
 2450000    397.92911   -121.94844    2070.6956   -1488.5832   -3026.6561    1700.5503 0.00070252796 0.00069492549 0.00077463882 
 2452000    392.03255   -121.50317    139.38938    1720.1391   -790.16096   -860.76647 0.00070163867 0.00069491573 0.00077452266 
 2454000    385.65404   -121.86382   -283.38806   -1061.7928    1696.1296   -195.70461 0.00070114632 0.0006943729 0.0007740276 
 2456000    420.96515   -122.54281    2579.7634    248.12722   -393.11964   -1001.9782 0.00070056972 0.00069393168 0.00077338825 
 2458000    409.37174    -122.9212   -2221.1365   -216.53402    1960.0063    2657.0214 0.00070021355 0.00069361423 0.00077297108 
 2460000      400.133   -122.86622    2732.7038    1281.7205    38.173028   -29.101758 0.00070012945 0.00069298761 0.00077378285 
 2462000    439.64877   -122.68004   -1626.9935     -3061.21    2705.8245    3234.4075 0.00069956128 0.00069269842 0.00077412193 
 2464000    414.58069   -122.05157   -330.62163    1522.6947   -1825.0241   -3295.7945 0.0006993488 0.00069272585 0.00077382056 
 2466000    401.17722   -122.03117    1437.4194    2591.2471   -73.719592     384.3409 0.00070004428 0.00069269298 0.0007732313 
 2468000    421.29155   -122.14941   -5567.6836    3067.2179   -4829.4151   -2687.5074 0.00069925763 0.00069330873 0.0007726253 
 2470000     372.8826   -121.92312    821.29283    5516.0919   -1297.5849    686.67246 0.00069918782 0.00069315717 0.00077201226 
 2472000    408.50506   -122.54676   -4681.0127    168.62063   -756.82833    3545.7413 0.00070041174 0.00069518449 0.00077171703 
 2474000     403.2913   -122.56302    246.08717   -262.00244   -815.11371     2374.316 0.00070016125 0.00069575656 0.00077104094 
 2476000    436.96302   -121.62463    3814.6039    1767.8298   -2683.9346   -518.44903 0.00069942301 0.0006964579 0.00077047313 
 2478000    429.40017   -122.82731   -1327.0388   -149.24198   -1253.4656    420.88136 0.00070087708 0.0006964966 0.00077123239 
 2480000    409.31877   -122.54834    5839.5657   -4369.6756    3043.5332    1615.8203 0.0007015612 0.00069623583 0.00077002384 
 2482000    388.65951   -122.12352   -1776.4646    3200.6366   -3597.7993   -3828.3625 0.00070188185 0.00069593698 0.00076969894 
 2484000    463.17141   -122.27512   -337.20287   -192.31221   -2444.0806    623.98264 0.00070167314 0.00069545063 0.00077080394 
 2486000    393.39027   -121.34406   -1157.4648     2525.291   -65.970631    790.39623 0.00070171924 0.0006950825 0.00077134667 
 2488000    406.28567   -122.70661   -4589.6578    1267.3977   -2387.6823    858.37075 0.00070115794 0.00069495975 0.0007714117 
 2490000    410.40171   -122.38945    814.52517   -2872.1129   -1394.5463   -1436.3228 0.0007006537 0.00069402509 0.00077099217 
 2492000     357.7679   -123.07871   -3516.9487    971.28942   -674.05458   -1062.2119 0.00070041114 0.00069373605 0.00077100791 
 2494000    389.70333   -122.57837    249.76127   -4131.4174    644.14104   -1583.4665 0.00070032384 0.00069578601 0.00077100013 
 2496000    425.11299    -121.9051    793.79334   -3294.6053   -1968.6443    629.33257 0.00070027826 0.00069544349 0.00077048602 
 2498000    415.17914   -122.93729   -1664.6746   -2361.6949   -1025.3576    -450.7527 0.00070035468 0.00069518116 0.00076991322 
 2500000    419.95033   -123.45402     2335.925   -2273.4061    652.87412    -1795.109 0.00070234903 0.00069489183 0.00076952224 
 2502000    427.66222    -122.0776   -1717.3621    1571.4749   -318.09654   -2599.4876 0.00070411361 0.00069423602 0.00076851424 
 2504000    454.83607   -122.82439    3001.6301    687.35401    1090.0999   -2543.0677 0.00070346725 0.00069466651 0.0007684972 
 2506000    417.14701   -122.05444    210.53907    308.35847    2406.4735    2688.4556 0.00070270318 0.00069454657 0.00077051914 
 2508000    433.51671   -121.68757    -186.5792    1132.8797     -1146.03   -2938.1474 0.00070201376 0.00069450691 0.00077697414 
 2510000     399.8126   -120.69875    1134.9662    1667.0084   -783.27645    2541.2128 0.00070203223 0.00069579833 0.00078287254 
 2512000    399.34488   -121.91533   -4814.9976    1490.0977   -1360.1832    572.95249 0.00070164712 0.00069585525 0.00078597476 
 2514000    397.71019   -122.19495   -382.16049   -1292.4229   -784.16555    3243.4627 0.00070142765 0.0006961974 0.00078519213 
 2516000    395.38662   -122.56822   -4174.8239   -848.33131    -1342.601    99.374593 0.00070444159 0.00069656883 0.00078519872 
 2518000    402.17149   -121.76745   -285.93998    1633.4895    515.12475   -3542.6394 0.00070538186 0.00069638971 0.00078607459 
 2520000    434.33016   -122.25614    1413.2266    788.90045   -2370.5742   -2916.6578 0.00070494341 0.00069697344 0.0007852596 
 2522000    417.04518   -122.99453   -1677.4239   -824.17133   -875.03743    123.29813 0.00070470048 0.0006978303 0.00078469315 
 2524000    412.83781   -121.79066    3492.6155   -519.66231   -33.149599    3429.4925 0.00070468467 0.00070074666 0.00078490037 
 2526000    413.85374   -122.09618   -2105.9147    578.93822    1308.7037   -1035.7488 0.00070549241 0.00070262055 0.00078668953 
 2528000    356.44588   -121.45675    1072.7478   -798.33947    2281.7247   -798.62853 0.00070636144 0.00070278081 0.00078813818 
 2530000    424.10575   -122.29364   -604.03651     -2397.09   -2264.5074    598.87937 0.00070606002 0.00070323447 0.00078774931 
 2532000    371.15115   -122.56202   -2907.2458   -551.36514    3549.3225    1931.3569 0.00070669579 0.00070267338 0.00078785419 
 2534000    410.01368   -121.84252    3346.6946     4340.769    733.79735   -1308.2629 0.00070665217 0.00070365637 0.00078727441 
 2536000    403.19413   -122.67095   -3178.8973    605.99643   -5452.6512    614.23899 0.00070632664 0.00070335607 0.00078791779 
 2538000    416.77122   -122.55833    2286.0263    2433.2882   -2016.7175   -1213.2862 0.00070641439 0.0007027676 0.00078987578 
 2540000    381.51299   -121.93616   -1668.0528    1336.2644   -1747.1409    3151.2301 0.00070661938 0.00070241031 0.00078877271 
 2542000    383.67145   -123.15086   -3727.7828   -1413.1004   -856.78525    470.68799 0.00070607891 0.00070311942 0.00078821104 
 2544000    370.39873   -122.49199    292.15368   -727.99634    2679.9979    1337.8288 0.00070534455 0.00070226494 0.00078755845 
 2546000    388.43558   -122.87109   -4295.4202   -1874.2926   -1536.0553    -1183.498 0.00070502742 0.0007017779 0.00078718419 
 2548000    385.96967   -122.10041    3006.4095   -1608.1834    5566.3116   -2061.3645 0.00070462326 0.00070167995 0.00078958932 
 2550000    427.73234   -122.18727   -536.93637    1035.2127   -734.41329   -35.434966 0.00070537014 0.0007013106 0.00079024116 
 2552000    389.95122   -121.98649    835.33913   -4764.9583   -2729.6905    277.46509 0.0007071049 0.0007011186 0.00079040571 
 2554000    387.08187   -121.85785    3027.5359   -508.01045   -186.88018    5010.7948 0.00070667395 0.00070176968 0.00078995376 
 2556000    423.28208    -122.0687   -4360.8521    1257.8842   -425.43331    710.71034 0.00070754163 0.00070161136 0.00079030316 
 2558000    409.39029   -122.26943    1404.9983     858.3154    352.20233    238.02072 0.00070675403 0.00070179039 0.00078998762 
 2560000    395.53041   -122.75976   -4369.9948     50.05908    1723.4668    3248.7959 0.00070628176 0.00070131063 0.00079013446 
 2562000    388.69697   -122.35292   -2624.7372   -3549.8739    1826.4102   -1350.4193 0.00070558915 0.00070057977 0.00079018595 
 2564000    389.73902   -122.70584    589.90734    2646.6186   -1288.7193    775.46722 0.00070554939 0.00070023175 0.00079026776 
 2566000    408.98701   -122.48951   -3683.7303   -2283.8043    1880.7086   -2104.2121 0.00070531506 0.00069974837 0.00078968048 
 2568000    383.43149   -122.37842    2669.8053    3026.3593    1182.8808   -4094.9417 0.0007053592 0.0006992086 0.00078914888 
 2570000    406.30812   -122.25206   -179.21608    410.95535    541.98296   -800.58113 0.00070505257 0.00069867009 0.00078818077 
 2572000    394.72085   -121.20957    1463.2616   -642.82326    1084.9261   -3724.3054 0.00070469565 0.00069811721 0.00078758873 
 2574000     392.4502   -121.20453    1923.4328    1145.3156   -2906.0262    4823.8182 0.00070425493 0.00069796526 0.00078711426 
 2576000    396.23381   -121.62235   -1775.2461   -3119.9379     1711.612    3041.8662 0.00070510748 0.00069778209 0.0007872205 
 2578000    376.68625   -122.98964    969.81852   -41.855188    755.50628     1450.136 0.00070458423 0.00069744038 0.00078688803 
 2580000    396.97313   -122.74437    -2335.797    2764.9736    856.49885    3418.9247 0.00070406391 0.0006969164 0.00078612982 
 2582000    472.06256   -121.50194   -1524.6823   -3985.2163    985.39237    596.59027 0.00070368778 0.00069626456 0.00078571765 
 2584000    364.48187    -121.7655   -1751.6002   -513.49095    5401.5822    3216.7359 0.00070315211 0.00069660291 0.00078577178 
 2586000    365.82602   -121.61955   -5409.9163   -3065.1326   -192.08258   -1144.0969 0.00070261001 0.00069659849 0.00078591639 
 2588000    374.24265   -121.68201    975.01219   -4260.7078    2623.4906   -3170.3367 0.00070289744 0.00069795893 0.00078566676 
 2590000    411.74072   -123.10491   -4041.1144    984.16486    2697.3954   -2002.5678 0.00070349902 0.00069789726 0.00078569556 
 2592000    367.58439   -123.02446    1110.2695   -3306.3791   -50.308497    461.84701 0.00070303284 0.00069758027 0.00078585801 
 2594000    414.18857   -122.52784    1278.0147   -4369.8998    580.04187    -1618.918 0.00070310466 0.00069695289 0.00078499184 
 2596000    398.17295   -122.36185   -910.82149    1664.4901   -1795.9597    1355.4879 0.00070302474 0.0006963942 0.00078446681 
 2598000     364.3885   -121.77265     4661.337    432.59868    6.3155767    474.23537 0.00070277198 0.0006963436 0.00078429983 
 2600000    382.64135   -122.80647   -2786.6386    414.25121   -2737.3738   -1881.0603 0.00070261034 0.00069612992 0.00078501699 
 2602000    348.72152   -122.23093    1270.3809   -1756.7712   -1483.2563   -1590.0118 0.00070189145 0.00069578114 0.00078437146 
 2604000    345.95448   -121.72259   -2844.6593    2905.7892    508.97593    698.48782 0.00070196097 0.00069661057 0.00078502076 
 2606000     444.3004   -122.08176   -4360.6141   -1248.7627   -5327.0173   -1816.9816 0.00070190672 0.00069662327 0.00078449185 
 2608000    409.43334   -122.28998    1262.9837   -1833.0336   -265.12731    369.93347 0.00070382869 0.00069692516 0.00078371537 
 2610000     400.8961    -123.1187   -4627.3824   -1927.8886   -2959.1207    -482.7397 0.00070528428 0.00069646854 0.00078313366 
 2612000    350.34636   -122.32393    3209.0673   -2312.0379    643.42622   -2322.9165 0.00070759803 0.00069588333 0.00078342173 
 2614000    414.22699   -121.50562    735.66358   -2427.8119    121.25624   -1080.0085 0.00070748324 0.00069539871 0.00078606724 
 2616000    414.34934   -121.69241    77.201627    923.68505    687.98474    628.49089 0.00070676202 0.00069744976 0.00078591412 
 2618000    430.38243   -121.38598      4118.75   -1537.8019    1069.4297    -554.5195 0.00070606521 0.0006968447 0.00078619619 
 2620000    385.84973   -121.38966   -2185.6151    2581.7986    1070.5115   -3087.5918 0.00070552507 0.00069634435 0.00078574913 
 2622000    375.16164   -122.11205    2695.1589    1122.8225    4678.6812    369.21456 0.00070508076 0.00069561895 0.00078500516 
 2624000    411.22213   -123.23379   -2559.4748   -2497.8848    3282.2929   -1715.5094 0.00070499352 0.00069530823 0.00078438906 
 2626000     406.5941   -121.49395    -673.8183    89.969176    2943.7405   -1986.4298 0.00070540591 0.00069457536 0.00078387186 
 2628000     373.1221   -122.02955   -13.453332   -1567.7075    3658.9816    94.693513 0.00070482258 0.00069393121 0.00078334261 
 2630000    423.90584   -121.13255   -4940.5759    2064.1271    459.11429   -2489.3154 0.00070445539 0.0006935236 0.0007831216 
 2632000    414.72671   -122.04171    593.31696   -3069.6844    2521.6736   -441.88965 0.0007039796 0.00069313474 0.0007830234 
 2634000    371.14263   -121.98971   -4522.3019    2237.0425    2062.7021   -131.69079 0.00070343558 0.00069343875 0.00078210695 
 2636000    365.13671   -122.41768   -639.91835   -2719.3981    3768.3536    343.53416 0.00070308877 0.00069395457 0.00078215225 
 2638000    405.23041   -122.68289    2575.8936     2280.487   -1644.9272    4024.1544 0.00070305327 0.00069348654 0.00078233241 
 2640000    397.84632   -122.27647   -1218.0546    1786.6162    1578.6154    2185.5129 0.00070254351 0.0006929152 0.00078140903 
 2642000    372.26172   -123.46548    3334.1198   -2015.5412   -1610.1267    1400.5244 0.00070203725 0.00069295518 0.00078140423 
 2644000    423.31372   -122.08417   -1903.6617   -1497.0656   -3849.5954   -2224.7266 0.0007018715 0.00069216963 0.00078174366 
 2646000    429.77321   -121.10485    361.86625   -2667.5161    888.43465    1277.6687 0.00070143501 0.00069258224 0.00078196925 
 2648000    369.50178   -122.57319   -1529.1768    166.57006   -1037.9115   -1756.1793 0.00070113486 0.0006934149 0.00078409817 
 2650000    404.28284   -123.23127   -4937.3866    1054.3758    2623.8169   -918.99122  0.000700569 0.00069551231 0.00078853948 
 2652000    377.54632   -122.45278    736.85638   -734.03843    594.31708    15.456128  0.000700307 0.00069518977 0.00078819992 
 2654000     407.1282   -122.40846   -3824.5826    906.52589   -19.234391   -764.55038 0.00070014481 0.00069554952 0.00078798717 
 2656000    407.34575   -123.40463    2102.5711      2190.06   -853.91394   -1929.8901 0.00069973541 0.00069492506 0.00078741458 
 2658000    382.41868   -122.32586   -1021.9396   -2141.3015   -683.17241   -285.54474 0.0006992151 0.00069438975 0.00078707372 
 2660000    411.42262    -121.5721    403.72939    673.40994    1366.3904   -277.04836 0.00069897949 0.00069379208 0.00078696732 
 2662000    357.62794   -122.29653    2699.9856     2906.824   -3374.3966   -791.29787 0.00069887602 0.00069393408 0.00078615512 
 2664000    379.13481   -121.57623   -3255.9122    1290.5609    2835.0568   -1083.1741 0.00069913146 0.00069366764 0.00078575232 
 2666000    378.47494   -121.26242    2478.3368    19.163395   -3016.5228   -1519.0133 0.0006988969 0.00069361061 0.00078558777 
 2668000    426.35351   -122.38647    -3149.194    356.08606    1500.0599    513.19489 0.00069892518 0.00069338307 0.00078552409 
 2670000    368.24213    -122.3844    97.414479   -783.27485    3085.3699   -2083.7666 0.00069936468 0.00069301366 0.00078495558 
 2672000    356.75548   -122.33829    776.40869   -546.66423   -3529.6339     5359.594 0.00069862541 0.00069282937 0.00078531498 
 2674000    387.53915   -121.77291   -4480.9782   -1200.4675   -790.61356    425.73729 0.00069865339 0.0006928746 0.00078567826 
 2676000    368.02174   -122.18852    2022.4251    1396.7189    1607.0495   -2230.3185 0.00069763042 0.00069309049 0.00078517296 
 2678000     404.6317   -122.69592   -5316.9254    385.29197   -1168.4026    3759.7702 0.00069702417 0.00069258576 0.00078501731 
 2680000    412.66985   -122.34084   -512.49545    902.61914   -73.381095   -2156.6547 0.00069718031 0.00069253974 0.00078460844 
 2682000    461.07739   -122.30717     789.3292   -2962.2312    2813.0626   -1996.1264 0.00069678548 0.00069202353 0.0007841603 
 2684000    426.40204     -122.698    -2560.153    298.03709    283.08845     2843.652 0.00069740857 0.00069180045 0.00078400878 
 2686000    391.51966   -122.61076    5538.5298   -2443.1375    2005.8099    2009.6595 0.00069714651 0.00069183887 0.0007840682 
 2688000    398.46611   -123.60532   -4142.3498    1183.6523   -1111.5068    3257.0514 0.00069725479 0.00069250138 0.00078459641 
 2690000     395.5972   -122.01098    1240.6974   -1964.5693    1670.1433      3100.95 0.00069707622 0.00069263467 0.00078524261 
 2692000    449.79243   -122.07104    517.17974   -913.99865    1404.6966   -1698.5781 0.00069741096 0.00069203884 0.00078476522 
 2694000    391.57185   -123.21823    -5996.958    1239.0741    1532.7008     4503.128 0.00069719489 0.00069155972 0.00078459699 
 2696000    369.15065   -121.67457    1608.4436     177.0813    101.37177    -2916.884 0.00069691881 0.00069139439 0.00078403261 
 2698000    409.92886   -122.77428    -4469.192    547.31035    3868.4427   -2709.3336 0.00069674155 0.00069100418 0.00078465598 
 2700000    429.37044   -122.11825    579.29204   -2551.5887     1590.476   -576.79601 0.00069669497 0.0006911321 0.00078567097 
 2702000    410.77867   -122.77408    433.83144   -789.55158    2061.0668   -2946.4367 0.00069645929 0.00069074668 0.00078475468 
 2704000    361.70884    -121.4175   -723.79067    1577.2689    2470.4823   -1644.1595 0.00069618174 0.00069026368 0.00078423784 
 2706000    388.42912   -122.14769    5130.8516   -2174.4618   -2663.1409   -1995.9711 0.00069553096 0.00068995148 0.00078360955 
 2708000    366.64697   -121.99103   -843.61149   -1143.2913   -1933.9394    1897.8876 0.00069504432 0.00069007092 0.0007847439 
 2710000    427.73056   -122.38118    1222.7307   -1128.9442   -2847.4006   -2481.6429 0.00069436732 0.00068999026 0.00078924117 
 2712000    381.34561   -122.61422   -843.01095   -2421.4438    424.99927   -515.07001 0.00069484955 0.00068946024 0.00078958563 
 2714000    394.77503   -121.35379   -3547.0142   -1385.2009   -2072.1017   -2650.9142 0.00069508081 0.00069060712 0.00078900713 
 2716000     385.7896    -122.4076     347.4973    2570.0222    888.19164   -1775.8134 0.00069469894 0.00069028961 0.00078842644 
 2718000    392.17985   -122.45105   -4737.9157    50.877929    832.43465   -55.796044 0.00069562536 0.00068975239 0.00078789838 
 2720000    420.65817    -122.8641   -1018.5331    870.58607    1056.7709   -373.25725 0.00069551907 0.00068936981 0.00078735461 
 2722000    359.07331   -122.11613   -1959.9062   -1785.5802    4123.5528   -1970.4314 0.00069497305 0.00068875906 0.00078691036 
 2724000    383.64008   -122.13951   -887.53312   -365.23368    1393.6232      4036.92 0.0006952573 0.00068822663 0.00078628362 
 2726000    415.27632   -122.45882    2012.9438    2053.8974   -2601.4802   -608.50415 0.00069456706 0.00068759204 0.00078601188 
 2728000    401.82804   -122.12613   -1359.1771    419.58439    138.91009    2873.1114 0.0006949315 0.00068806551 0.00078745387 
 2730000    413.93754   -122.39786    3586.3709    2191.3119   -700.92312    1864.4152 0.00069603112 0.00068948554 0.00078779248 
 2732000    410.03516   -121.32797   -1179.1428    2974.2186   -1062.4241    2239.2008 0.00069601721 0.00068889015 0.00078757682 
 2734000    419.36209   -121.66965    924.65824    2523.5693   -2927.5047    2826.0143 0.00069639955 0.00068839252 0.0007881413 
 2736000    418.01041   -122.38956   -1009.8147    5135.0757   -2761.1432    2361.8099 0.00069559726 0.00068831007 0.00078887074 
 2738000    385.59044   -122.57635    -6413.085    2911.8043    565.17885    243.86862 0.0006950083 0.00068772212 0.00078802153 
 2740000     352.7068   -122.53881   -958.24077   -1575.4265    2617.3701    2163.8723 0.00069444952 0.00068758339 0.00078741342 
 2742000     418.8858    -122.1368   -5619.8279     637.3109   -952.37854    320.33385 0.00069416607 0.00068764025 0.00078712669 
 2744000    374.14452   -121.82233    -34.50138    624.47151    2106.4218    1.1028829 0.00069359578 0.00068841999  0.000787032 
 2746000    356.52375    -121.9218    1642.1676   -1455.5293    1518.7668   -1086.2321 0.0006940546 0.00068993686 0.00078952572 
 2748000    386.30975   -122.03768   -267.98995   -1752.3029    1752.3634   -2959.4818 0.00069332121 0.00069093203 0.00078881235 
 2750000    405.05043   -123.01943    3779.7993   -3233.9009   -2240.7366     1446.666 0.00069455168 0.00069050257 0.00078848372 
 2752000     399.1167   -122.09863   -1518.0631   -2102.2026   -2804.3602    1936.3585 0.00069440226 0.00069001947 0.00078789023 
 2754000    407.52172   -120.94645     904.3082   -391.37102   -2233.4922    966.08572 0.00069386214 0.00068973172 0.00078746811 
 2756000    371.78031   -122.03081   -1074.8019    1717.5285   -464.59163    126.76127 0.0006942871 0.00069012075 0.0007871257 
 2758000    389.99856   -122.46262   -2883.2492   -786.18111   -563.74466    1102.6196 0.00069561361 0.00069140253 0.00078663364 
 2760000    368.27697   -121.98577    2576.3432   -270.17404    1949.7833    1967.8894 0.00069542485 0.00069104481 0.00078627088 
 2762000    422.65275   -122.24342    -3232.455   -2566.2277    1772.6735    2058.3953 0.00069530156 0.00069277015 0.00078610772 
 2764000    409.35727   -121.60157    901.15519   -1618.1899    5024.8854    5036.6237 0.00069607045 0.00069302356 0.00078540574 
 2766000    410.37205    -121.5358   -159.53812    2680.3624   -717.77827   -587.36649 0.00069551703 0.0006918446 0.00078543007 
 2768000     374.7282   -122.74102   -3560.3727    1019.6376   -1980.6394    1993.7094 0.00069487962 0.00069121274 0.00078521491 
 2770000     400.5608   -122.67887    1301.7838    3510.6444    -240.2598   -6100.1312 0.00069429191 0.00069068541 0.00078448323 
 2772000    429.43165   -121.73498   -4578.7984    1518.8116    2078.9918   -2341.8267 0.00069368369 0.00069021734 0.00078569466 
 2774000    392.24382    -121.6219     1695.081   -1973.0619    -2825.707    1069.5487 0.00069329314 0.00069036924 0.00078626308 
 2776000     366.7852   -122.19701    839.00494   -143.35722    875.00759    1.5128827 0.00069304638 0.00068978402 0.00078559632 
 2778000    375.85457   -122.99251   -1225.1636    -2765.891   -357.07834   -512.84487 0.00069273471 0.00068953087 0.00078551162 
 2780000    347.39039   -121.89704     3115.075    1464.2142   -955.34155     29.41016 0.00069407923 0.00068910719 0.0007855039 
 2782000    385.77556   -122.58066   -3495.9501    1099.7739    220.01985    303.70449 0.00069385823 0.00068891224 0.00078514295 
 2784000    370.29848   -122.92614    350.95027    1010.0307   -2163.6399   -1565.5686 0.00069402184 0.00068900815 0.00078541352 
 2786000    357.80493   -122.80684   -1446.8328    1241.2282    671.16753   -279.05914 0.00069419221 0.00068942341 0.00078503268 
 2788000    388.97979   -122.12738   -1922.2797   -1275.9961    1510.7688    1902.8312 0.00069501545 0.00068998819 0.00078457591 
 2790000    381.00999   -122.38701    1186.0731    2669.7833   -447.67145    171.34172  0.000694297 0.00068993164 0.00078448765 
 2792000    419.02761   -122.27265   -3415.2779    2684.0354   -470.09067   -366.73682 0.00069383133 0.00068970693 0.00078420464 
 2794000    423.16747   -121.25779    1498.6385   -565.58526   -2196.1777    3849.9472 0.00069355492 0.00068928019 0.00078349855 
 2796000    405.69184   -121.60006   -4032.8274   -2173.0477    864.46251   -354.40102 0.0006929341 0.00068882333 0.00078305892 
 2798000    395.67189   -122.65023   -1445.8091   -741.78698    3953.0547   -1417.5334 0.00069255701 0.00068832458 0.00078290701 
 2800000    405.24846   -122.01701    974.05983   -1433.4146    3373.3164    597.77498 0.00069200543 0.00068806722 0.00078245447 
 2802000     412.6578   -120.35273   -1258.6474    2041.3768   -1336.0447   -471.89435 0.00069190244 0.00069020771 0.00078209345 
 2804000    401.39661   -122.23966    3660.0509    286.63819    503.69022   -20.265363 0.00069126693 0.00069027834 0.00078153262 
 2806000    416.66313   -122.26699   -1961.3265    -1354.868    714.37773   -426.08607 0.00069125829 0.00068995043 0.00078096336 
 2808000    395.75504   -122.30116     907.8177   -2784.9998    1116.6089    1351.6005 0.00069086284 0.00068931535 0.00078061689 
 2810000    392.59045   -121.91574   -1050.2002   -1708.2458    2796.2483   -1971.8236 0.00069037106 0.00068891507 0.00078005167 
 2812000    432.61554   -121.72941   -2839.8806   -2458.8713   -540.13485   -2181.0468 0.00069000859 0.00068827851 0.00078047752 
 2814000    383.51801    -123.1814    49.883509     533.3802    910.04422   -1135.8778 0.0006897856 0.00068783428 0.00078041266 
 2816000    382.77223   -122.23452   -4236.3394   -331.13414    1018.5445   -965.89235 0.00068942613 0.00068818575 0.00077987162 
 2818000    412.71651   -122.84803    2238.2058   -401.61474    545.66355    1701.0727 0.00068920263 0.00068744374 0.00077932455 
 2820000    405.88262   -122.29283   -1099.9405  0.071759328    155.21703    -1808.872 0.00068955445 0.00068829224 0.00077876983 
 2822000    382.48445   -122.62059   -1052.1694    1438.7981    -2638.513   -322.95655  0.000691201 0.00068864949 0.00077850303 
 2824000     418.4387   -121.84655    1186.7969   -3402.5134    54.584305   -2357.8565 0.00069215587 0.00068841976 0.00078014514 
 2826000    394.33984   -122.89801   -4013.4781   -221.06851    -598.5839   -1310.6641 0.00069738989 0.00068800608 0.0007800511 
 2828000    388.89978   -121.60044    1653.0438    1873.9801   -99.044286   -3600.3266 0.00069715194 0.00068760049 0.00077944402 
 2830000    377.96734    -122.4037   -2630.9057   -749.81395    1556.4403    1074.3041 0.00069648995 0.00068769204 0.00077923888 
 2832000    373.15805   -123.05359   -254.31625    1364.9573   -454.27343    -2832.314 0.00069655776 0.00068726225 0.00077869466 
 2834000    432.82688   -122.03172    2029.0736   -124.27393   -685.48992    930.64499 0.00069633833 0.00068743923 0.00077877374 
 2836000    410.63128   -121.72466   -3111.9856    -247.7311   -1358.9651   -1105.4999 0.00069630412 0.0006873197 0.0007792884 
 2838000    388.13379   -122.18444    3048.2136    1124.2629   -1169.1743   -2362.8165 0.0006957028 0.00068685117 0.00077882409 
 2840000    428.86901   -122.53247   -3102.5216    1467.8889    1558.8461    65.034585 0.00069515496 0.00068638677 0.00077890496 
 2842000    419.84548   -122.48409   -563.83477    729.97724    2153.4113    441.67245 0.00069547893 0.00068595291  0.000778326 
 2844000    435.03689   -122.43735    1074.2413     2087.227    -2097.416    -2361.577 0.00069505767 0.00068553624 0.00077825609 
 2846000    411.39986   -122.71465   -3641.3263    1327.3847    2969.9694   -1763.9512 0.00069526814 0.00068510189 0.00077874159 
 2848000    403.62055   -123.48739    2766.1446   -1824.4392    91.021909   -1872.4455 0.00069485259 0.00068493193 0.00077826632 
 2850000    382.01458   -121.91238   -2008.3669    1361.6494   -2792.3806    -2792.881 0.0006946318 0.00068579664 0.00077763433 
 2852000    400.61745   -121.30425   -502.88045   -1378.1538    318.19029    2724.7328 0.0006940509 0.00068520594 0.00077707536 
 2854000    373.80309   -121.76648    2465.8269   -679.70622   -1790.8976    2767.3705 0.00069350813 0.00068642919 0.00077733704 
 2856000    398.38257   -121.90753    -3841.997    985.01893     1894.724    4811.9911 0.00069347176 0.00068754552 0.00077683125 
 2858000    415.01661   -122.70594     513.6685    91.672231   -2657.9669    746.36364 0.00069301089 0.00068706921 0.00077630562 
 2860000    407.98002   -122.53591   -3659.1533     3695.371    812.73753   -887.79303 0.00069249746 0.00068708492 0.0007757895 
 2862000     388.0428   -123.21081   -1282.4735    1695.1865    -215.8936    -586.8496 0.00069305448 0.00068642505 0.00077524967 
 2864000    394.85818   -121.22862    2820.7133    3511.3575   -704.33544    2308.1785 0.00069289992 0.00068579778 0.00077460513 
 2866000     424.3869   -121.79027   -1608.8629   -3475.4406     1555.518    1230.5986 0.0006936672 0.0006857697 0.0007749827 
 2868000    481.40647   -122.16509    3101.7106   -976.90562   -1150.3272   -2471.9172 0.00069577035 0.00068521847 0.00077480022 
 2870000    399.74584   -122.13463   -489.15968    565.58156    869.06021    700.93181 0.00069700464 0.00068509967 0.00077451436 
 2872000    370.21697   -122.38981    595.74218   -2818.2444    670.06012    2998.8148  0.000696509 0.00068486714 0.00077392721 
 2874000    395.47319    -121.7457   -756.77616   -3993.6195   -447.13831    2392.7704 0.00069591162 0.00068457383 0.00077314377 
 2876000    362.26834   -122.79568   -3672.2615    254.70928    3849.8431    3698.0578 0.00069532023 0.00068410222 0.00077287653 
 2878000    472.74542   -122.64826    311.11043   -1925.2769     774.4541    1598.0992 0.00069474649 0.00068356521 0.00077336774 
 2880000      413.075   -122.51737    -2870.234   -1301.0919   -257.02044   -2408.2883 0.00069425833 0.00068314596 0.0007730339 
 2882000    436.75638   -121.62246    801.84009    1.2244415   -847.18431   -1840.5292 0.00069404355 0.00068287466 0.00077278056 
 2884000    405.16527   -122.14799   -976.85457    139.30196    1236.4638   -1974.1467 0.00069357051 0.00068235162 0.0007721878 
 2886000    392.65493   -122.28708   -1239.3473   -205.17712   -1685.7331   -3.5959541 0.00069318079 0.00068177186 0.00077184854 
 2888000    431.46149   -121.98884    1289.6715   -2390.4562    340.56749    1386.4289 0.00069288848 0.00068131798 0.00077191381 
 2890000    391.96967   -121.90711   -478.92156   -230.35845   -1691.0228   -2866.7096 0.00069229752 0.00068158293 0.00077304214 
 2892000    381.01116   -122.52561    1381.1501   -3004.6366    2685.2452   -2026.8821 0.00069184696 0.00068116654 0.00077463759 
 2894000    402.69998    -122.3408    1351.7835   -1857.3439   -2321.5106     626.9227 0.00069252017 0.00068133951 0.00077725612 
 2896000    420.16242   -122.34406   -643.09481   -3457.1504   -69.676215   -4669.5321 0.0006923964 0.00068079406 0.0007766555 
 2898000    394.82129   -121.76736    1706.0613    338.05247    886.65033    2123.0084 0.00069179776 0.00068078424 0.00077615009 
 2900000    394.12357   -122.12781   -3204.6261    2900.9652   -643.71901   -1461.0875 0.0006912292 0.00068039592 0.00077563423 
 2902000    422.14722   -122.25502   -1783.3837    3275.0331    -510.5504    433.95576 0.00069122667 0.00068156309 0.00077509829 
 2904000    396.61474   -122.32856   -2318.9392     1398.777    1642.3231    606.77028 0.00069105799 0.00068111691 0.00077461866 
 2906000    406.42995   -122.10315    -1735.872   -1247.8659   -1372.8134    104.44329 0.00069049715 0.00068065951 0.00077441322 
 2908000     379.9813   -121.84792    1688.7023   -239.89747    651.53364   -3703.5052 0.00069032411 0.00068012084 0.00077414425 
 2910000    401.10302   -122.93708   -999.50602   -2904.2694   -1058.0544   -1919.3123 0.00069033895 0.00068010822 0.00077343118 
 2912000    429.47951   -122.70438    2990.6057    35.241245    465.05924    1753.0786 0.00069017442 0.00067957031 0.00077304544 
 2914000    445.46849   -122.23755   -1022.3541   -1676.3811   -549.25389    1968.4894 0.00069245554 0.00067920186 0.00077355843 
 2916000    426.39499   -122.51889   -902.87803    3757.5382     157.1283    -728.8879 0.00069666936 0.00067877806 0.00077265123 
 2918000    375.34876   -121.41794     119.6717   -608.36095    314.70623    1920.2492 0.0006973208 0.0006789503 0.00077372292 
 2920000    409.40273   -121.15598   -3762.9474   -175.49383    230.18303    2000.3603 0.00069733699 0.00067846989 0.00077270084 
 2922000    366.23687   -121.93863    1473.4176   -744.59042   -1701.9104   -3180.7458 0.0006972323 0.00067803212 0.00077502902 
 2924000    406.83997     -122.531   -3039.0458     1941.875    2254.6437   -1489.3119 0.00069703499 0.00067762584 0.00077664858 
 2926000    488.06641   -121.20234   -1239.6105    3805.4029    3706.1265   -5071.5112 0.00069620477 0.00067730498 0.00077614726 
 2928000     400.5323    -122.0776   -806.24173    1386.9153   -3016.5725   -4412.0455 0.0006956886 0.00067679585 0.00077605206 
 2930000    420.31908   -121.43068   -3328.6173    1228.1544   -1663.9127     603.7307 0.00069577944 0.0006764202 0.00077541247 
 2932000     387.4309   -121.54706     2323.858    73.586256    864.05655    529.74079 0.00069542012 0.00067606442 0.00077484075 
 2934000    427.02123   -122.25619   -1235.8636   -680.79475    314.46573   -2201.9409  0.000694876 0.00067768757 0.00077436459 
 2936000    404.30725   -121.74796    2462.0399   -2007.8249    60.279474   -1149.1037 0.00069590207 0.00067821454 0.00077626945 
 2938000    374.91781   -122.85781    1836.9243   -4048.2702   -1266.7806    1655.9963 0.0006967913 0.00067784919 0.00077544382 
 2940000    373.95955     -122.257   -654.10393   -1300.2419    233.12904    290.92772 0.0006960319 0.00067749851 0.00077508246 
 2942000    381.14098   -122.51678    661.77471    2026.9535   -3366.1014   -190.94191 0.00069552361 0.00067752178 0.0007750823 
 2944000    390.85664   -121.70144    -4106.327    -689.9964    527.90299   -159.37725 0.0006952269 0.00067775139 0.0007744388 
 2946000    405.78752   -121.80265   -464.46925    1653.7431    1138.7855   -357.80819 0.00069510207 0.00067742741 0.00077373834 
 2948000    386.06944   -122.60668   -2795.1651    2980.6243    2468.7055   -1811.0438 0.00069467949 0.00067719113 0.0007731601 
 2950000    373.42608   -122.22093    55.841269   -1989.8171   -503.48863   -1111.6394 0.00069417855 0.00067670529 0.00077256067 
 2952000    410.88127   -121.96321    2587.0945    469.75768   -2970.4548     3707.741 0.00069378965 0.00067674386 0.00077217187 
 2954000    446.93514   -122.02826   -1183.4734   -2084.3644   -1063.8125   -572.47623 0.00069394354 0.00067615118 0.00077169668 
 2956000    390.05431   -122.06938    2142.3774    1221.5344    1298.4384   -175.19089 0.00069399779 0.00067585482 0.00077130236 
 2958000    392.44204   -121.37517   -2172.2772   -1765.7332   -1254.4247    207.26583 0.00069505011 0.00067555022 0.00077081166 
 2960000    380.85107   -122.30869   -3.3343554      1893.38    580.16124   -548.53187 0.00069477076 0.00067542814 0.00077051652 
 2962000    400.25209   -123.04238   -535.58389    2769.8766   -518.66902    284.10055 0.00069579379 0.00067511188 0.00077096205 
 2964000    389.99931   -122.48506   -2210.7744    491.77384    2501.6358    1619.0539 0.00069581224 0.00067516352 0.00077046503 
 2966000    403.75365   -122.86224    2242.8087   -2444.7417   -1900.9838    2463.8975 0.00069555431 0.00067464424 0.00077045238 
 2968000    341.12451   -122.50188   -4065.5874    3559.3006   -612.98775   -3117.4499 0.00069501982 0.00067406414 0.00077029751 
 2970000    427.65396   -121.59649    1041.7564    494.85221     2648.531   -1354.9652 0.00069495752 0.00067478464 0.00077002269 
 2972000    412.84991   -122.64238   -2363.3585    2646.5579    -2132.799   -1320.7087 0.00069460569 0.00067437455 0.00077018636 
 2974000    439.77496   -122.54073   -3442.2301   -1255.2761   -1128.0443    -47.49386 0.00069396001 0.00067474195 0.00077087654 
 2976000    345.75537   -121.94442    2573.6187    1496.6657    3090.8617    1386.9612 0.00069362023 0.00067498484 0.00077080658 
 2978000    365.35933   -121.42108   -2540.3833     2567.502    -1437.854   -974.48423 0.00069326495 0.0006744958 0.00077256483 
 2980000    445.62568   -122.53881    2914.1366    2453.6771     3311.351    2995.9007 0.00069281185 0.00067430159 0.00077421284 
 2982000    362.58288    -121.1309    51.077501    -328.9792    1204.8923    1425.3869 0.00069273528 0.00067395521 0.00077442967 
 2984000    403.49661   -122.23056   -1515.0985   -1228.0478   -386.66439   -2623.4108 0.00069257447 0.00067403554 0.00077409933 
 2986000    416.99114   -121.35029    1776.0515   -1729.7472    387.80733    432.97166 0.00069278222 0.00067459369 0.00077644262 
 2988000    415.71567   -122.43176   -3778.2092     1985.453   -3517.1099    583.01539 0.00069240962 0.00067436266 0.00078374639 
 2990000    400.06157   -123.06741    1482.0037   -611.95599     1110.761    2092.7827 0.00069221232 0.00067555207 0.00078261561 
 2992000    405.40196   -121.78961   -1152.5907    1181.8791   -4321.5783   -2549.0549 0.00069174193 0.00067671315 0.00078249707 
 2994000    396.21796   -121.91971   -531.38077   -3037.5927    -479.5969   -2763.7853 0.00069157912 0.00067683886 0.00078240825 
 2996000    391.39903   -121.89909    1856.9404   -2178.7961   -285.92167    859.07987 0.00069116542 0.00067626479 0.00078164636 
 2998000    402.65286   -122.03278   -2592.7868    2777.0573    1146.2463    254.45296 0.00069155112 0.00067644222 0.00078106887 
 3000000    403.87324   -122.63505    1989.0831   -678.68323   -1014.9084    3927.3132 0.00069091734 0.00067663429 0.00078041972 
 3002000     395.9113   -121.79339   -3020.7047     687.4086   -969.43187    2303.7093 0.00069046188 0.00067766291 0.00077997724 
 3004000    413.71981   -122.82672   -68.585094   -938.20404    35.281734   -2110.0686 0.00068997641 0.00067707088 0.00077939475 
 3006000    409.76618   -122.60657    603.31472    393.93767   -2972.5414    682.60764 0.00068947902 0.0006768474 0.0007788643 
 3008000    405.38173   -122.86734   -3445.4568    1159.1566   -49.889333    385.58422 0.00068936233 0.00067659707  0.000778997 
 3010000    384.78041   -122.27053    2695.2934    2294.1065   -1882.9319   -528.64581 0.00068855195 0.00067618838 0.00077824085 
 3012000     320.3411   -122.24125   -3561.3787     2521.302   -2625.9064   -3269.2729 0.00068838712 0.0006758705 0.00077804488 
 3014000    389.18563   -121.73765     1316.031    2664.7249    819.47027   -1512.6953 0.00068780191 0.00067538979 0.00077811338 
 3016000    443.08806   -123.42442   -1559.1706    -58.25517     1106.826    597.47525 0.00068729868 0.00067525844 0.00078058025 
 3018000    421.37358    -121.9712   -3381.4467   -1004.4895    25.711303   -528.01002 0.00068676702 0.00067621784 0.00078024593 
 3020000    435.94118   -122.88549    4893.6567   -3944.6186    3729.1424    427.72432 0.00068643793 0.00067563716 0.0007797711 
 3022000    407.47233    -122.1712   -2400.3339    1704.0629   -1524.9622   -140.51311 0.00068663946 0.00067535127 0.00078004591 
 3024000    413.06485   -121.79159    4474.8489   -4305.3269    2839.4278    -2840.548 0.00068641679 0.0006751115 0.00077973875 
 3026000    390.87448   -122.08771    136.50067   -2299.7995     1473.798   -687.96984 0.0006875979 0.00067493908 0.00078033695 
 3028000    382.01383   -122.28411   -2977.3977   -886.13634    389.71467     937.1244 0.00068903095 0.00067521031 0.00077998658 
 3030000    416.98361   -122.54383    3476.9626    -3399.736   -4281.3983   -3622.8811 0.00068891943 0.00067475932 0.00077970571 
 3032000    399.20136   -122.23344   -6143.1741    1153.3117    2234.7267    1872.1666 0.00068878013 0.00067438387 0.00077932191 
 3034000    382.66814   -121.81764    2065.6807    163.02243   -1212.1977   -1545.8124 0.00068913166 0.00067456984 0.00078124358 
 3036000    375.44054   -121.67657   -1884.2013    1657.2971     3663.394    142.92111 0.00068866951 0.0006770857 0.00078115903 
 3038000    396.22044   -122.64782   -1865.8872    65.898989   -261.70825    3086.0896 0.00068827665 0.00067900614 0.00078108147 
 3040000    392.68986   -122.12568    3359.7013   -3291.6762    970.02154    3433.9787 0.00068814445 0.00067889738 0.00078064553 
 3042000    383.14963   -121.82888   -3924.9499    3153.2352   -1811.6843     3722.341 0.00068788115 0.00067848038 0.00078028569 
 3044000    388.38304   -121.88473    2941.5883   -109.15291    3661.1607    428.79565 0.00068714926 0.00067821293 0.00077954103 
 3046000    368.66779   -122.29826    -484.1812    865.45469    625.01304    1558.0148 0.00068735621 0.00068084877 0.00077908905 
 3048000    415.19126   -121.70709   -313.53485    3437.1741   -3733.4264   -1238.1159 0.00068715376 0.00068036917 0.00077879446 
 3050000    409.48246   -122.46609    1942.0413    -2054.435    818.21125     3253.515 0.00068670578 0.0006800935 0.00077847562 
 3052000    378.21916   -122.56299   -3760.5798    452.40883    1476.0282    570.13664 0.0006861794 0.00068002447 0.00077890812 
 3054000    406.72403   -122.20911    2124.3098    1510.9981   -235.11346    274.94847 0.00068585755 0.00068133351 0.00077909863 
 3056000    381.82756   -122.54343    -3930.013    1047.9316    1557.5301   -120.25182 0.00068614937 0.00068188177 0.00077927296 
 3058000    387.64817   -121.86267   -457.36441   -2266.4292    352.95418     763.5195 0.00068576567 0.00068283921 0.00077827479 
 3060000    400.84711   -121.90853   -446.40934    2041.1471   -2995.9085    4571.3788 0.00068532269 0.0006850087 0.00077764486 
 3062000    377.14913   -123.15506   -3478.5202    2586.6017   -3693.5302    2364.8946 0.00068481391 0.00068718375 0.00077739921 
 3064000    410.53273   -121.99922    3587.1852     23.92171   -447.98458    297.11519 0.00068433239 0.00068741771 0.00077733261 
 3066000    442.95513   -122.16918   -2831.9095   -1123.8705   -1469.1347   -748.04532 0.00068386991 0.00068711837 0.00077683208 
 3068000    397.04548   -121.74347    3031.7989   -2391.6383     -821.965   -1196.0664 0.00068363043 0.00068670219 0.00077650212 
 3070000    417.68718   -121.87002   -206.84595    1227.9855   -1628.1407    117.36935 0.00068395681 0.00068653081 0.00077621988 
 3072000    379.88014   -122.20597   -1755.9241    602.75553   -69.419312    3114.4763 0.00068352252 0.00068728278 0.00077600811 
 3074000    366.00632   -122.21021    2912.1447   -630.24372   -1350.7874     499.2613 0.00068295605 0.00068771731 0.00077660165 
 3076000    403.13987   -122.57939   -4895.6218   -1336.6252   -3137.1088   -1480.1908 0.00068261086 0.00068763408 0.00077611312 
 3078000     423.0659   -122.98078    2103.2872    3441.2685    1.1648268    -101.0644 0.0006821465 0.00068741421 0.00077560866 
 3080000    376.28988   -122.01545   -2180.7275    945.14592   -220.29545    1767.0559 0.00068211547 0.00068702037 0.0007755173 
 3082000    410.67636   -121.55409   -1598.5264    737.46485   -1168.5529   -2014.3971 0.00068179737 0.00068663921 0.00077518714 
 3084000    399.59338   -121.82494    3332.6186     777.0161    25.627852   -9.2515349 0.0006814821 0.00068619958 0.00077482587 
 3086000    422.91313   -122.34139   -4518.1912   -780.49803   -2387.0882   -1677.1207 0.00068111576 0.00068662058 0.00077436727 
 3088000    389.21239   -122.68191    3465.1707   -720.55032   -1597.2685    4699.7502 0.00068075569 0.00068918747 0.00077397665 
 3090000    384.82389   -121.80342   -1022.0248    -1949.737    3904.4573     759.7719 0.00068025719 0.00068835329 0.00077354123 
 3092000    412.10203   -122.42871    521.35126   -644.64648    4385.1137    76.223689 0.00067987711 0.00068801705 0.0007749034 
 3094000    381.89259    -122.6558    2064.0377    677.46038    1728.1884   -659.50124 0.00067952095 0.00068898621 0.00077610349 
 3096000    396.90603   -122.40364   -4251.4254   -1755.7906    3070.3238   -3926.6978 0.00067949788 0.00068818886 0.00077574897 
 3098000    346.08632   -121.94636    2090.0455    4458.1641    -1283.767    3480.5032 0.00067967119 0.00068803593 0.00077560767 
 3100000    375.50403   -122.76966   -4044.1974    3617.9758   -1377.9482    1996.7769 0.00067967374 0.00068749089 0.00077729669 
 3102000    362.95952   -122.12838    692.35277   -227.72793   -858.17977   -1970.0697 0.0006791241 0.00068707337 0.00077704017 
 3104000    418.93407   -121.89764   -104.63637     192.3935   -1586.2842   -224.03604 0.00067889442 0.00068783687 0.00077759023 
 3106000    434.68362    -121.3744   -2794.0098   -307.28486    2621.4614   -2378.8498 0.00067891588 0.00068766462 0.00077776982 
 3108000    389.39122   -122.58091    2085.2513    1067.6367     369.8351   -173.14936 0.00067913228 0.00068771594 0.00077751833 
 3110000    413.96284   -121.47071   -4633.4378    1834.4774   -2615.5192   -1460.0218 0.00067861998 0.00068726842 0.00077723686 
 3112000    404.77862   -122.96738    2757.1778   -931.26424   -1515.2987    5.8029084 0.00067844957 0.0006877114 0.00077689326 
 3114000     402.7701   -122.34645   -1830.6491   -424.01174    2278.0411    1428.8881 0.00067823419 0.00068717445 0.00077647397 
 3116000    420.04675   -122.10403    -227.9859   -1737.2165    1708.1981   -2024.4651 0.00067798209 0.00068702247 0.00077594444 
 3118000    407.67786   -122.29622    3292.5597   -669.07093   -5343.0631    961.32124 0.00067797114 0.00068633998 0.00077540976 
 3120000    396.82868    -121.9449   -4737.6991     5144.983   -2177.8542     -1423.86 0.00067742622 0.00068684089 0.00077613381 
 3122000    407.13256   -123.13836    2528.6966   -1694.6144    31.924214     2311.124 0.0006771761 0.00068768172 0.00077707431 
 3124000    394.03327   -123.09749   -3159.9397   -728.82834   -123.72785     2150.298 0.00067679293 0.00068953176 0.00077688145 
 3126000    400.92132   -122.85577     -2661.48   -253.54848    2461.7508   -1906.2983 0.00067812894 0.00068945934 0.00077700104 
 3128000    397.30964   -121.79388    482.42542   -620.66287   -5160.1747    872.89734 0.00067773423 0.00068913732 0.00077921057 
 3130000    383.74996   -121.60855   -5365.3458    744.40402    1145.3688    2542.1909 0.00067738655 0.00068874247 0.00078035279 
 3132000    391.58414   -121.94159    3159.2943   -2106.8788    -2909.554    1821.0315 0.00067664346 0.00068865364 0.00078330088 
 3134000     378.7966   -122.48183   -852.74477     511.6987   -548.98212   -4947.5338 0.00067619058 0.00068800159 0.00078534569 
 3136000    436.22085   -121.99998    92.565188     1423.984   -2044.4956    744.31908 0.00067579127 0.00068749351 0.00078528616 
 3138000    431.87738   -122.75262    2463.7317    2871.1806   -233.44357   -1328.0059 0.00067537363 0.00068717595 0.00078495427 
 3140000    438.55607   -123.57491     -4001.33    573.40534   -618.59283    18.651841 0.0006750124 0.00068767852 0.00078633592 
 3142000     367.3804   -121.34857    3642.3382    1965.4902   -737.54905   -841.11307 0.00067461449 0.00068820771 0.00078543038 
 3144000    368.19549   -122.14544   -3127.7029    893.86114   -1469.6543   -921.19325 0.00067433813 0.00068768036 0.00078556025 
 3146000    424.08587    -120.6663     1057.298    1371.8403    535.97348    115.68599 0.00067414694 0.00068746671 0.00078492673 
 3148000    378.34309   -121.45502    338.23827   -1525.2554    2418.8428    2533.6439 0.00067383709 0.00068728427 0.00078579806 
 3150000    393.42324   -122.77256   -3065.8361   -132.66593    1148.3539   -494.04589 0.00067345855 0.00068700963 0.00078668482 
 3152000    400.53463   -123.54571    1071.2751   -26.970233    2541.9962    75.859887 0.00067326397 0.00068777368 0.0007862742 
 3154000    413.21752   -121.97924   -3879.7871    -2032.887   -925.37833   -1049.4134 0.00067287082 0.00068720637 0.00078651206 
 3156000    413.60899   -122.48118    1395.3272    2548.3635     448.9377    3711.8874 0.00067279918 0.00068703069 0.00078746122 
 3158000    375.66043   -122.41727   -141.57826    1246.5394    5201.0234   -1899.9623 0.00067301128 0.0006864447 0.00078700292 
 3160000    430.89171    -122.8924   -732.97157   -2884.0868   -2373.6629     2225.222 0.00067285855 0.00068595971 0.00078641493 
 3162000    389.85908   -122.35732    4383.6439    606.58816   -841.11569   -1618.5832 0.00067371418 0.00068574271 0.0007871307 
 3164000    377.32301   -121.56418   -4550.5548   -1391.6065   -3534.8265   -1405.7175 0.00067353406 0.00068674669 0.00078675297 
 3166000    457.41687   -122.06613    2558.5885    1364.8781   -1533.8083   -1588.5274 0.00067374825 0.00068668307 0.0007864225 
 3168000    364.36441   -123.01725   -2909.0155   -1599.1884   -1670.6843   -616.36796 0.00067365886 0.00068662961 0.00078669829 
 3170000    378.69134   -122.82834   -4102.4893    61.413504   -215.60155    1293.5002 0.00067326322 0.00068611012 0.00078729041 
 3172000    423.36073   -122.69158    2670.8585    1231.3336   -916.19392   -1772.9322  0.000672959 0.00068562768 0.00078681675 
 3174000    393.39808   -121.38872   -5605.7207   -489.66774    1980.7151    1292.6274 0.00067251851 0.00068597594 0.00078627768 
 3176000    396.99894   -121.37524    5492.6351   -124.84434   -1368.5785    5986.9621 0.00067216217 0.00068559248 0.00078563798 
 3178000     386.3704   -122.40403   -963.18702   -4732.2292   -3040.7294   -1698.8891 0.00067166316 0.00068557011 0.00078500188 
 3180000    388.05415   -121.38015    485.20264   -1463.9504    1178.7474   -1133.0355 0.00067117669 0.00068528082 0.00078470963 
 3182000    421.68996   -122.01833    2791.1361    820.96596    1803.4543   -3725.5357 0.00067076257 0.00068616716 0.00078477947 
 3184000    423.79123   -121.34845   -5649.8686   -2071.2173    2457.9741   -2864.0407 0.0006703117 0.00068543811 0.00078454154 
 3186000    414.64476   -122.27058    4506.4929   -2175.5086   -1591.2785     445.1273 0.00066999772 0.00068502441 0.00078392341 
 3188000    395.69485   -123.13787   -3821.3937     597.8425      343.767   -3135.4769 0.00067086922 0.00068490125 0.00078493345 
 3190000    391.60538   -121.22595   -539.32858    1472.0549    2792.8767    1391.7781 0.00067022135 0.0006847811 0.00078449244 
 3192000    430.29092   -122.61808    1185.5093    4737.6176   -1716.5788    1633.3734 0.00067002745 0.00068531244 0.00078444945 
 3194000    393.11547   -122.34961   -5607.4886   -1791.3545    2724.3507    1741.6559 0.00066953769  0.000685447 0.00078418076 
 3196000    418.20127   -121.43135    2428.5489    1730.8802   -3159.9227    1083.7093 0.00066948683 0.00068493075 0.0007837427 
 3198000    430.51066   -123.34257   -3506.3155   -634.80345    1219.1712   -2664.5752 0.00066939063 0.00068469773 0.00078422052 
 3200000    416.21757   -122.44835    655.13119   -398.58899   -99.491764    217.87297 0.00067033185 0.00068424978 0.00078380494 
 3202000    379.89029   -122.11668    1795.6208   -353.19723    1841.8631   -1891.8084 0.00067009471 0.00068398541 0.00078336723 
 3204000    425.48911   -121.40262   -1245.9777   -1163.1471   -291.12543   -2374.2976 0.00066976519 0.00068351818 0.00078351724 
 3206000     397.1799   -121.78969    4070.1055    2305.0574    38.976712    -498.4701 0.0006694288 0.00068327205 0.00078281697 
 3208000     396.6933   -122.35198   -2308.1643   -213.76762   -412.23366   -1409.9476 0.00067037746 0.00068294017 0.00078212056 
 3210000    415.08493   -122.35082   -19.030666   -245.33135   -1490.9026   -1913.2875 0.00067003572 0.00068277736 0.00078213054 
 3212000    401.25751   -122.26639   -239.79117   -4640.1941    864.25354    4857.3825 0.00066944351 0.00068268491 0.00078234488 
 3214000    429.39996   -121.96444   -2778.0403     740.7664   -2076.4724    3825.4465 0.00066900793 0.00068253453 0.00078191714 
 3216000    438.38977   -122.56854    435.89568   -3641.5095    535.17625    1167.4159 0.00066865892 0.00068386371 0.0007813085 
 3218000    411.50656   -123.27751   -1795.9389    958.65178   -814.31065   -692.48376 0.00066821789 0.00068413209 0.00078085003 
 3220000    393.34042   -121.93828   -338.42556   -684.24696     3597.496    1251.1898 0.00066789496 0.00068366356 0.00078057634 
 3222000    346.02824   -122.02472    420.77012    439.27128    1943.1917   -1009.9772 0.00066771639 0.00068306491 0.00078026723 
 3224000    428.18674   -121.60583   -1315.2907    1493.4963    1964.2268   -1056.8171 0.00066761564 0.00068289505 0.00077948948 
 3226000     433.3711   -122.17279    940.18426   -470.37647    2568.1396   -1183.7648 0.00066770928 0.00068277652 0.00077888859 
 3228000      378.665    -123.2868   -1570.6987   -1722.8394   -1408.2198    2186.4952 0.00066768195 0.0006825581 0.00077943557 
 3230000    401.61193   -123.58711      165.608    369.76886   -2784.2504   -4871.6549 0.00066788367  0.000683722 0.00078084703 
 3232000    417.17091   -121.81948    732.65545   -953.92617    75.720794    3440.2403 0.00066836784 0.0006843129 0.00078150351 
 3234000     395.1222   -121.77555   -371.79194    864.72684    2226.4353   -1021.0981 0.00066820349 0.00068388401 0.00078138137 
 3236000    374.34553   -122.50938    39.570372   -761.01685   -3263.2952    1357.4793 0.00066831336 0.00068486952 0.00078219666 
 3238000    353.95884   -122.57235   -1575.0746    926.07264   -2710.3192    1659.6739 0.0006680703 0.00068495431 0.00078208127 
 3240000    421.48856   -121.62902   -564.19552    1670.8569    235.28914    792.29204 0.00066767277 0.00068446505 0.00078163544 
 3242000    437.01345   -122.14768    -2358.381   -5301.5038    -4883.252    2894.7956 0.00066777177 0.00068393498 0.00078187929 
 3244000    394.64106    -122.7605   -1740.9359     1453.894   -287.20492   -3854.2409 0.00066742267 0.00068350447 0.00078182263 
 3246000    424.08204   -122.21848   -237.28707   -473.87348   -578.02722    2597.4551 0.00066697088 0.00068294589 0.00078211783 
 3248000    393.86078   -122.44787   -278.06546    209.83154    2508.2506    743.49804 0.00066676676 0.00068268967 0.00078176445 
 3250000    394.85515   -122.17617    1545.2644   -2627.3386   -1352.8476    110.14669 0.00066645338 0.00068230275 0.00078191813 
 3252000    445.79223   -122.56478   -840.71416   -2405.3446    -27.39994     396.4251 0.00066618444 0.00068184982 0.00078141614 
 3254000    426.62273   -122.88104    723.99803    1967.1306    929.58489   -646.58486 0.00066583346 0.00068134418 0.00078141014 
 3256000    388.44943   -122.43281   -1708.3442   -1993.5976   -919.86125    -37.06702 0.00066635728 0.00068120093 0.00078215884 
 3258000    368.26933   -122.32898   -767.04779   -715.05099   -1245.5775   -2996.9558 0.00066645521 0.00068114743 0.00078142223 
 3260000     417.7149   -122.10732    1228.6047   -2128.4602   -121.62493   -1124.2475 0.00066588084 0.00068080936 0.00078150208 
 3262000    416.56556   -122.63358    -1590.777   -646.17631   -750.13525    2835.7335 0.00066540269 0.00068076178 0.0007812495 
 3264000    358.16873   -122.47802   -621.14085   -1589.5955    937.30653    632.15852 0.00066497297 0.00068032322 0.00078175211 
 3266000    383.91914   -122.26547   -1883.9394    1341.7196    -1865.644    1217.9593 0.00066454678 0.0006808215  0.000781097 
 3268000     424.9903   -121.90134   -1912.1536    3849.5757    3854.7034   -427.92657 0.00066504679 0.00068132052 0.00078059265 
 3270000    359.94901   -123.27406   -943.50245   -1015.4327   -138.72208    792.03122 0.00066446969 0.00068132251 0.00078021666 
 3272000    392.46127   -122.25332   -1409.1184   -730.13632    202.72447   -1539.9906 0.00066513966 0.00068091034 0.0007799109 
 3274000     398.5532    -122.7796    1339.0771    2717.0228   -252.29267    1775.2222 0.00066583089 0.00068096817 0.00077944376 
 3276000    390.49556   -122.20401    354.53555   -1996.3621   -4119.5254    -2080.208 0.00066562043 0.00068087095 0.00077878713 
 3278000    454.53075   -122.78507     859.4746   -1443.3216    472.37291    1392.7965 0.00066532891 0.00068052702 0.0007783401 
 3280000    471.86574   -122.62553    266.50015    4649.5468   -1003.4038   -2003.4381 0.00066500458 0.00068092966 0.00077839227 
 3282000     432.4503   -120.91277   -1224.2073   -1275.5706   -2434.6188   -4482.9238 0.00066464986 0.00068052892 0.00077867324 
 3284000    352.40493    -123.0491   -1431.5326    1274.9643    401.30352    -1248.672 0.00066417966 0.00068006582 0.00077863145 
 3286000    386.74347   -121.37581   -2795.5467   -3789.4289    7.9643548   -112.74448 0.00066433206 0.00068038994 0.00077830702 
 3288000    398.19342   -121.33065   -530.12254    1738.0962    -1273.884   -2159.3011 0.0006645337 0.00068026983 0.0007778417 
 3290000    419.56176   -122.43355    786.94749   -2408.7309    554.66238    184.80837 0.00066397164 0.0006799709 0.00077729595 
 3292000    383.15384   -121.15134   -699.09796    1018.4049   -1469.8727    436.16661 0.00066365906 0.00068045451 0.00077724635 
 3294000    420.99007   -122.36703    2750.5035    1673.2731   -1178.1692    13.703543 0.00066422881 0.00068511227 0.00077685387 
 3296000    415.70988   -122.24191    -1657.557    2161.2968    104.58551   -2366.3483 0.00066527616 0.00068684995 0.0007764104 
 3298000    426.57155   -121.71744    582.11319   -564.30154    1385.0579   -2499.2761 0.00066490801 0.00068650611 0.00077597707 
 3300000    430.31145   -122.21321     400.5905   -1590.7477     -571.664   -3455.5901 0.0006644481 0.00068773623 0.00077544431 
 3302000     371.8606    -122.6844   -3832.5282   -1699.9749   -2333.4595   -927.02581 0.00066431527 0.00068721218 0.00077487183 
 3304000     422.9654   -120.90934    3358.1689   -2491.6213   -221.27646   -537.81327 0.00066451871 0.00068680668 0.00077469097 
 3306000    413.22102   -122.46549   -4538.2721    3707.5638     -3872.92   -940.07886 0.00066430488 0.00068751099 0.00077450631 
 3308000     385.0869   -121.91698    178.99197    1509.3366    2305.8195    889.84196 0.00066407136 0.00068856666 0.00077416867 
 3310000    358.68292   -122.71821    774.81782    3390.8436   -932.76046    5009.1605 0.00066345467 0.00068839894 0.00077379559 
 3312000    413.76949   -123.61799   -4601.8725   -3083.4211    2667.7005   -929.62629 0.00066357372 0.00068802373 0.00077437379 
 3314000     407.8654   -122.36326    2567.5952    999.23393    936.75563   -315.95677 0.00066327161 0.00068793094 0.00077357936 
 3316000    434.10115   -122.64843    -3017.204   -1061.4253   -3020.4332   -316.89581 0.00066282745 0.00068748111 0.00077318559 
 3318000    366.29204   -123.55161    575.79646    3593.2772    1030.4656   -1164.4111 0.00066306752 0.00068723144 0.00077253234 
 3320000    401.22993   -120.73489    2585.8698    820.68773    1233.8926     2166.661 0.00066296616 0.00068717189 0.00077286447 
 3322000    372.97657   -122.33624    -2515.019   -3031.9484    4541.4031    1386.3433 0.00066310492 0.00068804956 0.00077254298 
 3324000    404.91384   -121.95405    2464.8863   -119.20088    1258.7476    1624.4883 0.00066279481 0.00068806096 0.00077206683 
 3326000    430.93608   -122.63629   -3075.1036    2653.1586   -1514.4732    -281.0759 0.00066236952 0.00068786751 0.00077175404 
 3328000    444.07393   -122.33771   -336.62122   -1461.3215     916.8422    1955.1229 0.00066397254 0.00068725316 0.00077152652 
 3330000     386.4023   -121.67613   -319.63866   -1670.5816   -2551.9352     4420.843 0.00066394236 0.00068686071 0.00077211358 
 3332000    433.79004   -121.92466   -1727.7266   -952.07129    2519.1723   -1156.7951 0.00066370031 0.00068665527 0.00077172925 
 3334000    418.11559   -121.83898    2097.3324    2576.8877   -2933.7798    3522.3736 0.0006635334 0.00068606174 0.00077198339 
 3336000     409.8719   -121.97142    -1703.714    1256.3543   -93.530994   -3515.3031 0.00066317926 0.00068553659 0.00077146799 
 3338000    380.10558   -121.92867    -293.2496   -1387.2595    3135.1073    238.30405 0.00066288937 0.00068526701 0.00077102534 
 3340000    397.31061    -122.2033   -849.55727    -2366.506   -2286.4023    -2723.959 0.00066248264 0.00068582874 0.00077145325 
 3342000    399.49937   -122.36111   -1510.6273   -1706.6936    1413.4443   -2595.2398 0.00066190793 0.00068612634 0.00077098065 
 3344000    368.31796   -123.13298    1075.6308   -94.600738    1987.8023    4512.3749 0.00066146498 0.00068867575 0.00077070929 
 3346000    387.92084   -122.44688    -1738.915   -2944.3724   -1315.3213    1537.8345 0.00066131295 0.00069051607 0.00077051195 
 3348000    381.42211   -121.43635    1804.6883     1186.399     2077.341   -38.786671 0.00066092516 0.00068984222 0.00077018815 
 3350000    386.21285   -121.99663    312.57613   -181.13246    338.87837   -4029.0689 0.00066060955 0.0006897241 0.00076984823 
 3352000    431.29774   -121.87559   -1291.3093     1446.646   -88.297073    1038.9102 0.00066089885 0.00069002755 0.00076937691 
 3354000    438.22955   -122.24913   -148.56748    -1520.856    831.03116   -3611.1593 0.00066130883 0.00069044949 0.00076925894 
 3356000    421.75164   -122.03398   -3934.4646   -559.54657   -747.21596    3825.6905 0.00066101244 0.00069057884 0.00076856962 
 3358000    391.57682   -121.70567    70.223405   -3497.5993    2363.8299    229.38286 0.00066083605 0.0006902465 0.00076809342 
 3360000    368.97159   -123.26652   -1240.6001    2044.1052   -178.30218    1131.5663 0.00066292576 0.00069052005 0.00076770286 
 3362000    343.19659   -122.91673   -469.85463    951.47416   -403.94472   -1778.7288 0.0006626464 0.0006919417 0.00076733387 
 3364000    379.93935   -122.68359     1337.423    354.28857    1723.1936    1989.8353 0.00066206479 0.00069821656 0.00076719434 
 3366000    404.39098   -122.28806   -2961.8631   -2008.0167    1246.2402    733.71309 0.00066194897 0.00070059657 0.00076677728 
 3368000    355.99699    -121.5041    310.43263    573.69318   -1729.8089   -1887.8497 0.00066137009 0.00070148214 0.00076665043 
 3370000    432.97534   -120.54823   -2669.2291   -2249.5258    739.49513   -706.14937 0.00066100197 0.00070107777 0.00076599517 
 3372000    463.11853   -121.80749   -158.34633    214.02025    3501.5984    3907.5895 0.0006605408 0.00070075419 0.00076550839 
 3374000    399.10615    -122.2172    1977.0242   -2001.9984    28.434224    2187.0413 0.00066060595 0.00070034111 0.00076526934 
 3376000    383.21836   -122.71855   -1103.9401    3281.9147   -2486.0651   -3914.2621 0.00066068989 0.00069985091 0.00076471097 
 3378000    359.35151   -122.45369    1820.2821   -4277.6932    744.29115   -2856.4624 0.00066071493 0.00069962203 0.00076439742 
 3380000    433.66875   -121.60096   -2326.7533    907.65033    -775.9887    1061.7883 0.00066028134 0.00069906576 0.00076438446 
 3382000    392.15287    -122.4202   -2552.6216   -1228.8674   -2594.9241   -1869.4514 0.00066000057 0.00069854183 0.00076498451 
 3384000    394.59279   -121.45456   -629.52712   -3817.3178   -1646.6424    641.71115 0.00065987342 0.00069813802 0.00076524209 
 3386000    380.44047   -121.56939   -3309.3421   -608.65031   -328.02899    880.82391 0.00066019055 0.00069938636 0.00076476743 
 3388000    405.27902   -122.65768    1689.6604   -1812.2572    2039.8971   -122.50943 0.0006597187 0.00070040611 0.00076440798 
 3390000    380.77444   -122.35475   -622.32997    769.63918   -137.95724    2008.5765 0.00065989259 0.00069996383 0.00076408791 
 3392000    380.43944   -121.19023   -394.74464    1114.7897     935.2754   -4198.6606 0.00065987639 0.00069954044 0.00076365863 
 3394000     399.7649    -121.3987   -705.73049    1684.3774    1232.2361    1659.9018 0.00066031788 0.00069918604 0.00076316899 
 3396000    368.54855   -122.54899   -3535.2299    4779.4006    2937.2543   -2524.6175 0.00066016528 0.00069931417 0.00076262016 
 3398000    365.07763   -120.86474    587.85493   -2958.3264   -1963.3673   -3331.3334 0.00066004756 0.00069906577 0.00076230021 
 3400000    428.76794   -122.26477   -1504.3139    1660.5362    2668.6236    1940.4943 0.00065987506 0.00069863026 0.00076242052 
 3402000    417.68235   -122.03387    1773.3289    2322.7921   -1206.5183    1876.9908 0.0006594681 0.00069830741 0.00076205345 
 3404000     381.4212   -122.99862    110.39765    3466.3117    -1419.193     1626.696 0.00065927386 0.00069796038 0.00076214865 
 3406000    405.07063   -122.23367   -698.32269   -669.53636    3084.6723   -2676.0619 0.00065936085 0.00069758054 0.00076202071 
 3408000    379.94797   -122.42696   -73.575269    393.99034    -2004.081   -445.24216 0.00065881221 0.00069726595 0.0007615874 
 3410000    351.58883   -122.58989   -4246.1739    -1488.166   -1876.4699   -1906.5251 0.00065866973 0.00069687714 0.00076118957 
 3412000    436.39619   -121.70651    1108.6926   -2848.3595   -290.40084    -3267.508 0.00065832215 0.00069681108 0.00076060115 
 3414000    393.22419   -121.93323   -3473.9541    1324.7258    2385.4574    5080.7179 0.00065829396 0.00069627409 0.00076094334 
 3416000    416.41544   -122.13747    13.192413   -2752.9928    2047.7309   -3865.3351 0.00065782611 0.00069627515 0.00076102723 
 3418000    410.58516   -122.21166    802.25505   -1127.8371    312.06815   -434.91128 0.00065742296 0.00069592667 0.00076073341 
 3420000    426.06241   -121.16408   -2679.1407      -1613.5     4317.764   -2318.8166 0.00065729747 0.0006956383 0.00076005463 
 3422000    401.49682   -122.45149     2615.307   -3188.9144    1579.8075    3051.1306 0.0006568868 0.00069543859 0.0007605726 
 3424000    412.55458   -122.87151   -2859.6323    1174.4796   -1348.0244    590.62959 0.0006565301 0.00069498248 0.00076033844 
 3426000    403.62609   -122.90374    1105.0731    3554.8441    1596.7187    1102.1178 0.00065689972 0.00069535575 0.00075981553 
 3428000     403.8242   -121.76234    1864.8091    4470.9837   -1172.9682    2376.2905 0.00065619552 0.0006965305 0.00075945466 
 3430000    390.18813   -121.94336   -2123.0593   -221.54668    1659.2188    -1956.496 0.00065622767 0.00069760305 0.00075916689 
 3432000    363.16066   -122.50691    2677.6768    2415.1808   -1841.5173   -1625.3564  0.000656212 0.00069768995 0.00075872479 
 3434000    395.74514   -120.96658   -3330.1088     675.4904    2105.5381   -1192.8341 0.00065647955 0.00069742609 0.00075841621 
 3436000     391.6761   -121.79661   -618.13388   -984.37852     3846.947    1919.2213 0.00065754928 0.00069776459 0.00075794205 
 3438000    376.83593   -122.52276   -2505.1772    1267.4528    1971.5522   -2798.0709 0.00065717851 0.00069848186 0.00075756998 
 3440000    388.50881   -120.64383   -2351.6292   -3478.6624      1594.17    -2913.568 0.00065670892 0.00069815605 0.00075738478 
 3442000    380.33098   -121.73562    1951.6646    -1765.658   -2298.6493    2551.1377 0.00065648299 0.00070054251 0.00075771459 
 3444000    400.82442    -121.4223   -2269.7746   -809.97182   -1971.0463   -97.754374 0.00065632728 0.00070058663 0.0007586304 
 3446000    378.17404   -122.57565    2204.8863    2843.1609   -3343.9248    2720.3314 0.00065592448 0.00070013591 0.00075824518 
 3448000    430.39101   -121.27235   -180.23202    711.31915    1068.3502    849.20075 0.00065622968 0.00070067964 0.0007576706 
 3450000    410.70589   -121.17257    259.20222    2661.2946   -2347.7081   -5767.0671 0.00065606285 0.00070220858 0.00075737771 
 3452000     439.1547   -121.73014    2222.4798    2963.5435    100.91082    1079.4193 0.00065525469 0.00070275868 0.00075839207 
 3454000    405.26753   -121.68083   -5112.6966    373.64162    347.24581   -4562.7872 0.00065503901 0.00070219966 0.00075850975 
 3456000    416.61891   -122.34237     1976.819    1085.3009   -2659.0901    4181.0018 0.00065559985 0.00070189788 0.00075909669 
 3458000    398.57814   -121.91276   -3366.6129    1252.6425     975.8089   -1641.9096 0.00065581394 0.00070147897 0.00076213612 
 3460000    426.35189   -121.92337   -1005.3317    3853.6525    1567.7809   -159.01989 0.00065546979 0.00070220332 0.00076323723 
 3462000    435.66938   -121.74004    492.28841    187.45185   -383.22611    791.56897 0.00065504964 0.00070187265 0.00076327896 
 3464000    407.05744   -120.85402   -5972.0783   -1092.2583   -616.29607    3070.9608 0.00065470661 0.00070165108 0.00076304417 
 3466000    377.67372   -121.70313    2654.0527   -232.40133     56.21096    2382.6363 0.00065438061 0.00070147544 0.00076233073 
 3468000    419.69592   -122.00643   -4423.5723    277.41489    4312.0994    1682.9418 0.00065514254 0.00070257158 0.00076193916 
 3470000    384.55857   -123.39427    902.44427    1221.6451   -1619.7038    1053.3514 0.00065490335 0.00070194159 0.00076250442 
 3472000    442.63336   -121.27605      2053.12    -347.7389    1966.2874   -3354.8889 0.00065543432 0.00070149868 0.00076279726 
 3474000    405.84683   -121.19233   -1143.7715    1314.0945   -450.45093   -2373.0487 0.00065588923 0.00070160558 0.00076465166 
 3476000    375.03137   -122.01908    3533.2074   -2210.9935    1149.7667    2666.3664 0.00065607198 0.00070123329 0.00076429964 
 3478000    417.96538   -123.17264   -4921.6236     250.2747   -2626.0564   -1446.5943 0.00065676422 0.00070076408 0.00076384063 
 3480000    403.39233   -122.84511   -51.708788    710.04101    896.09389   -731.17509 0.00065639877 0.00070033952 0.00076350577 
 3482000    370.52419   -123.43986   -3949.9812    681.65729    41.040906    2084.3421 0.00065569947 0.00069983378 0.00076317097 
 3484000    394.15525   -121.58107   -4057.9922    2402.2862    -7329.981    1223.3327 0.00065556714 0.00070028578 0.00076289663 
 3486000    425.81078   -121.35581    2619.0752    102.58082   -1181.4871   -2868.6663 0.00065717559 0.00070001899 0.00076228673 
 3488000    387.42441   -121.56664   -2589.0027    863.58947    729.13989   -6362.0384 0.00066123858 0.00069991471 0.00076179823 
 3490000    393.22749   -122.50007    3880.4724    3837.3881    832.55358   -2918.5273 0.0006625322 0.00070086434 0.00076131911 
 3492000    392.87829    -122.4473   -763.84582    379.18081    3589.8388    904.90432 0.0006630493 0.00070146588 0.00076144444 
 3494000     416.3795   -121.94084   -1031.6775    1270.6485    3777.6491    4782.4541 0.00066324681 0.00070086768 0.00076110556 
 3496000     430.0536   -121.87523    1195.0459    1852.7778    2124.6114     651.9377 0.00066291715 0.00070036422 0.00076085068 
 3498000    370.67949   -122.28224   -4192.8538    700.63122   -2890.4609    4348.5656 0.00066361658 0.00069987229 0.00076042635 
 3500000    393.13726    -122.8093    1702.1806    663.80824   -2917.4343   -4689.3715 0.00066551343 0.00069947615 0.00076054598 
 3502000    396.28576   -122.11938   -2448.8286    3359.8605   -2247.5628    3041.4133 0.00066503527 0.00069948454 0.00076166822 
 3504000    400.73244   -122.14501   -1070.7799   -293.15957    1741.2512    941.56332 0.00066497454 0.00070025035 0.00076124323 
 3506000    409.37259   -122.19768    603.89772   -3546.1424   -493.85461   -3150.4492 0.00066446646 0.00069984432 0.00076083556 
 3508000    393.74807   -122.38867   -3234.3283   -1651.6229   -67.482042   -872.69447 0.0006640293 0.00070004486 0.00076044947 
 3510000    363.08728   -122.94083    1300.6049   -1723.7717    3360.8858   -1218.1859 0.0006637359 0.00069934627 0.00076019096 
 3512000    379.51992   -122.53063   -1870.5316   -867.33812    860.84544   -1850.5952 0.00066329808 0.0006986494 0.00075966123 
 3514000    374.15551   -122.43512    2132.8505    2200.6348    2454.2122    -295.1227 0.00066296716 0.00069933815 0.00075931199 
 3516000    421.87785     -122.093    2399.4042   -2053.7838   -960.26544   -1107.5794 0.00066314443 0.00070172495 0.00075913728 
 3518000     465.0168   -122.52696   -1609.0945    5209.5238    1463.5049    2666.9307 0.00066266295 0.00070348105 0.0007590591 
 3520000     408.3318   -120.96462    2141.7004    810.54073    1421.6352   -796.00583 0.00066383848 0.00070415417 0.00075891131 
 3522000    374.88829   -122.52364   -5674.3028   -1022.2342     2402.865   -535.01949 0.00066386893 0.00070446935 0.00075928124 
 3524000     385.6212   -122.37509   -840.74907    1413.5471   -3072.9683   -693.95144 0.00066442878 0.00070434153 0.00075865007 
 3526000    418.47292   -122.39818   -2528.3936   -2445.0869    2393.0451   -2533.8849 0.00066440355 0.00070391742 0.00075811767 
 3528000    409.65012    -121.9107   -2263.8444    802.31544   -2228.4142    326.78312 0.00066548211 0.00070485659 0.00075777944 
 3530000    396.54686   -123.27024    4022.1285    1622.8087   -2718.9245   -3643.9744 0.00066643905 0.00070549834 0.00075737928 
 3532000    437.25179   -121.60966   -1715.7413    1919.6613    1502.9118   -1379.3791 0.00066665435 0.00070487241 0.00075747653 
 3534000    410.34448   -122.15904    3305.8176    -1473.987    -2859.606   -1785.8821 0.00066638057 0.00070473461 0.00075839494 
 3536000    423.98919   -122.65325   -2142.8491    3157.6717   -4511.8659    2247.9852 0.00066606795 0.00070466668 0.00075820823 
 3538000    431.00856   -121.35177    -2443.005   -280.19109   -2436.1575   -2172.9026 0.00066594381 0.0007044986 0.00075774041 
 3540000    362.17164   -122.15689    272.54698    185.87511   -143.60143    2251.1982 0.00066554721 0.00070474878 0.00075747866 
 3542000    416.15399   -120.51696   -5050.9682   -121.75892    2505.6356     803.1256 0.00066497793 0.0007055631 0.00075683076 
 3544000    400.64649   -121.60062     3982.355    -3205.535    966.00444   -1511.9314 0.00066483608 0.00070559396 0.00075630929 
 3546000    424.65552   -122.37032   -2969.3663    1676.0016    637.58559   -1937.8948 0.00066444913 0.00070552429 0.00075582047 
 3548000    393.55965   -121.57035     571.6657    507.02803    685.45385    3479.1358 0.00066396289 0.00070625171 0.00075536518 
 3550000    458.85452   -121.64697    926.60764   -826.79753    1096.7744   -273.79451 0.0006635863 0.00070605638 0.00075506624 
 3552000    386.39092   -121.13243   -5228.2505   -575.60347   -3133.5831    3103.3927 0.00066334537 0.00070620097 0.00075532999 
 3554000    415.13018   -121.42898    4489.5361    4820.2539    3356.4528   -1933.1386 0.00066464688 0.00070578474 0.00075664226 
 3556000    414.17835   -121.44126   -3671.6694    3610.3397   -14.252823    433.51304 0.00066375725 0.00070557447 0.00075733799 
 3558000    400.70735   -122.79752    1045.7081    1064.8281    2225.7662   -4753.0362 0.00066390158 0.00070553581 0.0007570482 
 3560000    427.34563   -121.98199    1732.8007   -1262.1214   -205.91153   -438.50822 0.00066353365 0.00070538815 0.00075742609 
 3562000     378.1291   -123.08853   -3752.3562   -2187.4836    1455.2861   -2904.1143 0.00066374535 0.00070551473 0.00075752817 
 3564000    403.35216   -123.03077     2446.866   -1169.8496   -827.17896    -2463.563 0.0006636404 0.00070571678 0.00075710395 
 3566000    397.03708   -121.96261   -5196.9317   -467.22016   -1153.2133    -1771.522 0.00066351223 0.00070527585 0.00075658418 
 3568000    426.50286    -122.4186    823.70619    -2361.792    253.64356    1272.9834 0.00066347933 0.0007051693 0.00075622805 
 3570000    359.54374   -121.69501     -380.393   -1524.2963    946.29311    2247.6584 0.0006629974 0.00070515735 0.00075656259 
 3572000    412.72164   -123.06441    -1149.942     -466.475    1845.9536    -2074.326 0.00066259955 0.0007045886 0.00075752091 
 3574000    350.80737   -121.77076    3045.7429     290.7714    3554.7282    1217.3285 0.00066215289 0.00070417371 0.00075904278 
 3576000      420.419   -122.35025    -5027.683   -375.31254    1186.7204   -3343.7592 0.00066195749 0.00070357992 0.00076229243 
 3578000     377.7281    -121.5369    2788.8723    651.59102      -2188.2   -788.16941 0.00066256074 0.00070476335 0.00076229773 
 3580000    414.12526   -122.35073   -3725.5838   -315.68922    4494.8728    -2659.589 0.00066217898 0.00070414674 0.00076721155 
 3582000    384.91139   -121.13957   -498.41199    573.40379   -3474.8631   -223.03795   0.00066206 0.00070422035 0.00076686668 
 3584000    387.55647   -122.29073    2162.0432    239.35734    -2053.771    -275.0911 0.00066198455 0.00070763105 0.00076763306 
 3586000    370.75486   -122.59125   -2999.5761   -51.188109   -171.57135   -4490.3823 0.00066271294 0.0007074098 0.00076692863 
 3588000    440.63057   -122.00769    5187.3092   -2717.9213     2693.395   -2384.3383 0.0006633886 0.00070704787 0.00076722196 
 3590000    395.36599   -121.94121   -2912.9918   -5666.8295    180.32209    5343.7439 0.00066345012 0.00070930839 0.00076682684 
 3592000     393.9782   -123.06471   -233.31206   -1471.3142    905.80476    -1373.614 0.00066338175 0.0007092558 0.00076683903 
 3594000    398.29248   -122.03311    -1030.244    4465.9412    2708.1536    -3392.101 0.0006629763 0.00071076502 0.0007666024 
 3596000    387.43959   -121.39691   -4772.0292    1028.5009    1569.4009    2506.4624 0.0006636718 0.00071143416 0.00076614299 
 3598000    401.60656   -122.25787    2812.4036   -1397.1376   -841.91095   -1378.3986 0.00066281686 0.00071217797 0.00076569515 
 3600000    405.39862   -122.93215   -4052.7111   -4187.6547     1297.487    2418.4029 0.00066242642 0.0007128001 0.0007653642 
 3602000    417.96448   -121.37212    3106.1313    571.85867    -1937.603   -162.88075 0.00066256241 0.00071279318 0.00076519618 
 3604000    377.52287   -122.74925   -860.84709    324.40784   -214.27689    299.24444 0.0006625098 0.00071277914 0.00076478018 
 3606000     403.1632   -121.27703   -958.14415    1401.7255    57.879557    1919.0172 0.0006625319 0.00071270276 0.00076472719 
 3608000    470.38573   -122.90841    2488.5785    517.34851    118.41408   -1263.5454 0.00066222097 0.0007142869 0.00076478909 
 3610000    431.51893    -122.7887   -5299.2902   -2623.1707    4139.6802    2743.9252 0.0006619085 0.00071372671 0.00076669324 
 3612000    429.08902   -122.12313    3067.8425    233.74577    3733.5783    1131.6217 0.00066154024 0.00071410882 0.00076831948 
 3614000    397.50106   -121.82628   -3158.0189   -1401.5901    -133.6289   -4087.3882 0.00066122842 0.00071346957 0.00076861897 
 3616000    376.16419   -122.96358   -664.78648    6781.9896    25.069177    1309.2913 0.00066091059 0.00071325683 0.00076848661 
 3618000    375.68109   -122.40514    1127.0139    927.50844   -2673.5369   -216.84249 0.00066056564 0.00071302225 0.00076828739 
 3620000    446.84236   -122.06503   -5094.9379    1346.7801    2463.5895   -336.77993 0.00066027168 0.00071339659 0.00076788767 
 3622000    394.76229   -121.68346    2420.9331   -437.37183    899.19537   -1562.7823 0.00066077446 0.00071381726 0.00076797933 
 3624000    380.22147   -121.74546   -5333.3661     2799.811   -1970.5544   -1674.4067 0.00066036371 0.00071376128 0.00076760824 
 3626000    398.87126   -122.08989   -702.37106   -3547.7937   -1320.7993     2052.963 0.00066008614 0.00071325655 0.00076714787 
 3628000    430.20017   -122.67806    1275.3305    197.36257   -6448.4211    316.74398 0.00066020673 0.00071307604 0.00076744587 
 3630000    373.44387    -122.2235   -2912.2193   -2574.4253    727.28203    1171.1256 0.00065992418 0.00071381437 0.00076694161 
 3632000    358.05023   -121.86429    5246.6055   -796.46844   -3243.4902   -2540.7391 0.00065950558 0.00071324629 0.0007665633 
 3634000    401.58514   -122.51786   -2899.2585   -2395.1466   -1425.3677    -1487.737 0.00065932316 0.00071316422 0.00076667111 
 3636000    422.88436   -123.53008    1682.6872   -477.66639   -1683.6015    3713.8323 0.00065925668 0.00071330602 0.0007663181 
 3638000    362.44046   -123.03113   -1255.2599   -822.14405   -2348.9941   -2144.1619 0.00065889325 0.00071436482 0.00076651118 
 3640000    402.25071   -122.60339    -4192.213   -3549.2507    1449.7303    2275.6064 0.00065841269 0.0007137301 0.00076660728 
 3642000    357.40598   -122.67941     1948.616   -196.30818    1058.0983    2300.8153 0.0006580531 0.00071343653 0.00076617446 
 3644000    444.75368   -121.65922   -7380.3302   -2168.6945     1326.031   -4570.7687 0.00065772895 0.0007132489 0.00076583539 
 3646000    360.02611   -122.81036    2900.2679    220.44915   -688.11288    1680.9127 0.00065735001 0.00071341448 0.00076546632 
 3648000    372.98481   -123.07211   -1663.3672    2030.0891    541.68249   -168.41064 0.00065709461 0.00071285001 0.00076619458 
 3650000    391.77989   -122.35321    290.18553    2918.9729     424.8501   -3851.6225 0.00065668473 0.00071262923 0.00076691325 
 3652000    410.03775   -123.05368     3710.842    2458.2561   -1180.9449    1548.9947 0.00065751685 0.00071219078 0.00076662513 
 3654000    473.60668   -122.17289   -4686.3147    1401.0641   -3435.5256     -1532.09 0.00065829176 0.00071257443 0.00076626749 
 3656000    367.56036   -121.73761    4239.8044    1467.8898    2092.0295    922.15665 0.00065801527 0.00071303144 0.00076607173 
 3658000    357.09401   -122.57501   -3177.8888    2663.3227    962.84215    3080.4512 0.00065813977 0.00071330278 0.00076588036 
 3660000     341.5784   -121.75269   -317.54883    6521.2612    872.25555   -1619.8356 0.00065868607 0.00071302917 0.00076559554 
 3662000     421.1927   -122.60357    1742.2999   -2527.6083    4354.1966    852.27157 0.00065832459 0.00071372978 0.00076561234 
 3664000    375.99197   -122.29286   -5257.9916    4199.0508    572.99766    61.935113 0.00065792384 0.00071372288 0.00076522431 
 3666000    415.41921   -122.43599    2830.8362   -4434.9893    396.28377   -1536.7397 0.00065761272 0.00071354001 0.00076484886 
 3668000    412.02594   -121.58367   -3294.3478   -2620.9231   -1339.0336    -10.61896 0.00065727479 0.00071361338 0.00076471292 
 3670000    427.14267   -122.49931    15.047742    1175.3277    2552.5454    1233.7616 0.00065674504 0.00071341818 0.00076454935 
 3672000    380.06435     -121.813    1574.2716   -1553.5615    1039.1539   -498.85345 0.00065780009 0.00071308132 0.00076527403 
 3674000    382.47038   -122.62006   -1637.5027   -4376.4771    1059.8674   -2019.6046 0.00065780621 0.00071280667 0.00076768208 
 3676000    381.42489   -122.91515    2986.4108   -2279.2724    51.207754    943.07603 0.00065900278 0.00071239222 0.00077057692 
 3678000    348.99674   -122.04296   -2850.6257   -2379.2833   -3190.9811    66.925008 0.00065879295 0.00071215709 0.00077040569 
 3680000    418.37903   -121.74529    1095.6269    2142.9597   -1861.3888   -2211.3678 0.00065836403 0.00071187695 0.00076998805 
 3682000    432.19421   -122.03565    -2062.371   -688.84937   -2820.0488   -5358.0206 0.00065845417 0.00071166561 0.00076958242 
 3684000    387.20088   -122.29596    -3194.731    3440.4836    2929.9285    3496.8044 0.00065833521 0.00071116959 0.00076990164 
 3686000    353.23989   -121.47332    643.14863    3360.1966   -1005.4484   -943.22308 0.00065837121 0.00071073175 0.00077013591 
 3688000    404.99183   -121.84086   -4272.7397    1108.7521    2281.9437    207.04111 0.00065819618 0.00071064066 0.0007699934 
 3690000    439.76205   -122.11879    2739.5113    296.95472   -1129.2528    -2837.864 0.00065780317 0.00071038304 0.0007696081 
 3692000    386.73417   -122.54508   -1327.2522    -1657.018   -861.77405   -1685.9372 0.00065755051 0.00070998245 0.00076897563 
 3694000    389.73615   -123.05145    -1113.717    -1837.724   -2778.3515    -1133.745 0.00065729381 0.00070993899 0.00076874441 
 3696000    383.78674   -121.79929    3947.6755    2571.9578   -801.45474    2137.4741 0.0006568757 0.00071019968 0.0007682304 
 3698000    302.73417   -123.11754   -4275.6449    4008.3164    -2125.197    1257.3121 0.00065757833 0.00070981857 0.00076791561 
 3700000    391.91149   -122.26538    3048.8571    1185.4293   -1399.5617   -2649.1486 0.0006572404 0.00070945934 0.00076756296 
 3702000    352.50011   -122.46588   -2033.2555   -1616.0914    246.23369    1572.0703 0.00065693877 0.00070964703 0.0007672423 
 3704000    451.55385   -122.42355   -233.07501    1108.5367   -1570.9695    248.63096 0.00065662739 0.00070911388 0.00076681045 
 3706000    394.95438   -122.84696    1472.5059    592.60546    138.29105     626.9885 0.00065671532 0.00070871573 0.00076640184 
 3708000    421.35665   -122.41963    -5447.664    3354.4931   -2366.6425    47.765855 0.00065662055 0.00070836138 0.00076587887 
 3710000    446.09786   -122.33408    2265.2333    134.07002    4697.2148   -4098.8499 0.00065628669 0.00070812916 0.00076545449 
 3712000    350.23742   -122.28123   -4197.2889     1106.883   -989.82658   -2857.5214 0.00065596112 0.00070791136 0.00076509344 
 3714000    402.81914   -122.24459   -317.57035   -745.61133   -1186.0891    451.89873 0.00065586727 0.0007079301 0.00076452303 
 3716000    410.33056   -122.23071     1549.895    210.15673   -655.41531    1290.6408 0.00065573877 0.00070756435 0.00076376828 
 3718000    427.22897   -122.25379    -2698.487    1116.5508    -1510.495   -1246.5047 0.00065561155 0.00070728803  0.000763146 
 3720000    368.46197   -121.33209    5232.6796   -135.15959    4230.4841    3053.3846 0.00065499712 0.00070716378 0.00076263328 
 3722000    378.78239   -121.87508   -3252.7272   -3532.8849   -1610.3541    3168.9626 0.00065455265 0.00070680475 0.00076273023 
 3724000    409.46406   -121.89254    877.56846    771.32091    3207.0826     977.3934 0.0006542323 0.0007076253 0.00076298169 
 3726000    384.23716   -122.48526   -1844.8827    1697.7892   -3451.5242   -2701.0939 0.0006538955 0.00070724023 0.00076282504 
 3728000     422.5318   -122.66254   -4649.8955   -1060.6471   -657.16721    4620.6683 0.00065422736 0.00070760834 0.00076241126 
 3730000    387.77285   -122.67029    1621.4368   -26.612209    829.36735   -4811.6161 0.00065440006 0.00070856045 0.0007628572 
 3732000    395.19156    -123.1667    -3693.987    1531.6084   -369.15178    3324.6585 0.00065414302 0.00070848988 0.00076346382 
 3734000    406.09156   -123.05875    2158.3944    400.03325   -512.74528    231.37557 0.00065405389 0.00070818385 0.0007638014 
 3736000    357.87668   -121.69394    141.32057    -463.2434    1534.7963   -800.35629 0.00065398426 0.00070817525 0.00076431136 
 3738000    396.67237   -121.42197     -2152.83     3387.656    3089.9821    4352.2674 0.00065358932 0.00070851989 0.0007647579 
 3740000    449.93954   -122.93515    443.60326    450.67116    336.38138   -267.62373 0.00065319823 0.00070831134 0.00076549549 
 3742000    396.61531   -122.81911   -5222.5785   -3605.4382    480.43287    402.45613 0.0006529179 0.00070800405 0.00076607903 
 3744000    406.47975   -122.61791   -158.85612    1296.5826   -304.20511    1537.2738 0.0006537596 0.00070758711 0.00076619569 
 3746000    432.95992   -121.19079   -474.10798    1865.1989    2242.3817   -6399.5062 0.00065359129 0.00070774761 0.00076625314 
 3748000    385.61334   -122.29065   -791.28204   -3040.3989   -1362.1165     1348.826 0.00065298857 0.00070945793 0.00076591861 
 3750000    432.07521   -122.25041    2347.5382    1988.3697   -1139.4796    -2108.887 0.00065334497 0.00071425505 0.00076594652 
 3752000    407.16556   -122.30082   -3781.0376    1533.6805   -784.61507    932.18571 0.00065322687 0.00071641575 0.00076567001 
 3754000    404.07485   -121.04627    1961.0998    1555.9701    -3543.007   -3084.5169 0.00065283316 0.00071576561 0.00076518227 
 3756000    358.33497   -122.77401   -3105.2245    3697.2974   -1518.1628   -1604.5031  0.000652449 0.0007154518 0.00076488319 
 3758000    405.95626   -121.93665    29.786104   -1776.7739   -244.36923   -1186.4842 0.00065215342 0.00071546208 0.00076450137 
 3760000    386.13633   -122.75644    1796.0371   -2223.2353   -413.06387    1430.2491 0.00065332829 0.00071503367 0.00076457626 
 3762000    366.77775   -121.64915   -2174.4448    1834.0342    68.765281    1446.3687 0.00065398259 0.00071472079 0.0007648833 
 3764000    405.13266   -122.71885    1684.4414   -3948.8283     566.2503    5374.7215 0.00065400786 0.0007142874 0.00076494376 
 3766000    396.83268   -122.58367   -3007.2825    965.18927   -1116.7814   -2377.5393 0.00065364777 0.00071394477 0.00076430925 
 3768000    409.05343   -121.81034   -1044.5995     2829.576   -4125.6495    2222.1073 0.00065380478 0.00071358443 0.00076386308 
 3770000    402.61572   -122.83303   -812.40989    1040.2027    2815.8174    278.94011 0.00065340729 0.00071488718 0.00076411165 
 3772000    415.65894   -121.77127   -3743.2282    2504.1112    2553.0398     1977.663 0.00065313584 0.00071452224 0.00076396682 
 3774000    390.91282   -123.34611     860.1307    1690.7934    -133.9908    216.47084 0.00065291189 0.00071507492 0.00076382858 
 3776000    401.36018    -122.3382   -3054.6995   -968.83934   -20.831267   -3748.0983 0.00065251744 0.00071636902 0.00076359624 
 3778000    424.49114   -122.13129    1069.7194     -2319.08    1144.2267   -576.97106 0.00065215654 0.00071592583 0.00076371573 
 3780000    351.29316   -122.70841   -1057.0697    1479.2004    3112.7579   -3051.0456 0.00065210198 0.00071564561 0.00076356284 
 3782000    354.88712   -121.92098   -362.44413   -4776.4008   -1792.0882    2191.2199 0.00065181863 0.00071571044 0.00076320949 
 3784000    375.69397   -122.56816    797.25893   -1790.5181   -1731.5361   -256.41389 0.00065288641 0.00071570426 0.00076293042 
 3786000     381.7088   -121.63337   -2140.0147    1203.6846   -698.47965   -1251.4096 0.00065242904 0.00071549417 0.00076262351 
 3788000    375.49532   -122.65275    773.47827    3252.7948   -1572.7439    -1168.231 0.00065234183 0.00071528631 0.0007624629 
 3790000    391.01211   -121.87162   -1378.6231    3259.5339    2169.3021   -3208.1841 0.00065191966 0.00071507782 0.00076229268 
 3792000    401.12332   -122.63869   -833.36349   -26.245923   -794.66257    2733.7544 0.00065191648 0.00071758954 0.00076271328 
 3794000    395.60918   -122.70269    880.39019     524.5517    329.96329   -5017.1587 0.00065141975 0.00071947934 0.00076262835 
 3796000    386.89776   -121.27427   -1668.7604   -2919.6195    2032.0039    -820.9544 0.00065173501 0.00072054997 0.00076275965 
 3798000    385.23002    -121.1323    1429.4601     2943.567   -413.16879    897.06141 0.00065131694 0.00072086987 0.00076229283 
 3800000    400.14128   -121.90668   -2619.2999   -3241.4534   -26.608092   -1570.4261 0.00065109207 0.00072080879 0.00076185748 
 3802000     442.1906    -121.6359     402.4082    777.34457   -2897.8448    664.82075 0.00065078446 0.00072110793 0.00076154416 
 3804000    438.88923   -122.09261   -494.17757    -1142.606   -950.03777    2461.8018 0.00065046878 0.00072172789 0.00076119085 
 3806000    434.89239   -121.35468   -2746.0988   -183.67513   -4128.3895    2634.7309 0.00065040787 0.00072172852 0.00076083254 
 3808000    414.07018    -121.8918    2378.7632   -824.09874    -114.2303     1334.891 0.00065011792 0.00072241646 0.00076048571 
 3810000    405.99102   -122.03791   -3104.8976   -2660.6378    4676.6915    1801.0433 0.00065096681 0.00072339804 0.00076043102 
 3812000    395.47316    -121.9191    1788.6613    2065.4557   -546.00501    636.01836 0.00065245781 0.00072318744 0.00075999613 
 3814000    363.19989   -122.90765   -1506.4713   -440.81081    3309.4817    175.92533 0.00065326343 0.00072350499 0.00075971302 
 3816000    377.79253    -122.2016   -2218.6691    854.61104   -365.49156    555.62429 0.00065312504 0.00072405931 0.0007593804 
 3818000    411.59006    -122.3513    844.85735   -2840.6094    4401.8856   -2259.9368 0.0006530199 0.00072554842 0.00075915717 
 3820000    388.32378   -122.04316   -4301.1876    552.78682   -695.01481    2001.0409 0.00065265772 0.00072624413  0.000758679 
 3822000    382.73985   -123.19932    2667.3617    696.89236    -2196.013    102.56957 0.00065241106 0.00072619366 0.00075828148 
 3824000     374.9545    -122.9359   -563.12245     272.7798    2131.3808    1178.9838 0.00065209548 0.0007257204 0.00075791222 
 3826000    424.59813   -122.00324   -378.70402    1105.1605    1785.5476     5325.563 0.0006517579 0.00072603858 0.00075749955 
 3828000    363.98687   -122.42064    1890.2558   -942.20621    1119.2355    645.15725 0.00065137714 0.00072553122 0.0007570411 
 3830000    373.23208   -122.73771   -5484.0434    1702.5941   -1972.9333    2543.2074 0.00065199996 0.00072503722 0.00075674185 
 3832000    473.77725   -122.79379    908.13791    144.49045   -680.60361    -3172.012 0.00065320526 0.0007249403 0.00075642906 
 3834000    439.10226   -123.48656    -3317.183    1899.0482   -1349.1974   -5262.7075 0.00065250578 0.00072497093 0.00075680199 
 3836000    388.11338   -122.15739   -627.26842    445.75152   -1836.0519   -2262.8551 0.00065216496 0.00072450263 0.00075963569 
 3838000     380.2531   -121.45353    2106.1382    1735.7581    1179.3095    208.17434 0.0006522247 0.00072406517 0.00076094029 
 3840000    437.00961   -121.03501   -3337.5988    2630.5528   -1343.9568    1207.0761 0.00065197179 0.00072374501 0.00076060087 
 3842000    399.57625   -121.79234    3113.6429    4649.3016    2489.6723    -273.1267 0.00065160434 0.00072341307 0.00076017927 
 3844000    374.09926   -121.67558   -4187.3059   -265.55413    197.13399   -2213.9545 0.0006517726 0.0007230551 0.00075997743 
 3846000    324.98039   -121.85095    -538.3861    3725.3801    1968.0794   -3198.0077 0.00065118786 0.00072302639 0.00075982864 
 3848000    415.40082   -123.00667   -44.675535   -703.98405   -985.73513   -552.50797 0.00065095011 0.00072261854 0.00076078166 
 3850000    378.43615   -123.61461    -3212.066    -63.99465   -1473.0342    3883.3095 0.0006506315 0.00072234341 0.00076153411 
 3852000    448.12434   -122.98347    4700.3482   -1714.4318   -2173.0058    1347.4882 0.00065184434 0.00072200648 0.00076089857 
 3854000    432.54409   -121.56326   -728.93726    2267.6873   -1322.6374    5063.7051 0.00065163027 0.00072152455 0.00076044726 
 3856000    394.16037   -122.23904   -385.65298   -3284.2224     -3550.33    994.79769 0.00065116816 0.00072113432 0.00076034247 
 3858000    393.20826   -121.94533   -1174.4557    1723.5501    5336.6925   -3040.7688 0.00065084024 0.00072073679 0.00076067449 
 3860000    393.98326   -123.05376   -4264.9505    1629.4352    2425.4532     2018.278 0.00065055053 0.00072048584 0.00076034387 
 3862000    387.34024   -122.52711    978.98553    -1247.622    954.25604   -4541.2429 0.00065037524 0.0007216123 0.00076044911 
 3864000    347.96715   -122.11647   -2244.4853    4043.3176    1041.3504    1938.0135 0.00065009707 0.00072127784 0.00076000848 
 3866000    413.46017   -122.79914    1496.3483    3451.2865    1279.9579     1960.152 0.0006496119 0.00072085191 0.00075962238 
 3868000     342.2618   -122.58509    743.89176    3718.5725     110.2713   -1442.8433 0.00064925254 0.00072048519 0.00075926054 
 3870000    372.79065   -121.81798   -2073.0684   -1341.9539    3298.8529   -1455.8351 0.00064887927 0.00072016328 0.00075938262 
 3872000    406.95208   -122.07739    1973.1126    410.93679   -1134.9889   -5504.4149 0.00064891518 0.00072021938 0.00076024972 
 3874000    432.30219   -121.94428   -3314.6782   -1100.3074   -477.45104    1582.4015 0.00064843047 0.00072093057 0.00075985244 
 3876000    340.09646   -122.03383    640.14297    2872.6815   -570.68638   -7.7816969 0.00064847709 0.00072035938 0.00075952184 
 3878000    438.90771   -121.86039   -925.88451   -1248.3987    964.94789   -9114.8621 0.0006480856 0.0007200141 0.00075935967 
 3880000    363.93745   -122.55428   -782.11928   -4005.0667   -1840.7123   -974.59552 0.00064813212 0.00072073504 0.00075899188 
 3882000    419.49665   -122.33941    2283.0648     -2060.02   -2815.5934    1423.3851 0.00064775802 0.00072026257 0.00075901945 
 3884000    426.47452   -122.89738   -3575.4982    209.54325    5006.1234    1276.9978 0.00064802107 0.00072000844 0.00075964284 
 3886000     404.7705    -121.9928    495.65655   -1247.5384    1280.0561   -645.69587 0.00064738758 0.00071969801 0.00075961806 
 3888000    385.16772   -121.37586   -2909.2921    861.59215   -141.43675    1706.5063 0.00064770089 0.00071945279 0.00075924234 
 3890000    377.04757    -121.8867   -1426.7591    1520.6638    112.21101    965.62534 0.00064762352 0.00071942661 0.00075890329 
 3892000     409.8687   -122.62863    1291.4019   -276.31914   -919.88075    -1454.982 0.00064741375 0.00071973595 0.00075856038 
 3894000    426.12492   -121.52756   -1833.2246    508.38299   -168.59516   -2932.4473 0.00064725535 0.00071925292 0.00075821707 
 3896000    384.74586   -122.36931    2575.4693    923.66563   -618.60923    3658.6982 0.00064710003 0.00071894093 0.0007577952 
 3898000    402.23682   -121.53279   -2057.3686     893.1518     1833.015    -470.3083 0.00064684907 0.00071896012 0.00075740652 
 3900000    378.15875   -121.90722   -1616.0011    2743.2181     1190.095    1573.8998 0.0006468456 0.00071863721 0.00075708206 
 3902000    363.72323   -121.42255    166.34537   -1351.2195     5540.128    29.805924 0.00064662304 0.00071826917 0.00075673472 
 3904000     364.7566   -121.79856   -3556.7372   -1567.6304   -666.41613    683.84369 0.00064692433 0.00071804621 0.0007562853 
 3906000    425.32209   -121.96647    2178.3093   -796.56813    1393.5819   -1769.3151 0.00064648712 0.00071809431 0.00075673256 
 3908000    357.19909   -122.68959   -2166.8051   -1575.8601   -1314.2259   -603.67952 0.00064610019 0.00071811278 0.00075620867 
 3910000    373.52203   -123.02741    822.55307   -2180.9781    1125.4314   -261.05137 0.0006458807 0.00071731227 0.00075627966 
 3912000    401.40421   -121.92038    577.46454   -590.04135    3422.7517   -1509.6718 0.0006456755 0.0007168401 0.00075663666 
 3914000     376.9892   -122.46777   -2197.7668   -2141.3229   -4134.3043    2401.0485 0.0006454046 0.00071643545 0.00075725433 
 3916000    401.48366    -121.3741    1248.9688    5013.6627    1506.6703    460.36934 0.00064535579 0.00071596775 0.00075663444 
 3918000    394.32505   -122.53185   -3423.7267   -718.45057    1469.7344   -647.60844 0.00064529445 0.00071592415 0.00075634957 
 3920000     361.7795   -121.96222    -153.5119   -276.37033    1184.6481    3827.4344 0.00064513133 0.00071580621 0.00075594403 
 3922000    419.99693     -122.591   -866.98335   -451.36178   -793.46175   -1775.1687 0.00064466787 0.00071595027 0.00075569932 
 3924000    393.24359   -122.25718   -1374.0329    10.491243    3296.7256   -796.98397 0.00064428957 0.00071581027 0.00075602249 
 3926000     382.3353   -122.32628    1726.3898   -2250.6791   -898.97854    1580.7618 0.00064418306 0.00071567441  0.000755854 
 3928000    366.91614   -122.39769   -3119.2962   -3703.8678   -2876.2299   -2939.9004 0.00064489368 0.00071538943 0.00075565347 
 3930000    329.34804   -121.81851    531.45029   -2379.6284   -85.977225    712.19732 0.00064680113 0.00071482801 0.00075530054 
 3932000     418.9041   -122.25128    115.67469    41.356016   -518.07483   -4052.0647 0.00064653608 0.00071440853 0.00075479139 
 3934000    365.78567   -124.31956   -2198.0424    4098.4273    130.47459   -2286.7117 0.00064629572 0.00071419652 0.00075450618 
 3936000    389.97988   -124.05822    3132.1419    3234.0028    1106.5854    -939.7725 0.00064586249 0.00071449888 0.00075418885 
 3938000    364.87764   -122.11182   -2116.6054    6158.6072   -997.75527      -1622.4 0.0006455309 0.00071441143 0.00075375781 
 3940000    382.77895   -121.58932    1732.1735   -1774.2068   -5777.2185    3825.5725 0.00064531864 0.00071668909 0.0007535253 
 3942000    377.98233   -122.04595    -305.9229   -730.63525   -462.23382   -885.97768 0.00064524782 0.00071699002 0.00075414065 
 3944000    390.34418   -123.34258   -4597.7634   -716.02762   -1404.8983   -1964.8642 0.00064591344 0.00071689026 0.00075506973 
 3946000    378.43817   -123.27052    1726.0565   -3563.8763    -3854.557     1844.214 0.00064764751 0.00071684217 0.00075512757 
 3948000    391.60036   -122.28215   -4373.9468   -1888.5458   -416.29529   -3557.2977 0.0006510877 0.00071679994 0.00075509241 
 3950000    419.93633   -121.98324    2881.1461   -2689.4646   -1424.6348    1121.7897 0.00065031149 0.00071644579 0.00075441484 
 3952000    441.01842   -121.50905    529.96128    2032.1506   -1093.6898    2649.3969 0.00065000778 0.00071637888 0.00075399123 
 3954000    412.46437   -123.51705   -1233.0502    1480.7199    1507.5785   -3136.0443 0.0006495968 0.00071599063 0.00075385882 
 3956000    410.25244   -121.72876    3595.2898   -1306.8901   -1588.2947   -1629.7744 0.00064996569 0.00071591507 0.00075373866 
 3958000    391.77667   -121.68429   -3622.9911    1945.2742    238.21389    259.55248 0.0006503471 0.00071628328 0.00075354853 
 3960000    379.46658   -121.97749    2331.5878    1161.2423    1575.9555   -609.97804 0.00065098226 0.00071599224 0.00075343605 
 3962000    352.01203   -123.25484   -2708.0434   -150.81034    4281.6486   -606.48201 0.00065093976 0.00071569031 0.00075476842 
 3964000    387.89251   -122.44355   -387.85903   -611.34314    808.38505   -2312.2767 0.0006506605 0.00071536979 0.00075494699 
 3966000    411.36328   -121.42517    1456.7272   -2035.1851    937.63887   -31.138053 0.00065022996 0.0007150195 0.00075502157 
 3968000    392.47524   -122.18669   -4218.4538    222.66685   -2082.6063   -611.09001 0.00065017737 0.00071489314 0.00075466932 
 3970000    383.49769   -123.12573    2509.1706    916.33963    -1078.384   -877.28203 0.00065063691 0.00071454829 0.0007558393 
 3972000    398.30427   -122.82387   -4181.3412   -1790.7408     937.5454   -1658.3231 0.00065064358 0.0007144724 0.00075675881 
 3974000    400.29232   -121.88704    92.490033   -4887.4691   -856.88672    1122.2397 0.00065023374 0.0007141565 0.00075737167 
 3976000    397.07539   -121.07402   -848.61247   -557.33352    220.13321    2026.0004 0.0006498956 0.00071523542 0.00075810521 
 3978000    413.04664   -122.79706   -3080.1262   -224.16495   -1825.7402    1854.9289 0.00064958757 0.0007150869 0.00076160658 
 3980000    432.45994   -121.86695    5197.2326   -467.45007     752.5664    1256.3037 0.00065143874 0.00071468231 0.00076284415 
 3982000    424.28436   -120.53658   -3201.2222    2038.8972   -3388.7832   -1670.1095 0.00065136916 0.00071432297 0.0007626322 
 3984000    356.47459    -122.0927    2700.3207   -2042.6405    2152.8772    1131.4273 0.00065319569 0.00071408055 0.00076243512 
 3986000    406.81165   -122.41898   -1463.1197    304.57301   -1490.7546   -2457.3317 0.00065257183 0.00071422399 0.00076209208 
 3988000    394.38488   -121.61104   -3264.8312    289.51354    3672.9998       119.93 0.00065275503 0.00071573161 0.00076246368 
 3990000    410.06289   -122.38754    1623.8009   -1949.7711   -6820.4312    735.77646 0.00065384831 0.00071536466 0.00076179367 
 3992000    419.56241   -122.06546   -4951.4755   -2895.0673   -1622.0621     4139.133 0.00065410748 0.00071512539  0.000761385 
 3994000    445.43254   -122.39897    2566.1935   -3450.2776    2828.5765    1982.4659 0.00065444945 0.00071480714 0.0007616024 
 3996000    406.57832   -122.13943   -2278.0528   -2889.9876   -4145.7129   -102.32064 0.00065437625 0.00071440755 0.00076107242 
 3998000    396.74785   -122.66155   -698.88723   -1837.7811    741.72554    1074.5926 0.00065424433 0.00071478535 0.00076070928 
 4000000    360.14433   -122.89653    1696.4476    1405.1316   -2689.5652   -1820.7036 0.00065398167 0.00071452613 0.00076036117 
 4002000    398.27604   -123.11921   -5623.0037    24.241727   -1054.3847   -1838.0221 0.00065377345 0.00071501205 0.00075993124 
 4004000    395.32087    -121.7901    3899.0642    185.65814    -2753.074    2275.8746 0.00065395963 0.00071537424 0.00075960642 
 4006000    379.70233   -122.94732   -4480.4653    3030.4981   -5619.1668   -2102.3249 0.00065401107 0.00071624815 0.00075930577 
 4008000    406.90718   -122.45816   -618.86615    3265.7382   -2419.8209   -554.86511 0.00065362845 0.00071595353 0.00075970984 
 4010000    445.59888    -122.3856     2066.815    -1192.846   -961.59051    -351.5627 0.0006532424 0.00071555293 0.00076088153 
 4012000    416.78682   -122.00968   -4711.5158    816.50344     2314.609   -3380.4534 0.00065373029 0.00071543048 0.00076109139 
 4014000    397.16287    -122.4109    3736.6388   -509.44799    811.12238   -1646.8898 0.0006541173 0.0007151767 0.00076050498 
 4016000    371.07389   -122.17725   -3592.4797   -2714.2208   -874.12716   -1575.9636 0.00065373937 0.00071514611 0.0007612747 
 4018000    415.30729   -121.76052    1679.7564   -112.61791   -166.99708   -307.22823 0.00065344443 0.00071476002 0.0007606696 
 4020000    412.72311   -121.21103    1526.4324   -986.02607   -3900.5829    26.620311 0.00065393252 0.00071440537 0.00076018061 
 4022000    340.31679   -121.99317   -2755.4381    -518.7313    2753.1774    1010.6683 0.00065380695 0.00071476402 0.00075975407 
 4024000    372.01628   -121.51473    3632.8382    772.57708    1188.2313    796.41152 0.00065365512 0.00071444916 0.00075934893 
 4026000    409.99475   -122.03536   -3768.0446   -554.83904    3512.5531    459.45285 0.0006531657 0.0007142498 0.0007589057 
 4028000    431.32623    -121.8543    824.60735    1759.5113     340.9402    1122.6308 0.00065290511 0.00071387244 0.00075857286 
 4030000    369.46428   -122.68218   -2382.6405   -3288.9694    2149.1602    2848.6755 0.00065258882 0.00071389419  0.000758488 
 4032000    406.87202   -122.73596    -3263.398   -239.03591    1682.1858     -4875.36 0.00065218679 0.00071352183 0.00075810987 
 4034000    432.37139   -121.33079    1512.7077    1501.8552    4040.8778   -295.30699 0.00065299652 0.00071333706 0.00075778462 
 4036000    409.17627   -121.45482   -3459.6626   -970.96026   -5214.9174    -648.8408 0.00065312978 0.00071395254 0.00075761358 
 4038000    393.65165   -120.97968    4262.5382    2487.8464   -2713.9864   -3373.4934 0.00065342416 0.00071385883 0.00075735533 
 4040000    383.85471   -121.74992   -1253.4313   -2840.9812    -1523.519   -4726.3559 0.00065365932 0.00071409375 0.00075693657 
 4042000    367.33423   -122.74922   -1182.4442    2317.7426   -4008.1238   -1230.7247 0.00065351922 0.00071380162 0.00075682191 
 4044000    403.29846   -123.19954    310.68972    94.484781    1374.7058    2964.6644 0.00065315377 0.00071352213 0.00075694748 
 4046000    422.57403   -122.07424   -5267.5194    3443.7409    3069.7254   -844.88839 0.00065282915 0.00071363324 0.00075654816 
 4048000    436.41114   -122.94647    2198.9077   -451.75901    1685.5754   -939.04628 0.0006549366 0.00071326182 0.00075632886 
 4050000    397.34802   -121.82575   -2492.2596    2295.6656   -2094.6906    2932.5011 0.00065555906 0.00071296244 0.00075585392 
 4052000    422.95434   -122.73225     -647.596   -1632.3751   -890.63462    1781.6884 0.00065642129 0.0007124378 0.00075540766 
 4054000    427.90886   -121.55642    3100.0736    4297.6569   -1049.4711   -2885.2936 0.00065662668 0.00071209303 0.00075499841 
 4056000    440.55596   -121.36027   -3134.0697   -313.02376   -2071.1673   -669.51906 0.00065634951 0.00071180193 0.00075490942 
 4058000       423.98    -120.8401    3687.4005   -503.31285    4419.6088   -630.15214 0.00065590372 0.00071298361 0.00075522977 
 4060000    391.76599    -122.4232   -3874.0652   -1782.9614    308.58118    1745.0829 0.00065585307 0.00071325397 0.00075492526 
 4062000    398.97055   -121.36363    54.635086    120.69078    91.062361    1.7226707 0.00065634877 0.00071295045 0.00075465672 
 4064000    462.58065   -122.10938    834.68527    577.15616   -3457.9202   -5325.1974 0.00065872128 0.00071265451 0.00075496193 
 4066000     425.2844    -122.1812   -3290.2281   -3882.2081   -1771.4622   -3384.0088 0.00065905274 0.00071245022 0.00075602135 
 4068000    366.16113   -122.60323    2734.7628    927.97862    1782.9665   -2760.8165 0.00065921933   0.00071238 0.00075562963 
 4070000    408.87412   -122.94566   -3145.1374    1831.9903   -546.70953    3770.0668 0.00065893894 0.00071214096 0.00075600659 
 4072000    388.94915   -121.98876   -1215.3288   -1860.5647    1129.8985   -1639.8849 0.00065839896 0.00071173718 0.00075561699 
 4074000    411.87913    -121.6416    57.495868    1680.4228     5087.751    241.75345 0.00065856475 0.00071149396 0.00075535764 
 4076000     376.1969   -121.91898   -2008.4495    -669.6305   -1642.1545   -4853.0988 0.00065801565 0.00071125917 0.00075522676 
 4078000    409.04044   -121.99308    2231.5105    85.146366   -1805.4836    3170.4248 0.00065817155 0.00071078553 0.00075519946 
 4080000    424.79893   -122.16108   -2441.0325   -60.876186   -2757.1329   -312.73437 0.00065827423 0.00071112392 0.00075592225 
 4082000    392.73006   -122.68715   -331.33422   -2349.4789    -3265.954    2944.6223 0.00065809054 0.00071249148 0.0007556494 
 4084000    423.38184   -122.39608   -830.72884    1016.5162   -3181.2637    411.53081 0.0006578624 0.00071510803 0.00075594831 
 4086000    431.12211   -121.78494   -3543.6375   -2811.0568   -1129.5013    1237.0032 0.00065762019 0.00071483494 0.00075570253 
 4088000    398.50047   -121.35582    1913.7895    119.03039    202.07839   -891.98269 0.00065734622 0.00071448448 0.00075564721 
 4090000    408.86989   -121.25506   -3764.1965   -2462.0716    -1018.335   -3064.4642 0.00065708337 0.00071413587 0.00075532614 
 4092000    399.67737    -122.2315    718.61305   -2028.5454   -3116.2561    692.09209 0.00065689586 0.00071408768 0.00075494383 
 4094000    414.82366   -122.60832    217.18388   -4429.1325   -1966.0262    568.13216 0.00065657717 0.00071403792 0.00075502529 
 4096000    385.92199   -122.23355   -1725.6287    3568.6916   -1712.8272    1852.4136 0.00065675906 0.00071358098 0.00075467464 
 4098000    408.79718     -121.984    1772.2452   -2852.6398    1321.6468   -914.55592 0.00065788623 0.00071320831 0.00075443111 
 4100000    425.10997    -122.8085   -1763.9547   -1155.6178    -1306.657   -1268.0013 0.00065877851 0.00071301129 0.00075404771 
 4102000    375.71709   -122.54467     795.3362   -6989.2227    1255.6543    2102.5088 0.00065888139 0.00071281383 0.00075376796 
 4104000    378.52105   -122.70726   -1284.6493    1675.9102    2535.1964   -2102.9353 0.00065862813 0.00071251807 0.00075333492 
 4106000    444.01176   -122.30036   -1476.2015     2928.873   -1314.2237   -3802.7523 0.00065854878 0.00071234853 0.00075287998 
 4108000    415.91105   -122.93287    347.63731   -3014.9016    1356.1535    733.29941 0.00065827417 0.00071202337 0.00075317381 
 4110000    430.06588   -121.48837   -1385.4818    1934.8306   -100.41456   -960.38478 0.00065787938 0.00071185928  0.000752845 
 4112000    340.33368   -122.26187    64.118261     -516.339   -3100.2132   -2533.3028 0.00065767208 0.0007113552 0.00075302552 
 4114000    386.27171    -122.9294   -1616.2049    1045.8833   -4570.4936     418.8618 0.00065781634 0.00071086065 0.00075339387 
 4116000    427.46439   -121.99633   -990.97401   -1149.6863   -2059.8885    -1935.683 0.00065763399 0.0007105091 0.00075491726 
 4118000    374.56848    -122.2792    138.99861    2593.1769    43.799489   -2766.0875 0.00065737037 0.00071027578 0.00075580768 
 4120000    369.89926   -123.03436   -1826.6604    -1834.752    3413.8985   -915.97171 0.00065780568 0.00070986263 0.00075821695 
 4122000    396.08578   -121.34648    1758.3988   -202.47725    1727.3892    2722.8398 0.00065783302 0.00070958751 0.00075818533 
 4124000    435.36136   -122.06628    -1162.647   -4123.9006    3696.9193   -205.18259 0.00065728127 0.00070984215 0.00075779847 
 4126000    400.49865   -122.05639   -1368.0571   -2274.9942    1114.1973    3738.6424 0.00065746872 0.0007096135 0.00075737683 
 4128000    400.08697   -122.91119   -1175.7639   -2287.5628     3975.353    3077.8841 0.00065701421 0.00070903805 0.00075946284 
 4130000    404.78145   -122.36327   -2730.9862   -1683.0228    757.97471    1297.2585 0.00065673232 0.00070868743 0.00075976416 
 4132000    443.85454   -122.65222   -125.02548    3931.0887   -3747.0173    2469.9704 0.0006565883 0.00070943236 0.00075959988 
 4134000    348.13653   -121.59849    -1805.301   -285.43478   -777.82703   -196.92714 0.00065654311 0.00070902579 0.00075920475 
 4136000    372.39832   -122.47387   -782.52679    5767.4098     584.8982   -1947.7656 0.0006562972 0.00070878412 0.00076045903 
 4138000    388.46462   -122.36661    422.50281    319.36263    151.75529    1383.3888 0.00065678328 0.00070992898 0.00076012984 
 4140000    400.53456   -122.76966   -1314.3471   -672.13364    715.75582   -764.31556 0.00065674733 0.00071200546 0.00076074917 
 4142000    406.37789    -123.0521    973.45706   -374.14775   -1989.7161    1617.5665 0.0006575986 0.00071318339 0.00076073729 
 4144000    398.64408   -122.36889   -2782.6026   -2853.7135   -797.02776     1706.146 0.00065803535 0.00071414349 0.00076026934 
 4146000    359.07207   -122.32798    452.49311   -3470.4848   -989.54711    2910.6822 0.00065823116 0.00071525946 0.00076018428 
 4148000     410.4719   -121.91567   -747.19364   -657.03971    2450.4592      337.536 0.00065789558 0.00071671432 0.00075978467 
 4150000    431.06703   -122.98586   -849.08016   -3453.8328    3031.0612    4675.0495 0.00065774949 0.00071756271 0.00075942311 
 4152000    380.82611   -121.79491    997.06999    538.73165    2111.2347    1496.7981 0.0006575815 0.00071781361 0.00075989901 
 4154000    394.01565    -121.3041   -2623.2427   -2909.8248    2441.0788   -515.37109 0.00065790766 0.00071894515 0.00075938027 
 4156000    396.57149   -121.65268    437.55216   -656.04723   -928.20692    4426.7455 0.00065767606 0.00072242648 0.00075909647 
 4158000    374.47931   -122.03619   -3052.5387    2506.9557   -649.81341   -2467.7196 0.00065787212 0.00072466698 0.0007597262 
 4160000    382.02464   -121.07694    -70.87746    4491.4612    1524.8009   -3074.6228 0.00065762218 0.00072453569 0.00076003946 
 4162000    428.00534   -121.51782    1415.0612     22.33274   -3941.1041   -1265.2613 0.00065727453 0.00072513357 0.00075946003 
 4164000    414.31376   -122.58366   -952.27413    1598.2148   -2088.4967    1140.0916 0.0006570377 0.00072473136 0.00075907568 
 4166000    377.72453   -122.48936    1027.2522   -6157.2556    1219.3517    1442.7185 0.00065691554 0.00072446802 0.0007587474 
 4168000    468.70898   -122.20497   -550.63029   -564.27569   -560.05068    2547.3505 0.00065674244 0.00072413959 0.00075836147 
 4170000    395.15674   -121.46717    1.4737558    690.33774    533.63053    898.42779 0.00065683032 0.00072388637 0.00075867387 
 4172000    337.92287   -121.55689     1009.002   -1955.1509    590.47686   -484.75144 0.00065724144 0.00072360374 0.00075888805 
 4174000    408.97893   -121.42005   -873.49414    3209.9908   -1454.1547   -71.403692  0.000657179 0.00072337114 0.00075851718 
 4176000    399.17708    -122.5829    379.09275    -946.3214   -2384.8641   -1900.6684 0.00065782424 0.0007230357 0.00075818931 
 4178000    403.26711   -121.96737    351.36852   -869.97847    586.27364   -2503.9896 0.00065746406 0.00072306029 0.00075778099 
 4180000    376.27029   -122.71256   -1742.4113   -1223.2971     -1413.92   -1319.7873 0.00065798879 0.00072435176 0.00075728427 
 4182000    441.86969   -121.88956   -1062.3989   -159.51095    909.54276    3011.1164 0.00065801486 0.00072491435 0.00075682346 
 4184000    363.61444   -121.40528   -3061.4059    1909.6362   -2083.1895    526.82431 0.00065796756 0.00072480453 0.00075645971 
 4186000    393.81544   -122.94328   -638.94057   -1429.7936     729.2757   -3851.6452 0.00065834718 0.00072488135 0.00075609641 
 4188000    394.79124   -123.46513   -1053.0864    1529.4118   -1223.7111    4228.5968 0.00065831683 0.00072455162 0.00075579263 
 4190000    391.56287   -122.13951   -778.92782   -1290.7074   -708.18219    1825.3233 0.00065980587 0.00072418825 0.00075539482 
 4192000     402.4871   -122.01958    270.94599    445.35784    4188.7286    1559.1757 0.00066070277 0.0007240085 0.0007552406 
 4194000    398.88419    -122.0452   -627.97232   -3084.3814    1586.5495   -795.68466 0.00066058876 0.0007241632 0.00075485794 
 4196000    379.80509   -122.18496   -1244.7551    255.84307   -1095.5632   -2333.8341 0.00066034028 0.00072435599 0.00075456984 
 4198000    412.72529   -122.72156     -776.243    109.68384   -2471.3346   -2928.6153 0.0006600452 0.00072470893 0.00075450128 
 4200000    375.61206   -122.75249   -1417.9971    -130.9226    -2854.004    2035.4558 0.00065998053 0.00072428086 0.00075416268 
 4202000    376.41118   -122.01681   -101.73106   -2644.4594    3073.7184   -619.38608 0.00065972158 0.00072444406 0.00075432769 
 4204000    390.33701     -122.785   -351.60835    3391.2718   -1259.9495    1948.3849 0.00065955737 0.00072547126 0.00075372918 
 4206000    418.51738   -122.26118   -9.9074971   -1407.7247   -1540.3568    324.99823 0.00065947053 0.00072591085 0.0007540704 
 4208000    370.43279   -121.89212    842.41304   -160.74861   -1843.2234    2300.6096 0.00065924458 0.00072561038 0.00075567053 
 4210000    399.16902   -121.63147    235.80604    418.93932   -957.74692    1099.0361 0.00065906854 0.00072547171 0.00075511967 
 4212000    386.56235    -121.8382   -698.34281    2736.3222   -1794.3551    1625.4881 0.00065887373 0.00072510039 0.00075451228 
 4214000    401.78525   -121.48866   -658.06298    708.91757    1017.5296    549.65932 0.00065874328 0.00072482133 0.00075464031 
 4216000    390.14153   -122.36318   -2713.2945   -2628.8961    322.23326   -426.17272 0.00065854762 0.00072455634 0.00075469488 
 4218000    395.86729   -121.80464   -1718.1323    949.33197    4436.1703   -1687.9426 0.00065837937 0.00072430302 0.00075441626 
 4220000    388.26586   -122.22547     -1124.41   -3480.8012   -1747.2531    2620.8152 0.00065796585 0.00072500196 0.00075414915 
 4222000    353.12043   -121.75076   -152.65819   -1577.3627   -1050.2665    821.48526 0.00065868489 0.00072465535 0.00075400628 
 4224000    418.37704   -122.73405    -1096.441   -1016.7754    194.45127   -1538.8217 0.00065887183 0.00072474363 0.00075382527 
 4226000     417.6104   -123.48897   -922.94844   -2422.2376   -815.70304   -2894.0637 0.0006586921 0.00072571703 0.00075383998 
 4228000    433.27662   -122.52092   -971.39724     704.2544    740.84147    4246.2435 0.00065824805 0.00072608395 0.00075356339 
 4230000    389.66597   -121.51224    -690.8357     320.4245   -1661.8458     -548.181 0.00065772608 0.00072614704 0.00075381904 
 4232000    372.27725   -122.00362     284.0906   -277.97275    2149.5535    452.21378 0.00065752391 0.00072582358 0.00075379418 
 4234000    384.51809   -122.41201   -374.63233    2096.0973   -1782.3074   -215.13483 0.00065780199 0.00072564804 0.00075533821 
 4236000    402.09896   -121.69766   -736.98548    4296.3697   -1548.9217      4390.65 0.00065904154 0.00072578359 0.00075501253 
 4238000    397.85931   -122.32762   -563.25739     -3696.81    3090.9151     486.2454 0.00065989643  0.000725438 0.00075466141 
 4240000    401.07968    -123.1013   -3130.3785    1170.1423    -6347.859    2623.6266 0.00065947387 0.00072537018 0.00075432171 
 4242000    436.83592    -122.2355   -1931.0597   -1612.0902    1445.8823   -4700.3691 0.00065950096 0.0007259791 0.00075416277 
 4244000    404.07112   -122.70047    -1488.077    2570.0781   -3246.1037   -369.62818 0.00065930765 0.00072546239 0.00075376199 
 4246000    410.80569   -122.89626   -723.33483   -2230.8209    1214.8194   -4234.6615 0.00065915922 0.00072595278 0.00075318494 
 4248000    428.65138   -122.75354     2157.936   -2354.2563    470.31498     512.0084 0.00065920812 0.00072689356 0.00075282409 
 4250000    418.23892   -122.79272    230.61201   -1787.5096   -4115.0666   -1815.4599 0.00065909571 0.00072697184 0.00075254486 
 4252000    375.62209   -122.24296    892.49038   -2111.4194    2394.9253   -1093.1978 0.00065879397 0.00072691952 0.00075222117 
 4254000    470.98786   -121.86375   -1923.3608    1073.2534    2664.3745   -2706.5091 0.00065853284 0.00072669012 0.00075197258 
 4256000    461.00153   -122.12252   -2222.2662   -482.64664    1136.7823   -203.08098 0.0006586511 0.00072637086 0.00075226379 
 4258000    429.84212    -122.3665   -324.74548     1839.695    868.71374    2977.4845 0.00066056271 0.00072622686 0.00075246832 
 4260000    421.43452   -122.79723   -2173.0487   -147.67539    3994.4834   -5411.4221  0.000662739 0.00072643119 0.00075246268 
 4262000    374.95601   -123.07019    1461.5341     134.4888     3925.772    3805.7442 0.00066219898 0.00072651253 0.00075252421 
 4264000    400.18303   -121.94154    559.43456    451.08194   -4206.7284    2086.1044 0.0006618602 0.00072650914 0.00075290949 
 4266000    401.54738   -122.21407     -126.963    1011.2768   -2067.8596    615.76325 0.00066285311 0.00072627473 0.00075302991 
 4268000    376.34403    -122.9901   -721.15318   -2054.6843   -1607.7605   -3221.5641 0.00066330238 0.00072589198 0.00075265016 
 4270000    414.61564   -121.67864   -1690.2457   -1614.7688    2380.7835    877.61539 0.00066297589 0.00072579444 0.00075226596 
 4272000    379.83151   -121.18079   -745.42803    4864.9246   -3416.6207    1062.0682 0.00066271809 0.0007259762 0.00075191904 
 4274000    387.01038   -121.33632   -550.74867   -1248.4902    2723.9585    -3048.535 0.00066309031 0.00072570642 0.00075269571 
 4276000    422.95265   -122.40987   -922.87429   -410.80147   -99.674438    823.73572 0.00066388038 0.00072595965 0.0007529326 
 4278000    382.18271   -122.29296   -898.19946   -3418.0554   -3110.6739   -1080.8763 0.00066356768 0.00072576886 0.00075267768 
 4280000    404.51743   -122.17229   -1414.7508    594.14097     2570.287    -934.9041 0.00066328652 0.00072536613 0.00075252522 
 4282000     422.7681   -122.42978   -1392.5481    333.92163    28.079495    648.19123 0.00066347961 0.00072507103 0.00075222658 
 4284000    392.46635   -121.00617   -837.15736   -1049.0182     2627.707   -341.64961 0.00066335121 0.00072571391 0.00075188493 
 4286000    375.90644   -122.31443   -708.79135    3319.1443   -761.67322     619.2683 0.0006630561 0.00072649791 0.0007515555 
 4288000    394.71828   -121.42304    1561.7176     -2618.06    714.62347   -2332.4894 0.00066275689 0.00072623206 0.00075209695 
 4290000     379.9457   -121.62552    370.08483   -2013.0742   -4722.5843   -293.03737 0.00066272666 0.00072585541 0.00075169549 
 4292000    417.16865   -121.44054    1569.7878    2748.3909   -1264.5676    525.07695 0.00066292641 0.00072577088 0.00075126679 
 4294000    408.98227   -122.26982   -1093.9069    -2347.228   -108.48905    1409.1637 0.0006630588 0.00072811555 0.00075112427 
 4296000    432.32205   -121.61757   -3176.1558   -865.63785     1487.694   -2874.2684 0.0006638552 0.00072828506 0.00075200457 
 4298000     459.6407   -122.25238   -2586.5845    1182.1929   -156.83024   -2114.0954 0.00066405625 0.00072768594 0.00075338133 
 4300000     380.1705   -122.08224   -2095.0525     939.8975   -867.37945   -6579.6447 0.0006637464 0.00072753498 0.00075309719 
 4302000     402.5107   -122.57186   -1061.8248   -1068.7287    1250.7722   -715.26443 0.00066344522 0.0007277505 0.00075283599 
 4304000    388.93357   -121.52321    323.06054    2048.5441   -508.46311   -7708.6432 0.00066382518 0.00072758293 0.00075376819 
 4306000    469.88708   -121.99745    276.05965   -1125.8082    5333.4215   -1591.7432 0.00066352445 0.00072722692 0.00075353791 
 4308000     380.8921   -122.56323    524.16157    949.33252    664.68591    179.80188 0.00066331358 0.00072732004 0.00075389014 
 4310000    419.43984   -122.50342   -363.04216     2079.487    2533.1073   -1825.7213 0.00066305333 0.00072713299 0.00075456541 
 4312000    393.44143   -122.81407   -218.78266   -830.57783    3131.2108      1711.45 0.0006631538 0.00072714254 0.00075389103 
 4314000    380.54035   -121.89447    -1588.197   -742.67237    1048.7313    4.7662706 0.00066269002 0.00072771543 0.00075370707 
 4316000     410.9263   -123.12665   -1476.0771   -868.22494    3775.9289    5481.2833 0.00066322483 0.00072828108 0.00075317556 
 4318000     377.1757   -123.06729   -1563.9901    -777.4687    2498.9388      4581.37 0.00066336687 0.00072785728 0.00075263005 
 4320000    369.30385   -122.70158   -1853.8097    1686.2983   -2325.8056    1894.5864 0.00066319261 0.00072792808 0.00075205621 
 4322000    401.93743   -122.16179   -1784.2828    132.00678    951.48244    1916.6078 0.00066333875 0.0007275335 0.00075169162 
 4324000    473.34868   -123.10188   -1103.1829   -2303.2159   -1184.1996   -1841.9099 0.00066332218 0.00072711041 0.00075178557 
 4326000    414.95561   -121.54277    783.23301    2397.7445   -1549.3978    22.410628 0.00066381063 0.00072684078 0.00075143616 
 4328000    386.14457   -121.46466    914.90491    2520.4837   -464.04538   -1033.6047 0.00066355231 0.00072648372 0.00075111187 
 4330000    406.17194   -122.47264    912.54039    1831.3094    339.30946   -4070.5118 0.00066328586 0.00072617541 0.00075066111 
 4332000    397.33002   -121.65803   -665.37985    2595.8303    344.96061   -1220.0363 0.00066318211 0.00072621421 0.0007502601 
 4334000    384.83984   -122.95892   -470.23007   -4193.8792    321.45193   -1822.9339 0.00066319823 0.00072609429 0.00075028287 
 4336000    369.82357   -122.14297   -1007.7006   -703.44704   -462.67494   -712.08657 0.00066305092 0.00072668913 0.00074996752 
 4338000    399.85387    -122.1612   -1742.0417    -3782.538   -999.15859    4241.9545 0.00066277051 0.00072668188 0.00074955992 
 4340000    430.48774   -121.73962   -595.76246    144.53342   -2211.2686   -737.40156 0.00066314348 0.00072641552 0.00074922221 
 4342000    410.71306   -121.87485   -2217.2257    4090.4464     1352.908    2672.1787 0.00066338754 0.00072640098 0.00074889593 
 4344000    358.31119   -121.65304   -2657.7321     1847.024    -1428.957     2360.997 0.00066334503 0.00072636377 0.00074898838 
 4346000    372.81039   -122.32288   -744.89393    1886.9237   -218.67603    179.86052 0.00066310024 0.0007266686 0.00074860433 
 4348000    384.75479   -122.56479   -2120.8264    1289.2964    -1723.833      435.854 0.00066347117 0.00072675024 0.00074846809 
 4350000    416.16652   -122.06988    510.79036   -3596.9774    1932.9394    903.12597 0.00066375857 0.00072650074 0.0007482247 
 4352000    407.94524   -122.98658     796.2786    2786.4468    893.82118   -1045.3569 0.00066382469 0.00072624632 0.0007479291 
 4354000    366.86916   -121.53628     1856.923   -3418.8938   -3664.5344     1423.579 0.00066400333 0.00072601704 0.00074762447 
 4356000    404.67756   -121.88434    2365.1481   -753.86863   -2040.1843    249.84885 0.00066401416 0.00072582417 0.00074724168 
 4358000    404.31254    -122.1884   -415.38699    715.74796   -1501.2357    687.62403 0.00066403495 0.00072546221 0.00074712592 
 4360000    412.17144   -122.35433   -148.55758    967.65819    2372.7159   -943.12524 0.00066440218 0.00072503218 0.00074712479 
 4362000    448.29563   -122.10588   -1762.0095   -933.32308    1660.0392   -2030.3706 0.00066400421 0.00072477231 0.00074727306 
 4364000    422.57839   -122.39694   -2623.1404    2005.1671   -4074.1238    2387.5066 0.00066387575 0.00072452134 0.00074735231 
 4366000    387.38931   -122.59666   -1962.0721    955.93037    614.64522    -916.8551 0.00066481261 0.00072443649 0.00074763498 
 4368000    421.98719   -122.25261   -2132.9516    687.01902    3196.7472    1342.5411 0.00066635536 0.00072562796 0.00074873902 
 4370000    420.96043   -121.42812    178.85765   -2688.8758    1425.2314   -697.32048 0.00066602212  0.000726196 0.00074955984 
 4372000    392.97208   -121.71744   -1589.6329    820.76133    1979.4974   -1525.4527 0.00066603736 0.00072629012 0.00074947643 
 4374000    407.99602   -121.91615    691.76133    1258.1123    1926.4673    1373.7038 0.00066623533 0.00072626539 0.00074918658 
 4376000    431.33379   -122.12113    841.42115   -697.19749    1626.4772    3187.3209 0.00066615614 0.0007258934 0.00074903581 
 4378000    368.11861   -122.28883   -875.54083   -374.80603   -940.11833   -6793.1438 0.00066578372 0.00072710346 0.0007496568 
 4380000    419.85026   -120.94535    3375.8915    1023.1273   -776.98812    721.73029 0.00066574011 0.00072796103 0.00075017057 
 4382000    367.59314   -122.47987   -937.07998   -2474.7621   -1283.3385   -1627.1892 0.00066594514 0.00072782397 0.00075149163 
 4384000    426.80933   -123.00095   -162.47078    859.87818   -1573.6527    1783.7937 0.00066564472 0.00072760727 0.00075237789 
 4386000    425.44822    -121.8786   -2090.6344    1016.0779    3271.6662    194.90493 0.00066528367 0.00072733041 0.00075311269 
 4388000    401.65096   -122.17926   -2626.9953    3613.4972    -5308.125    2003.2321 0.00066511989 0.00072746078 0.00075301883 
 4390000    405.08393   -122.88874   -1885.1699   -4391.0001    2072.0781     1055.789 0.0006648304 0.00072732222 0.00075269585 
 4392000    406.74408   -122.47591   -3172.3144   -1492.6226    -124.6801    325.48717  0.000664535 0.00072715732 0.0007525475 
 4394000     397.7034   -122.16886    1356.1689   -531.62967     177.2172    1345.0764 0.00066412003 0.00072710621 0.00075203984 
 4396000    420.90958   -121.87916    622.99411    1363.7824   -3030.4404    -1542.729 0.00066401559 0.00072693331 0.00075200577 
 4398000     427.2735    -122.3327    1210.7357    2451.4657   -1671.9468    1007.5302 0.00066381889 0.00072666161 0.00075172211 
 4400000    395.97741   -122.03217    96.180509   -442.02722    3599.2188   -522.08539 0.00066341725 0.00072690452 0.00075145949 
 4402000    420.39188   -122.32879   -2664.8918    1018.0666    1850.3789   -1436.2205 0.00066320179 0.00072653866 0.00075156752 
 4404000    411.28681   -122.46269     565.9555    2256.8723   -1556.9514   -1555.0438 0.00066435013 0.0007261378 0.00075185146 
 4406000    385.90574   -122.81342   -3133.9208    1026.9085    2222.0722   -189.28177 0.00066522338 0.00072582592 0.0007518893 
 4408000    391.78758   -122.27333    1065.8629   -631.40454   -1272.7883   -1918.8593 0.00066502127 0.00072615483 0.00075149055 
 4410000    427.05792   -121.81314   -963.94933    1004.6737   -1548.4167    714.59231 0.00066466004 0.00072868211 0.00075131137 
 4412000    350.05621    -122.9278   -2934.4984   -4742.1067     -466.096   -734.63997 0.00066428215 0.00072891149 0.00075142168 
 4414000    372.90986   -122.56098    355.97354    2087.9881    1708.4826     -184.094 0.0006639494 0.00072857812 0.00075130323 
 4416000    398.30624   -122.56128   -3755.1704    470.58497   -243.28334   -572.77675 0.00066368093 0.00072838178 0.00075101646 
 4418000    450.24579   -122.21404     2158.414    3181.2768   -623.72707   -1068.8884 0.00066352522 0.00072888273 0.00075133332 
 4420000    365.54844   -122.17379   -2522.5352    -331.1365    2173.6521    1748.8084 0.00066323538 0.00072934487 0.00075180969 
 4422000    412.27223   -122.67071  -0.72204629   -1185.4914    3508.0717    3695.9738 0.00066311829 0.00072923957 0.00075183168 
 4424000    419.36639    -122.2377    1753.7895    2531.3419    -1805.874   -891.53728 0.00066398772 0.00072892828 0.00075234888 
 4426000    433.49933   -122.96328   -1959.8219   -1404.0869    329.20575   -4117.7628 0.00066469603 0.00072855921 0.00075183957 
 4428000    443.28009   -122.48806    1896.7451    1446.5766   -1635.0334    2582.6442 0.00066555865 0.00072835414 0.00075183747 
 4430000    432.98665   -120.88106   -2610.8086   -281.22724   -2495.8824   -6757.4879 0.00066531509 0.00072805161  0.000751485 
 4432000    430.68602   -122.31859    -1328.853    301.22174   -1644.7833    537.65638 0.00066513602 0.00072795748 0.00075155573 
 4434000    389.01713   -120.30438   -526.19728    -1358.474    683.50901   -1344.7379 0.00066476732 0.00072767766 0.00075127391 
 4436000    350.72197   -122.14711   -2780.9407    2371.6243     545.3069    529.75523 0.00066470674 0.00072755656 0.00075214285 
 4438000    401.61711   -123.31488    2311.6629    -4617.962   -2246.6136   -4273.3235 0.00066444217 0.00072705391 0.00075230189 
 4440000    408.93668   -122.80329   -1950.1403    392.08894    333.46882   -2957.5897 0.00066419183 0.00072689217 0.00075264785 
 4442000    387.42904   -122.21853     1031.649    116.07971     1622.947    265.22255 0.00066408464 0.00072655726 0.00075241686 
 4444000    424.79772   -120.96402   -888.16851   -4461.7653    573.86989   -2139.9358 0.00066479909 0.00072635771 0.00075208859 
 4446000    392.62273   -121.32914    -3383.944    3263.9065   -2882.0317    4825.7228 0.00066468462 0.00072610776 0.00075170414 
 4448000    375.98474   -121.84336    441.43149   -723.30736   -1602.9418    1039.6787 0.00066449319 0.00072577729 0.00075146213 
 4450000    416.97237   -122.95831   -3650.7067   -855.17257    1985.5036   -668.57983 0.0006643729 0.0007253734 0.00075138137 
 4452000    422.80924   -122.44943    1109.6488    770.34576    4975.2262    101.41752 0.00066471436 0.0007249554 0.00075220797 
 4454000     384.6465   -123.41079   -437.17724    1120.7584    904.95858   -899.13736 0.00066514081 0.00072470267 0.00075230939 
 4456000    404.20803   -122.08258   -308.97256    740.65775   -362.35257   -1491.5976 0.00066507968 0.00072425984 0.00075238338 
 4458000    362.99853   -122.01229    2189.2512    2754.5049   -1972.3444   -913.44783 0.00066496092 0.00072377196 0.00075260907 
 4460000    371.26365   -121.53459   -3230.9023    2445.9803    851.06328    1224.0904 0.00066470697 0.0007239779 0.00075278399 
 4462000    348.83451   -121.22851    1185.8556    3993.1198    -892.8456    2272.8142 0.00066492518 0.00072530764 0.00075260759 
 4464000    416.62597   -122.79758   -3071.4342   -2268.1245   -816.61628    196.04353 0.00066460812 0.00072465337 0.0007524537 
 4466000    426.40161    -122.1521   -243.68165   -1743.7841   -814.78389    4153.2998 0.00066436425 0.00072432001 0.00075221656 
 4468000    424.22315   -122.82019    386.46366    1287.3191    -2143.628    -2391.698 0.00066414707 0.00072416098 0.00075185701 
 4470000    389.58248   -121.91347   -2863.9649    3261.4926   -328.45256   -2258.7377 0.0006640826 0.00072385326 0.00075187066 
 4472000    399.51044   -122.20977    1565.2251    2154.7023   -1195.8344   -92.628976 0.00066397745 0.00072422596 0.00075160936 
 4474000    360.13406   -121.36234   -2749.0948    677.09457   -1658.4237   -6508.0645 0.00066384414 0.00072382636 0.00075139636 
 4476000    412.45326   -122.17982   -564.08199   -1795.3314    700.68035    1219.7217 0.00066354321 0.00072441747 0.00075105318 
 4478000    465.93879   -122.18525    220.56567    1493.2486   -1642.1558   -1289.9699 0.00066320286 0.00072503438 0.00075065937 
 4480000    362.80315   -123.40633   -2303.9001   -100.26874   -928.71545   -1038.0337 0.00066301684 0.00072610681 0.00075032411 
 4482000    368.80389   -122.23215     2675.966    900.62144   -1484.4703    6696.7843 0.00066282332 0.00072701911 0.00075026494 
 4484000    359.98457   -121.86104   -2032.1108    2086.8364   -1223.5494   -2279.7599 0.00066289053 0.00072758926 0.00074984767 
 4486000    414.17319   -122.31424    791.67699   -3976.5869     3423.631    8885.2034 0.00066259976 0.00072746562 0.0007499219 
 4488000    417.35971   -122.29204   -1330.9378    4056.9408    65.336263    501.02704 0.00066264616 0.0007272646 0.00074941015 
 4490000    409.95447   -120.95156     -877.153   -2962.4373   -1381.2199   -4239.2208 0.00066257725 0.00072722532 0.00074911193 
 4492000    381.97438   -122.15206    2420.5942    5339.4811    1510.8594    443.00558 0.00066223591 0.00072772669 0.00074890297 
 4494000    426.92196   -122.51668   -2397.0969    2441.2983   -509.17264   -4044.5735 0.00066205658 0.00072764873 0.00074916663 
 4496000    418.20396   -123.17553    1881.6579   -3602.7666   -2898.5282    320.52906 0.00066183324 0.00072829235 0.00074931364 
 4498000    387.09498   -122.01988   -1869.9153    3267.7384    1606.7647    26.819678 0.0006624502 0.0007284702 0.00074904062 
 4500000    438.08879    -121.5474   -2032.7565   -4115.9524   -709.63522   -5947.0123 0.00066517353 0.0007281494 0.00074948327 
 4502000    404.10178    -121.7852   -1683.5285   -557.09875   -2778.9523    2173.5811 0.00066619486 0.00072819769 0.00074890849 
 4504000     384.2027    -121.5332   -5225.7451   -660.98736    1416.6669     351.7385 0.00066597141 0.00072781482 0.00074875627 
 4506000     384.5397   -120.81099    1668.8703   -1662.1191   -3606.9871   -3443.0767 0.00066579484 0.00072742259 0.00074846791 
 4508000    445.24626   -121.62888   -1639.4685    1544.0283    80.574419    2725.8878 0.00066563383 0.00072690549 0.00074869514 
 4510000    436.13452   -122.05826    2426.8558   -3391.0161   -4284.0295    3965.1987 0.00066612534 0.00072661915 0.0007484409 
 4512000    363.49933   -121.69004    1304.4915    321.67908   -3543.6481   -861.32273 0.00066696203 0.0007263178 0.00074815701 
 4514000    402.10493   -120.13809    -1407.514   -782.41518    897.13298    5807.5893 0.00066783539 0.00072839776 0.00074779721 
 4516000    358.22196   -121.44952    1315.0303    787.02347   -1655.4593    46.115945 0.00066950737 0.00072896024 0.00074745106 
 4518000    386.72777   -122.33985   -4755.0765    3304.7364    348.63084   -6841.4194 0.00066984134 0.00072883265 0.00074704285 
 4520000    422.92668   -122.60842   -946.73671   -655.93577   -804.59047    3775.8298 0.00066961711 0.00072889644 0.00074708692 
 4522000     413.3261   -122.44285   -623.08927   -833.83077    -1025.207   -2888.9255 0.00066943016 0.00072930411 0.00074798009 
 4524000    388.20478   -122.36647   -2807.1348   -3694.6729   -1316.3249   -179.32063 0.00066927399 0.00072890189 0.00074826954 
 4526000    373.91917   -121.77163    2930.1619    3719.2255    59.006971    809.09508 0.00066889719 0.0007287943 0.00074865444 
 4528000    380.96073   -121.76804    -2641.035    1022.0525   -1346.1725   -560.93152 0.0006688363 0.00072858631 0.00074882442 
 4530000    429.26827   -123.13244    1460.3586    5821.6957    2813.4921   -325.31378 0.00066852515 0.00072833703 0.00074850086 
 4532000    400.93845   -122.30524   -198.61633   -2041.6811   -2997.1483     1080.559 0.0006684261 0.00072838522 0.00074831647 
 4534000    382.11159   -121.60591   -1857.5214   -1899.3702    2730.4284    629.25392  0.000667927 0.00072870223 0.00074800979 
 4536000    422.27204    -122.9878    603.17789   -398.00484    -139.2436    -2291.475 0.00066799647 0.00072850254 0.00074785592 
 4538000    392.04561   -121.83225   -3870.9804   -2360.1289    1953.5963    -1271.425 0.00066816088 0.00072829988 0.00074806046 
 4540000     373.5365   -121.98137    800.34466   -958.86127    1326.1352   -3091.2485 0.00066815907 0.00072811417 0.0007481278 
 4542000    393.40792   -122.52079   -2792.1262    3666.0592   -1561.1605    6910.5262 0.00066802553 0.00072859358 0.00074789674 
 4544000    425.41077   -121.54844    65.854788    -3662.738   -539.63926   -6241.3377 0.00066967802 0.00072957702 0.00074801613 
 4546000    387.15766   -122.16503    1408.6069     1791.905    -2148.208    2037.6566 0.00066934648 0.00072912071 0.0007478884 
 4548000    437.17158   -123.10666   -2214.5619   -4292.6783    4239.0262    2319.0661 0.00066920064 0.00072962519 0.00074821187 
 4550000    398.14327   -122.37363    2102.2352    1356.8644   -3.8488364    313.81328 0.00066935919 0.00073069394 0.00074876292 
 4552000    412.04628   -121.60737   -2044.2154    1702.3841   -2316.0675    -1147.206 0.00066915165 0.00073039196 0.00074831857 
 4554000    419.64024   -122.16486    506.69445   -632.96573    1084.4136    1410.5744 0.00066939866 0.00073050827 0.00074831556 
 4556000     440.0879   -121.48624    381.20211    -252.3954    2701.6648   -1256.0437 0.00066974138 0.00073029448 0.00074790247 
 4558000    394.37662   -121.42917    -3745.885    1345.0706    93.938445   -5655.2303 0.00066942251 0.00073011267 0.00074791088 
 4560000     423.2632    -120.8877    1907.6209    1384.8108   -110.94569    1038.3181 0.00066904663 0.00073105879 0.00074775212 
 4562000    408.36401   -121.58685    -3953.776    3047.9099    973.79006    3275.1838 0.00066897613 0.00073094079 0.00074789257 
 4564000    411.25336   -122.99033   -618.32541    1312.2504   -849.47219    1179.6134 0.00066935824 0.00073070916 0.0007477476 
 4566000    366.52896   -122.21474   -778.91886    2533.8826    540.47375    4161.7804 0.00066911066 0.00073090484 0.00074807239 
 4568000    370.38687   -122.61907   -1281.7012    -1951.125   -4276.2687   -659.69684 0.00066952549 0.00073065716 0.00074890966 
 4570000    404.78889   -121.85086    2740.9836   -3888.9542    4804.1719   -875.01329 0.00066931282 0.00073033659 0.00074827073 
 4572000    391.79188   -122.56226   -2197.4416    178.04612    2721.4561    471.56436 0.00066910995 0.00073047066 0.00074819563 
 4574000    399.60496   -121.92006    1705.3159    266.55676    108.00393    1781.3366 0.00066873258 0.00073014288 0.00074783741 
 4576000    406.71101   -121.78917   -1876.2813    931.35754     -709.882    -1182.435 0.00066854373 0.00073005028 0.00074763334 
 4578000    362.26663   -122.04157   -1907.8258    143.20177     330.2875    1512.5746 0.00066851227 0.00073011393 0.00074723341 
 4580000     404.3596   -122.00309   -376.06016     1536.083    5511.5915   -789.43315 0.00066888267 0.00073079974 0.0007467852 
 4582000    368.39545    -122.7989   -4726.7132    406.82039   -3459.4564   -6559.5678 0.00066908893 0.00073058462 0.00074652005 
 4584000    410.17349   -121.11201    2497.6043   -1623.1749   -505.66448   -349.11401 0.00066892754 0.00073012629 0.00074654792 
 4586000    420.00489   -122.12099   -2576.4123    3492.0724   -219.32678   -1113.0213 0.00066871081 0.00072997138 0.00074621098 
 4588000    385.45726   -121.40773    572.72684    4106.9132   -150.55583    5862.4485 0.00066865885 0.00072994908 0.00074606693 
 4590000    388.20436   -122.36174    1557.2677     761.7941    850.30517    342.25888 0.00067096649 0.00072999484 0.00074572185 
 4592000    365.75867   -122.62238   -3094.7915     2725.611   -1064.1626    3577.8201 0.00067046609 0.0007303981 0.00074552634 
 4594000    397.81032   -122.38503    3668.1523   -2097.1288    519.20026   -2809.8708 0.00067011741 0.00073001498 0.00074523162 
 4596000    337.10506   -121.75084    -2764.846   -368.08857    3791.7224    928.24318 0.00067102378 0.00072966668 0.00074486818 
 4598000    391.21676   -122.10452   -187.94717    1749.7653    -1752.977   -2714.0306 0.00067083623 0.00072944601 0.00074462736 
 4600000      401.354   -121.77456    695.87207   -1056.4627   -4894.9442   -1782.7828 0.00067052809 0.00072919356 0.0007443669 
 4602000    410.96831   -122.41366   -4187.0285   -395.18661    2564.3093    2342.1909 0.00067036058 0.00072908555 0.00074402289 
 4604000     409.4917   -123.58829    1550.0993    2076.7782   -1385.2731   -2844.1133 0.00067013818 0.00072862832 0.00074371767 
 4606000    424.16896   -122.44253   -4067.0133    3943.7105    2088.7935   -821.47899 0.00066992336 0.00072846926 0.0007434889 
 4608000    427.77813   -121.68665    285.62386    1385.5291    1341.0956    2214.3319 0.00067042051 0.00072881372 0.00074352323 
 4610000    381.95767   -121.58503    532.72894   -1956.1555   -3158.8564   -3809.5711 0.00067047551 0.00072986091 0.00074362009 
 4612000    404.82636   -120.20846   -2451.7091    2285.3862      4004.72     943.9774 0.00067047052 0.00073222357 0.0007436803 
 4614000    388.64839   -121.79771    2790.2841   -2545.3416    1905.1587    231.77355 0.00067033983 0.00073496388 0.00074388098 
 4616000    404.17515   -121.96916   -2553.5705    4574.8907   -1300.9139    2171.8562 0.00067014008 0.00073819156 0.00074354724 
 4618000    392.75083   -121.57409     2191.825   -2352.6344    2384.5281    3996.4938 0.0006699019 0.00073891898 0.00074359829 
 4620000    385.38319    -122.2514   -320.38824     3546.782   -1141.5432    1207.0813 0.00066962686 0.00073865682 0.00074330456 
 4622000    398.37843   -121.98821   -2515.7824   -2763.3029    4001.7926     -21.7541 0.00066968498 0.00073830087 0.0007430038 
 4624000    398.00374   -122.06763    1088.0352   -2994.1771     -3471.32   -314.79036 0.0006697559 0.00073836413 0.00074271359 
 4626000    382.22524   -122.25162   -4868.0981    303.38933   -1996.9169   -1883.6535 0.00067004161 0.0007378964 0.00074267198 
 4628000    372.98258   -123.15629    1413.5015    507.48797   -3635.9182    921.18599 0.00067007555 0.00073751176 0.0007423968 
 4630000    363.86433   -122.30622   -1528.6985    111.61211   -560.21351    3796.6864 0.0006697561 0.00073714416 0.00074233611 
 4632000    424.60337   -122.47951    132.92648    3535.9838    2147.5105   -1604.3869 0.00066991586 0.00073680569 0.00074256006 
 4634000    389.93914   -122.97568    3206.9736   -135.17087   -4266.9333    1492.1865 0.00067097059 0.00073650649 0.00074232775 
 4636000    411.43033   -122.99589   -3157.3347    1339.2369    2411.0949    4006.8662 0.00067201569 0.00073682165 0.00074195801 
 4638000     403.7838   -122.53487    2458.0096    3351.1285    1357.9082    1028.5398 0.00067261512 0.00073680326 0.00074176743 
 4640000    404.12116   -122.36938   -2979.6916   -1424.8724    2707.4178    2113.0244 0.00067276987 0.00073684755 0.00074146543 
 4642000    430.73386   -122.76989   -1673.3992    3504.0669   -3240.1464   -85.148985 0.00067248744 0.00073693129 0.00074132677 
 4644000    362.30933   -122.34057   -3.8245685    2379.0164    1917.2484   -2357.8114 0.00067234016 0.00073676349 0.00074114009 
 4646000    409.66367   -121.61286   -5740.2316    1915.0299   -141.19639    936.79312 0.00067205078 0.00073679625 0.00074162126 
 4648000    356.21631   -121.78783    1635.3417    2130.3303   -604.83942     204.4706 0.00067212145 0.0007365757 0.00074255775 
 4650000    424.38929    -122.1538   -3080.0122    -1064.293    1994.4419   -1238.7888 0.00067238773 0.00073653151 0.00074250924 
 4652000    384.79305   -122.10847   -867.05724   -1226.0226    2530.9095   -687.42198 0.00067194921 0.00073615485 0.00074276978 
 4654000     352.8909   -122.53442    981.80863   -1001.6168   -417.86384    1809.6928 0.00067178768 0.00073584366 0.0007424324 
 4656000    398.24234   -122.75652   -3831.4122    1554.0052    2372.3493    1075.3792 0.00067165707 0.00073551451 0.00074264571 
 4658000    424.94045   -123.18944    2523.3094    3797.0697    141.12839   -893.12914 0.00067147522 0.00073559621 0.00074222485 
 4660000    382.69557   -122.85712   -1323.1464   -3088.5875   -2231.9282     1719.717 0.00067161188 0.00073524306 0.00074212989 
 4662000    417.69067   -123.26063    476.93372    3391.2723     -11.8692   -1434.1401 0.00067258875 0.00073494752 0.00074239049 
 4664000    333.18435   -122.00523    803.64504    451.16278   -1687.0014    -1696.386 0.00067269011 0.00073563822 0.0007421199 
 4666000    417.15307   -122.10609   -3154.1177   -905.45707    12.395322     608.0884 0.00067238422 0.00073511638 0.00074169759 
 4668000    394.47214   -123.12456    743.23072   -3855.9258   -366.07875    288.64175 0.00067272262 0.00073481539 0.00074150509 
 4670000    439.90891   -122.73631   -4735.2532   -772.18012    4931.5465   -1805.2512 0.00067232711 0.00073459999 0.00074116932 
 4672000    400.24701   -121.87163   -383.06525   -11.303907   -474.77415   -4705.3059 0.00067212732 0.00073438558 0.00074126254 
 4674000    413.94775     -122.877   -1563.9361    1174.1648      1573.15   -1683.3226 0.00067171509 0.00073427076 0.00074118392 
 4676000    429.69684   -122.30381   -2168.9547   -2452.2207   -3265.8754   -3447.1056 0.00067122467 0.00073423916 0.00074091421 
 4678000    428.60296   -123.32073    2244.5945   -2106.9021    3908.3265    -2918.312 0.00067123619 0.00073398064 0.00074057466 
 4680000     345.3992   -121.81712   -3246.3555    1262.5022   -3568.2465   -2999.4696 0.00067114846 0.00073379997 0.00074042932 
 4682000    405.27435   -122.58738    1249.5208   -2957.0109    2745.3692    3348.5596 0.00067134095 0.0007338565 0.00074144505 
 4684000    430.73065   -122.08843   -1256.0409    2949.5745    1878.7494   -1602.8622 0.00067184371 0.00073372683 0.00074237742 
 4686000    399.59086   -122.71398   -2027.8991   -2036.5021   -1293.4582    911.96254 0.00067152219 0.00073433266 0.00074211248 
 4688000     392.1588    -121.2297    2454.3838    5466.6316    -538.2911     3616.977 0.0006713238 0.00073539267 0.00074193591 
 4690000    358.02552   -121.98558   -3010.5637     1708.151    1078.1598    376.05639 0.00067118377 0.00073520892 0.00074194899 
 4692000    376.69561   -120.84522    2791.6174    4221.5957   -1872.7822   -5430.5362 0.0006708738 0.00073501667 0.00074195005 
 4694000    429.12616    -122.4215   -1459.7681   -4120.1669   -2941.7309    4321.3688 0.0006707157 0.00073493366 0.0007424937 
 4696000    391.81809   -123.12483   -752.37733    -3151.893    253.67552    2583.0615 0.00067048617 0.00073466227 0.00074401673 
 4698000    380.92606   -122.00256    828.07126     -3999.76   -4077.3448    3803.6873 0.00067025345 0.00073443994 0.00074389622 
 4700000    426.52363   -122.39763   -3344.5666   -1208.1961   -2941.4444   -2242.2727 0.00066998172 0.00073459483 0.00074360811 
 4702000    400.55016   -122.97117    2302.7461   -776.84991    -1337.187    2460.1627 0.00066973518 0.0007346733 0.00074332936 
 4704000    400.93154   -122.23643   -3879.7882   -4022.7556   -961.23407    -398.7413 0.00066990467 0.0007345017 0.00074308286 
 4706000    369.39267   -122.24685    1243.4416    635.50005    971.41256    194.46721 0.00066974712 0.00073403765 0.00074282749 
 4708000    388.40808   -122.28346   -163.71869   -3495.5427    367.25921    285.44346 0.00066972257 0.00073366135 0.00074255525 
 4710000    411.13528   -120.59702   -2540.8339    2586.1967    1574.5815   -657.14558 0.00066985378 0.00073350741 0.00074243377 
 4712000    402.33337   -121.83905    1819.9854   -3097.6266    590.38495    -3402.598 0.00066982403 0.0007341624 0.00074220675 
 4714000    383.30463    -121.5943   -6809.5719    3116.4733    393.71094   -3749.0358 0.00066966626 0.00073356259 0.00074227374 
 4716000    419.27391   -122.01116    1958.5394     2006.148    -1340.934   -570.44058 0.00066973924 0.00073337168 0.00074185993 
 4718000     418.6521   -122.79904   -189.36728    1755.7014    615.77294   -107.66772 0.00066950955 0.00073345869 0.00074153993 
 4720000    408.53144   -122.71227   -868.71237   -1301.6755    -4632.417   -44.386163 0.00067013075 0.00073330744 0.00074176838 
 4722000    432.79201   -120.60939    5230.2465    3568.5579    4612.8132    151.01714 0.00067016664 0.00073319703 0.00074170473 
 4724000    442.19443   -121.26353   -3352.7716    316.16997   -909.24217   -136.28315 0.0006698109 0.0007329941 0.00074258692 
 4726000    388.21181   -122.49358    1426.6761    268.74114   -403.63283   -772.93056 0.00066977065 0.00073262114 0.00074219089 
 4728000    401.36949   -122.01476   -2797.4309    459.92324   -4064.4793   -118.37238 0.00066991089 0.00073226821 0.00074195848 
 4730000    408.86372   -123.37601   -3439.6111   -2970.5854   -2946.5271    458.83585 0.00066959495 0.00073233431 0.0007419341 
 4732000    417.46108   -122.88377    1369.5857    944.16646    4639.6467   -25.515903 0.00066941204 0.00073256582 0.00074207017 
 4734000    440.38275   -121.90817   -4080.7726    1382.8975     65.84756    561.88149 0.00066905391 0.00073218221 0.0007417371 
 4736000     371.4325   -123.07126     3801.988    -2596.709    -3221.943     2818.992 0.0006689048 0.0007320963 0.0007413238 
 4738000    367.48603   -122.86415    -3152.069    308.85865    1031.4307   -4802.3107 0.00066896608 0.00073171896 0.00074108281 
 4740000    400.95224   -121.69693    606.49806    3145.3157   -2406.2202   -4132.9764 0.00066881206 0.00073141653 0.00074076249 
 4742000    409.21962   -122.08918    392.89616    2769.1615   -1648.6441    -316.2548 0.00066925133 0.00073107991 0.00074068148 
 4744000    416.25029   -121.95593   -4107.5638    74.653942   -2143.5325   -3464.4246 0.00067003847 0.00073082548 0.0007404419 
 4746000    401.31041   -121.57078    4527.8316    1164.2287    87.145432    7802.8559 0.00067061767 0.00073105468 0.00074034707 
 4748000    404.93434   -122.00475   -4470.4315   -180.19182    1934.1771   -2068.6901 0.00067023179 0.00073099031 0.00074011495 
 4750000    389.95604   -121.59284    1732.9097    5278.4177   -415.06419    543.86116 0.00066992129 0.00073072842 0.00074085782 
 4752000    415.35883   -121.97131    1026.1744   -1529.7333   -6718.7554     2700.134 0.00066983241 0.00073044982 0.00074059733 
 4754000    370.82129   -122.40607   -5565.8605   -4757.1117   -1669.9821    38.720976 0.00067008721 0.00073073246 0.00074026049 
 4756000    443.76144    -122.2238    3414.1583   -625.59838   -2362.7425   -3299.5311 0.00066997764 0.00073076565 0.00074002125 
 4758000    403.57719     -122.908   -4932.4503   -1728.2316   -924.08481   -3469.2368 0.00066965995 0.00073108968 0.00073984067 
 4760000    386.80731   -123.55772    302.94599    3395.0929    277.25525    3259.5551 0.00066948074 0.00073115845 0.00074010472 
 4762000    354.76995   -122.28311   -1843.2669   -2131.5573   -2812.1591   -733.79939 0.00066953206 0.00073096082 0.00074064571 
 4764000    400.48368    -121.6546   -1228.2031    1806.6404    3995.9936    1300.3038 0.00066964401 0.00073071126 0.00074155535 
 4766000    397.39607   -122.73004    4426.9966   -1981.7586    1203.3582     1628.869 0.00066956272 0.00073038934 0.00074169586 
 4768000    368.45125   -123.59005   -4355.6159    560.05622    932.90348   -886.36927 0.00066921232 0.00073003892 0.00074163618 
 4770000     381.9722    -122.7782    2824.9875   -3871.5797   -1554.0584    1499.9848 0.00066899723 0.00073036542 0.00074136687 
 4772000    376.78462   -121.63897   -963.66186   -3081.9695   -2114.5897   -1601.3509 0.00066886386 0.00073128263 0.00074130795 
 4774000    389.36139   -122.09694   -2537.0599    1095.2342    7215.6639   -2371.8867 0.00066872899 0.00073109681 0.00074097975 
 4776000    431.36083   -121.97342    3238.6086    387.39458   -1476.7203   -1882.0263 0.00066848314 0.00073088489 0.00074116709 
 4778000    370.85239   -121.76435   -5035.2192    1160.8675    431.38934    1628.2705 0.00066824384 0.00073056923 0.00074122631 
 4780000    416.17214   -123.17383     2937.571    2369.7174    -5471.548   -4489.3765 0.00066806202 0.00073031175  0.000740921 
 4782000     362.8397     -122.021   -3920.8898   -1744.8438    1525.8111    -2384.702 0.00066782874 0.00073013222 0.00074063727 
 4784000    395.12729   -121.25132    327.60879    205.81471   -1901.3163    -3641.735 0.00066777767 0.0007299856 0.0007404256 
 4786000    405.66876   -122.31604    1869.8047   -154.56256   -3910.4774    2708.3469 0.00066776861 0.00072971501 0.0007402331 
 4788000    332.55439   -121.73166   -3495.2138   -1083.2108    5230.0703    4134.0275 0.00066763341 0.00072960638 0.00074009773 
 4790000    397.65055   -123.50769    1843.8313   -2144.0674   -4788.9685   -3288.2388 0.00066739495 0.00073000699 0.0007399629 
 4792000    407.09565   -123.10552   -2736.8185   -299.02541    -2745.403   -3017.7488 0.00066676762 0.00072999149 0.00074039033 
 4794000    423.21426   -123.12757    342.49125   -510.87793   -589.03268   -1484.6155 0.00066655278 0.00072963471  0.000740396 
 4796000    393.14431   -122.21362     759.5716   -2469.6422   -1899.0955    -1563.713 0.00066928348 0.00072956366 0.00074001497 
 4798000    421.49202   -122.03654   -458.24425    7116.0558   -321.19768    1581.5018 0.00066905522 0.00072966489 0.0007404036 
 4800000    426.84535   -122.08108    3251.8259   -124.03186   -1122.4568    1804.5475 0.00066880049 0.00072988949 0.00074040894 
 4802000    406.69512   -121.43212   -3668.6841    4207.7306    1066.2921   -654.20122 0.00066866335 0.00072958376 0.00074094036 
 4804000    412.44912   -122.05381    2252.5208   -2295.2123    1029.5296   -2500.9287 0.00066842117 0.00072921053 0.00074042124 
 4806000    365.63477    -122.0443   -2006.9346   -1296.7036    583.36073    -4368.966 0.00066819518 0.00072943735 0.00074018289 
 4808000    415.77292   -121.98123   -1791.8312    4846.7208   -4685.4792     468.9925 0.0006679176 0.00072955437 0.00074016933 
 4810000    392.80888   -122.37924    978.75677    3546.1484    554.04427    413.85866 0.00066803322 0.00072937996 0.00074007934 
 4812000    380.68683   -121.29336   -3995.3026    304.61592    4370.7602   -697.45503 0.0006685002 0.00072953111 0.00073989995 
 4814000     438.8142   -121.25747    1902.4689   -480.66292    105.19911    -832.1137 0.00066910703 0.00072926678 0.00073963989 
 4816000     385.0878   -121.67216   -2613.3011   -57.911463    5248.0756    2579.3681 0.00066952596 0.00072899505 0.00073949336 
 4818000    410.49429   -123.32735   -1168.3918    1824.2166   -3144.2247    352.46477 0.00066977403 0.0007291756 0.00074033387 
 4820000    392.77459   -121.11902    1572.5862   -5440.8062     5362.566    -5383.367 0.00067048564 0.00072895421 0.00074076549 
 4822000    357.83443   -122.68421   -3513.3791   -2423.5107   -2475.8413     910.1897 0.00067006387 0.00073003234 0.00074088266 
 4824000    377.99926   -121.64444    3884.7525     -1530.34    808.23225   -1459.8328 0.00067031648 0.00072975248 0.00074057688 
 4826000    429.83892   -121.67142   -3015.1715    1966.7672   -2341.6079   -572.72117 0.00067194327 0.00072947056 0.00074046912 
 4828000    427.92383   -122.96917    672.21722    -1666.762    6.2953921    1031.8971 0.00067386526 0.00072955171 0.00074033006 
 4830000    388.28956   -122.33935    42.199057    1628.3993    820.71389    1422.3788 0.00067434386 0.00072982116 0.00074008934 
 4832000    409.85366   -122.38006   -1917.5337   -1437.5621   -3957.9223   -3269.7238 0.00067438197 0.00072972154 0.00074001388 
 4834000    403.77826   -121.50981    2883.3235   -3129.1005   -1725.3061   -2428.8977 0.00067581682 0.00072935503 0.00073961092 
 4836000    391.79965   -121.94163   -5328.5314    3130.7112    1918.0756    1078.4676 0.0006754213 0.00072908088 0.00073926674 
 4838000    401.39753    -122.3447    1336.5473    -2077.711    40.751549   -1154.9147 0.00067517976 0.00072866986 0.00073959627 
 4840000    390.39879   -122.32667   -1761.4923    5.1418618    391.11411    1975.3635 0.00067486351 0.00072900557 0.00073982411 
 4842000    405.81079   -122.52117   -3130.9388    1663.8185    819.31114   -5470.3053 0.00067471048 0.00072892944 0.00074003563 
 4844000    368.04122   -121.57853    4441.8204    1509.2304   -550.52678     1270.708 0.00067495837 0.00072878091 0.00074089029 
 4846000    443.80766    -121.5782   -4861.4837    3755.3449   -413.71249   -1096.7474 0.00067486881 0.00072921235 0.00074132202 
 4848000    372.88351   -121.63975    2679.8069   -397.50878   -2272.7461    599.64914  0.000674611 0.00072941045 0.00074097232 
 4850000    411.68385   -122.03075   -955.74902    2117.3965    -570.4784   -1514.6592 0.00067440747 0.00073093353 0.00074077849 
 4852000    410.66953   -122.81814   -3440.6075   -157.15609    -1602.295    3142.5975 0.00067433711 0.00073186596 0.00074058668 
 4854000    412.69261   -122.72828    2187.0865    440.44949    981.95149   -222.50835 0.00067540521 0.00073185363  0.000740619 
 4856000    366.81571   -122.10833   -5167.0508    2030.7059    -3403.915   -1585.1006 0.00067538179 0.00073149511 0.00074018436 
 4858000    365.38326    -121.5406    2077.8082    628.74661    3061.8377    2973.9371 0.0006756962 0.00073136267 0.00073994099 
 4860000    458.37427   -123.02354   -2264.2438     1724.166    1541.9182   -3898.0076 0.00067556542 0.00073116941 0.00073993507 
 4862000    369.19019   -121.81227   -1927.2103   -2687.0197   -3321.4948    3588.4211 0.00067561789 0.00073254967 0.00074071542 
 4864000    360.98507   -122.42076    1370.4611   -7658.4785    372.57382   -4386.2609 0.00067546389 0.00073322375 0.00074152651 
 4866000    356.12515   -121.74211     -3052.19    1509.7827    -465.5437    594.50643 0.00067517854 0.00073288173 0.00074139038 
 4868000    428.52024   -122.14354    4814.2901   -249.33095   -742.62682     66.63645 0.00067495761 0.00073283971 0.00074116192 
 4870000    427.16764    -122.6625   -2525.5187    1175.1503    384.21348   -1612.8248 0.0006745905 0.00073242865 0.00074091953 
 4872000     434.5441   -122.01933    372.68962    1677.3142   -2696.9648    2554.5782 0.00067468882 0.00073216891 0.00074067073 
 4874000    397.71982   -122.35648    73.689412     1507.766   -257.88979   -1875.0062 0.00067408956 0.00073195529 0.00074062506 
 4876000     350.6922   -122.44613   -3875.7087   -1037.4389   -1002.5294    2680.1317 0.0006738262 0.00073235787 0.00074043204 
 4878000    366.88258   -121.63486    3712.1649    2352.9966    598.94096    2561.8605 0.0006743238 0.00073222596 0.00074030507 
 4880000    425.99072   -121.86025    -4981.376   -3195.5787   -4405.2065   -2353.1473 0.00067470319 0.00073193433 0.00074009759 
 4882000     396.6263   -122.66398    840.21368    1025.9397    3511.5349    3334.7388 0.00067488019 0.00073159145 0.00073980727 
 4884000    384.67848   -122.86516   -1518.8646    6360.1053   -861.70087   -56.207206 0.00067563987 0.00073150364 0.00073954169 
 4886000    369.76668   -122.65207   -4656.4727   -4581.2078     2903.526   -131.32965 0.00067569272 0.00073134177 0.00073950367 
 4888000    392.55796   -122.61497    1858.4066    3842.6482    666.32168   -864.11958 0.00067572301 0.00073146081 0.00073915222 
 4890000     390.5001    -121.9724   -2798.2356   -3568.5582   -933.58975   -2583.4208 0.0006755829 0.00073121182 0.0007391958 
 4892000    378.22397    -122.9641    3426.0854    -678.0478   -2284.0693   -1344.2791 0.00067554183 0.00073076957 0.00073930707 
 4894000    480.55374   -122.26423     85.14959    599.52258   -2441.7676    920.24205  0.000675579 0.00073070487 0.00073938436 
 4896000    382.88067   -122.53124   -767.38128     3224.555    403.04576    -2806.863 0.00067599218 0.00073061977 0.0007397727 
 4898000    460.18781   -121.68045     1822.718    1104.8535    50.300402    2382.9494 0.00067564355 0.00073086628 0.00073953057 
 4900000    356.09203   -121.68609   -5939.7726    2237.8954    1799.0501   -6102.9175 0.00067566971 0.00073143413 0.00073926552 
 4902000    396.50787   -122.23525    3.0959225    -930.8925   -2323.3253    463.59458 0.00067551109 0.00073109097 0.00073941423 
 4904000    454.63433   -122.04683   -5383.1007    257.06648   -142.88933   -1232.0659 0.00067544193 0.00073081442 0.0007394934 
 4906000    389.10143   -123.00768   -118.22156   -1542.2865   -149.53244   -4236.5274 0.00067532192 0.00073057982 0.00073935349 
 4908000    459.77408    -123.0007    1331.7638   -5.0176053   -2075.9062    432.30823 0.00067580374 0.00073045169 0.00073905289 
 4910000    427.98812    -122.1609   -923.33741    2686.5176     704.1649   -2007.9606 0.00067581684 0.00073040068 0.00073891731 
 4912000    386.07251   -122.41346    3490.3361    987.05683    2925.9976    2698.2933 0.00067588898 0.0007302455 0.00073872128 
 4914000    395.87704   -122.06781   -2153.8587   -1366.0218   -2489.0561    1724.2981 0.00067574622 0.00073001976 0.0007398009 
 4916000    409.68964   -122.56815    124.93108    4599.3114    1432.1794    3874.3622 0.00067616346 0.00072958398 0.00073950464 
 4918000    433.41447   -122.64682   -1295.9609   -144.60229   -2529.3266   -2213.6452 0.00067631369 0.00072932381 0.00073937289 
 4920000    449.32133   -121.65226   -1082.1609    3031.1322    262.85307    -2081.934 0.00067816545 0.00072990502 0.00073896531 
 4922000    390.14705   -122.00031    935.66539    2512.7288    -1619.815   -1981.9147 0.00067967637 0.00072982888 0.00073877562 
 4924000     426.1585   -121.51128   -3562.0474    788.50134   -452.90326   -2142.3487 0.0006793446 0.00072978722 0.00073900266 
 4926000    380.08482   -122.98324   -694.38813    2381.4251    1010.3893   -256.47708 0.0006790967 0.00072994288 0.00073908573 
 4928000    357.03785   -122.91405   -2927.9819    2132.5916   -779.55767    4123.8102 0.00067893874 0.00072971485 0.00073863853 
 4930000    398.43923   -122.58616   -1202.2497    471.75369   -854.18857    2489.9785 0.00067874153 0.00072994399 0.0007384823 
 4932000    435.19637   -122.49896    2285.4372   -2746.9433    383.58406    4587.7604 0.00067879896 0.00072965842 0.00073844751 
 4934000    404.69648   -121.74976    -897.7297   -1944.2933    5132.9576    5557.4501 0.00067867004 0.00072923991 0.00073858692 
 4936000    391.84259   -121.27662    3476.6362   -1584.9758   -3600.8398    1714.0702 0.00067830836 0.00073033722 0.00073995313 
 4938000    459.81089   -121.61206   -3051.3559   -4905.6058   -3227.0518   -1527.5727 0.00067800153 0.00073012918 0.00074000074 
 4940000    458.00771   -122.52904   -2746.2516    1766.4172   -893.09188   -2150.2706  0.000677861 0.00073004117 0.0007397797 
 4942000    434.02264   -121.95871   -796.82751   -789.76118    101.56288   -2240.5655 0.00067777836 0.00073017197 0.00073960043 
 4944000    424.86978   -121.45932   -5513.9556    2566.0726    2980.4149    2957.5133 0.00067804296 0.00073017621 0.00073936857 
 4946000    416.07779    -120.6632    2174.7124    1961.6841    -1914.521   -1073.9565 0.00067799986 0.00072991635 0.00074011057 
 4948000    416.77849   -122.46191   -71.995517   -403.04999    -2051.919   -2790.5989 0.00067762262 0.0007299601 0.00073997436 
 4950000    389.97499   -121.32243    -311.2535   -2266.6382   -2405.4857   -2489.2242 0.00067813989 0.00072971012 0.0007401225 
 4952000    359.02968   -122.43749    2771.9748    2495.5329    -1826.692   -3341.9365 0.0006777321 0.00072979096 0.00074005095 
 4954000    356.80575   -122.41677   -1607.1365    712.14807     871.7255    3516.0518 0.00067746357 0.00072943923 0.00073991352 
 4956000    366.38965    -121.3905    1004.5308   -64.058751   -479.38227   -381.77121 0.00067720047 0.00072948366 0.00073992996 
 4958000    390.50891     -122.932   -448.83881    2026.3043    543.15381   -2221.3703 0.00067698441 0.00072951604 0.0007396912 
 4960000    366.46192   -121.21375   -2358.8331    2217.5487   -3256.5623    3756.6538 0.00067690047 0.00073047078 0.00073976957 
 4962000    379.25841   -122.32163    1979.1456   -2275.1662    333.04033    2514.3261 0.00067682931 0.00073004378 0.00073942565 
 4964000    337.15072   -123.41639   -2851.2075    5060.9016   -3372.5222    1331.3489 0.00067704323 0.00072974673 0.00073921942 
 4966000    399.51615   -122.55054   -453.67047   -797.15611    1907.1801   -3109.4474 0.00067687275 0.00072940057 0.00073901681 
 4968000     459.9261   -122.80509    -379.0618    -442.6899    908.28876    1537.2106 0.00067673255 0.00072912841 0.00073864299 
 4970000    356.56659   -122.43956   -3777.3687   -2269.4728    3332.8995   -2110.1025 0.00067674647 0.00072885519 0.00073834812 
 4972000    394.06889   -122.55884    691.93612   -1238.8449    2082.1903     35.41137 0.00067721287 0.00072858577 0.00073788469 
 4974000    375.30346   -121.73033   -3598.7189    1833.5515    1974.8036    4795.3186 0.00067691687 0.00072820197 0.00073768203 
 4976000    387.24385   -122.79197    4186.2176    -597.7924    2918.1074   -2481.5716 0.0006766643 0.00072830725 0.00073786015 
 4978000    382.59362   -122.31816     189.5974    1531.7912   -2438.2401    187.08238 0.00067661604 0.00072815367 0.00073799909 
 4980000    416.56956   -122.12869   -468.98434    429.85616    4679.9516   -1469.2843 0.0006763632 0.00072808446 0.00073853263 
 4982000    416.57624   -122.12167     4006.441   -1359.7801   -97.847631   -2251.5027 0.00067627049 0.00072830695 0.00073857964 
 4984000    413.98151   -122.37256   -8677.3319   -1968.7498    2966.9198   -1808.1508 0.00067622222 0.00072788345 0.00073887874 
 4986000    380.64491   -123.07705    852.01709    1350.0077    4278.7297    2606.3774 0.00067604096 0.00072796567 0.00073846323 
 4988000    396.12048   -122.37093   -4513.7448    668.29113     126.5341   -1928.9856 0.00067592297   0.00072884 0.00073822062 
 4990000    408.30959   -121.66818   -4372.4706   -1564.5105     4751.693   -3066.5746 0.00067579216 0.00072916155 0.00073928191 
 4992000    380.10478   -121.89483    4407.0242   -2056.8124   -2323.7829    1870.1031 0.00067559966 0.00072874016 0.00073950693 
 4994000    406.33221   -123.07866   -3763.5289    3187.5548    1970.5189    2836.8213 0.00067535258 0.0007286197 0.00073933437 
 4996000    453.63183   -121.88896    6770.4836   -1358.0641   -2645.1734    240.13362 0.00067554298 0.00072881247 0.00073921477 
 4998000    351.76944   -123.55202   -2210.2161   -3852.7209   -973.52364   -1904.2327 0.00067634357 0.00072866068 0.00073903124 
 5000000    396.76032   -121.19338   -511.90017   -2521.9458   -6351.1872    3210.2376 0.00067761557 0.00072838755 0.0007391158 
 5002000    447.10563   -122.45461   -692.34631   -2045.7341    1930.9252    2441.4097 0.00067748424 0.00072827396 0.00073897163 
 5004000    424.67943   -123.21579   -5921.0116    2686.8778   -932.01127    4567.0567 0.00067728298 0.00072811332 0.00073871849 
 5006000    372.23584   -121.96898    2447.3535    2830.7277    2346.0151    4277.2172 0.00067733893 0.00072801681 0.00073851544 
 5008000    379.74885   -122.60151   -5149.4124   -3099.3459    2429.4671    467.18667 0.00067738675 0.00072854703 0.00073834537 
 5010000    423.99892   -122.24507    2382.4992   -862.91246    550.75529    3170.8629 0.00067707582 0.00072857616 0.00073828366 
 5012000    442.20597   -122.69616   -357.41039   -1435.7992   -1625.4539   -2418.6819 0.0006777041 0.00072846917 0.00073803948 
 5014000    381.49269   -123.31587   -6016.2741    3167.4431    4078.0953     4027.438 0.00067747951 0.00072843862 0.00073825438 
 5016000    393.23529   -121.32688    5689.0639   -2754.0612   -66.576178   -1167.4876 0.00067819298 0.00072850838 0.00073807815 
 5018000    381.93248   -122.87882   -6307.2288    446.28873    3913.1734    4207.1401 0.00067841306 0.00072838181 0.00073803472 
 5020000    409.13403   -122.57902    2556.1035   -651.97282   -1545.8524   -1833.5971 0.00067826995 0.00072843802 0.00073771043 
 5022000    465.04313   -122.63777     4274.167   -3967.1306    1397.4298    1351.8357 0.00067802722 0.00072780951 0.00073745505 
 5024000    403.20671   -123.67346   -5523.9403   -1031.4672   -712.83269   -2628.1652 0.00067881353 0.00072748731 0.00073726921 
 5026000    430.73382   -121.62576    5741.7666   -2432.3958    2020.7279   -2380.1247 0.00067986041 0.00072701521 0.00073700612 
 5028000     360.7896   -123.15671   -6814.1445   -1726.5352   -2198.4712   -466.11181 0.00067963316 0.00072752719 0.00073671285 
 5030000    387.40041   -121.64562   -3470.6545   -3138.1849     3662.906   -758.51253 0.00067940076 0.00072722059 0.00073703294 
 5032000    383.67559   -122.31019   -650.52309    1486.3135     473.6023     1122.249 0.00067912102 0.00072694167 0.00073675496 
 5034000    348.66497   -122.51365   -4627.0393    4126.6246   -3154.6827    1852.9641 0.00067918217 0.00072664236 0.00073714491 
 5036000    415.17153   -122.58232    3851.6159   -1935.6406    596.12232    4727.0082 0.00067899186 0.00072633703 0.0007363961 
 5038000     447.2572   -122.27681    -2655.401   -444.41292   -5710.6425    1620.3675 0.00067868938 0.00072604219 0.00073642639 
 5040000    407.56617   -121.86622    2814.6979    446.76858   -1459.0337   -4474.4457 0.00067827504 0.0007257151 0.00073717088 
 5042000    397.17252   -122.88945   -1388.6777    2522.8643     241.7707    1656.7512 0.00067805657 0.00072550216 0.00073725479 
 5044000    435.23915   -122.12682   -4409.8979    1922.9864   -1106.5247   -2980.4218 0.00067807847 0.00072547376 0.00073714642 
 5046000     382.6915   -122.25791     2469.353    475.63901    -1989.032    1256.3695 0.00067787541 0.00072531694 0.00073670007 
 5048000    428.17814   -121.88117   -6448.6843   -2037.4205   -2586.6016   -1876.7785 0.00067762497 0.00072620382 0.00073647018 
 5050000    405.37919   -122.11388    4967.0704     2251.766   -2728.0053     4097.647 0.00067738612 0.00072607351 0.00073619571 
 5052000    380.84635   -122.46947   -528.37308   -155.36961    960.95714   -10.420175 0.00067710705 0.00072591617 0.00073628761 
 5054000    423.27171    -122.4958   -2628.9909    2407.4428   -2632.7878   -30.637488 0.00067757156 0.00072609578  0.000736112 
 5056000     365.8971   -122.33515    5494.6595    -540.7767    1128.0139    4540.1685 0.00067731796 0.00072598982 0.00073611466 
 5058000    402.19145   -122.96488   -9518.7821    2009.3176    -4833.095   -5987.1939 0.00067750818 0.00072589219 0.00073606933 
 5060000    444.82897   -121.74917    3135.1361   -2.0000037   -1324.6159     2997.735 0.00067782658 0.0007257426 0.00073622086 
 5062000    418.71959   -122.92351   -2471.6379     1283.612    1622.8899   -924.15728 0.00067762537 0.00072573575 0.00073622491 
 5064000    386.65699   -121.56068   -3148.7661     2975.077   -351.70929     1194.698 0.00067773175 0.00072523042 0.0007360307 
 5066000    369.21257   -122.05739    6712.7043    1934.8414   -1518.9641   -3067.9195 0.0006782592 0.00072483114 0.00073632098 
 5068000    417.00081   -122.77413   -4963.8526   -2324.6627   -238.82899    240.31129 0.00067813551 0.00072455103 0.00073726539 
 5070000    445.76458   -122.63817    5225.2551   -1381.8861    390.30907   -1272.9231 0.0006779814 0.00072474463 0.00073868031 
 5072000    389.29675   -122.46563   -3666.6645   -3003.7421   -548.61459   -1767.1405 0.00067796679 0.00072447367 0.00073833002 
 5074000      365.301   -121.77663    -1468.646   -1137.7984    1838.4869    1945.8985 0.00067780727 0.00072420436 0.00073810543 
 5076000    393.86472   -122.39986    3142.6544    1984.1014    2753.6943    202.40268 0.00067755237 0.00072387124 0.00073791267 
 5078000    431.21572   -122.07799   -6454.5422    312.09261    113.08443    2002.5589 0.00067746877 0.00072365571 0.00073830366 
 5080000    417.47793   -121.99914    9412.9498   -6522.0419    2757.6975   -4929.5733  0.000677939 0.0007233964 0.00073802204 
 5082000    346.50721   -121.24174   -6805.1077   -2224.0913   -644.40263    276.82649 0.00067840889 0.00072313574 0.0007382663 
 5084000    360.07702   -122.24065    1121.6042   -1910.5586   -710.30836    -1071.596 0.00067832698 0.00072302444 0.00073832722 
 5086000    426.58719   -123.28648    1575.3348    5546.5798    1812.0273     549.7406 0.0006782229 0.00072290731 0.00073845255 
 5088000    407.03586   -123.14045    -11092.15   -163.91153   -1000.0181   -4563.5581 0.00067910219 0.0007233297 0.00073812051 
 5090000    408.90412   -122.47347    7680.3188    2330.9025    2970.4904    431.49088 0.00068020765  0.000724477 0.00073789561 
 5092000    407.72493    -121.5531   -7279.1065    1359.3318    4566.4991   -386.25756 0.00068081971 0.00072461847 0.00073821223 
 5094000    416.31188    -122.5532    2184.9212   -1521.9714     2375.119    1915.9603 0.00068097138 0.00072422421 0.00073853462 
 5096000    463.58261   -122.14442    5981.6339    1310.9505   -6283.9555    5088.6196 0.00068087385 0.00072398586 0.00073824899 
 5098000    381.34302   -122.45896   -5000.6842    424.94855    1010.4842   -5487.2593 0.00068062314 0.00072380818 0.00073798297 
 5100000    426.63336   -122.10878    7052.4866    1060.4702    922.86509    4443.4959 0.0006803749 0.00072361177 0.00073774416 
 5102000    401.67917   -122.94658   -7288.5273    1489.1226   -2609.6478   -6958.7117 0.00068027695 0.00072342174 0.00073763066 
 5104000    446.63227   -122.60755    1065.8514   -6436.8801    3560.3456   -968.02507 0.00068026682 0.00072320028 0.00073731232 
 5106000    387.21811   -121.85341    -3937.115    815.10254    1072.1642    844.50528 0.00068053207 0.00072290553 0.00073696288 
 5108000    411.50922   -122.72325   -3721.3218   -2792.4187    3809.1324    -1412.797 0.00068134925 0.00072260844 0.0007367266 
 5110000    382.19387   -122.49422    6985.8028   -3152.1718   -356.42784    307.06621 0.00068135244 0.00072278494 0.00073653199 
 5112000    417.78951    -121.2104   -8920.9129   -2009.8414     2382.982    121.12138 0.00068138959 0.00072282963 0.00073681303 
 5114000    363.02534   -121.36101    7656.1087    373.76508     403.4148   -3788.9567 0.00068120972 0.00072253515 0.00073645395 
 5116000    434.17403   -121.33663   -1901.3604    4411.3393   -3117.7614    1831.4378 0.00068099599 0.0007228789 0.00073627985 
 5118000    390.88135   -123.11811   -5749.0406    3615.2391    3091.7022   -243.51781 0.00068068702 0.00072276562 0.00073607781 
 5120000     411.9867   -122.53619    8886.0693    1979.8504    2058.6415   -2383.2803 0.00068035144 0.00072245314 0.00073595831 
 5122000    376.24037   -122.38535   -10091.231    2103.0956    6902.6582    4874.0035 0.00068015149 0.00072210102 0.00073557834 
 5124000    388.85345    -122.2575     5091.248    111.22309   -548.65533   -182.08926 0.00067999031 0.00072191642 0.00073598162 
 5126000    401.87258   -123.14775   -1135.1545   -805.79502   -583.54694    -408.9701 0.00067976299 0.0007214989 0.00073904234 
 5128000    374.27176   -121.95346    -4818.537   -1156.5892   -3056.9544    2043.7539 0.00067971699 0.00072156404 0.00073897294 
 5130000     425.4986    -122.0975    4115.6957    466.11218   -332.97403   -428.95161 0.00067959397 0.00072137193 0.0007388338 
 5132000    436.08433   -122.12326   -6958.8807    1995.6049    1655.4646    2116.7819 0.00067942771 0.00072120007 0.00073950219 
 5134000    401.84376   -121.27822    4729.5794    -73.37935   -2535.4571     1872.927 0.00067918706 0.00072185498 0.0007403165 
 5136000    389.05334   -122.49854   -2829.5619   -353.66883   -2496.9822   -1923.3138 0.0006789749 0.00072173085 0.00073990845 
 5138000    412.85949   -122.65302    645.28276    3587.9128   -3990.8891    323.12839 0.00067899624 0.00072154586 0.0007402337 
 5140000     431.6236   -122.67817    4072.5745    1011.6993    2911.7026   -2374.6883 0.00067884191 0.00072128996 0.00074043957 
 5142000    406.93181   -123.07681   -6810.5454    1371.0201   -819.64258   -46.470658 0.00067886163 0.00072173449 0.00074032844 
 5144000    422.64944   -121.69245    6943.1919     -2245.85   -3733.6101     -2430.51 0.00067890211 0.00072201735 0.00074034983 
 5146000    352.18572   -121.58639   -7620.1965   -106.87908     1743.283    647.44213 0.00067961542 0.00072175306 0.0007401839 
 5148000    421.74541   -121.96535   -1546.5689   -4054.5669     1288.119    2627.0512 0.0006796926 0.00072146571 0.00073999886 
 5150000    399.97492   -121.64094    2683.9009   -708.63263   -2581.6771   -5688.1092 0.00067928952 0.00072129429 0.00073991499 
 5152000    382.12139   -121.79184   -9967.1283    946.60929    2200.8032    275.39412 0.00067902399 0.00072127857 0.0007407034 
 5154000    394.37433   -122.62089    8314.8505   -649.99554   -1992.8644    2088.5941 0.00067885651 0.00072136579 0.00074044784 
 5156000    379.34073   -123.49165   -3632.0308     271.5971   -1313.0994    2321.3695 0.00067911115 0.0007213441 0.00074039681 
 5158000    389.73863   -122.36501    75.840926    1540.4548    3395.1512   -2393.0737 0.00067971948 0.00072166212 0.00074014039 
 5160000    394.04415   -122.34437    4652.6229   -564.30211   -5507.3248    754.79138 0.00067955995 0.00072167129 0.00073973225 
 5162000    398.90397   -122.32534    -7327.468   -2234.3818    370.16994   -1829.5963 0.00067935403 0.00072141298 0.00073968781 
 5164000    414.61771   -122.36039    3606.8444    3927.9195    3436.6513   -2327.3897 0.00067918762 0.00072105695 0.00073937954 
 5166000    439.93775   -122.00691   -6244.5916   -299.65566    611.65152    266.05096 0.00067911113 0.0007207569 0.0007391373 
 5168000     381.6129   -122.47669    623.29973   -3349.1718    946.08754   -3137.0528 0.00067896826 0.00072050279 0.00073892312 
 5170000    418.70342   -121.86514   -484.46068    1956.8062   -788.90883    3689.1721 0.00067886976 0.00072021578 0.00073852626 
 5172000    380.60379   -122.32181    -2538.311    -6740.266    2334.6752    539.97437 0.00067935734 0.00072043249 0.00073839114 
 5174000    402.95119   -122.35981    4954.0014   -1454.7595    4104.1959    -766.9063 0.00067926266 0.00072015454 0.00073817009 
 5176000     346.4407   -122.66201   -5910.2042    3.9972966     2493.936    1967.3843 0.00067908229 0.00071988818 0.00073792842 
 5178000    388.06157   -122.65145    3318.9164    335.75562   -2903.9939   -3957.6197 0.00067884402 0.00071993438 0.00073762382 
 5180000    395.33299   -122.52892   -3834.0247    3834.1331    1032.9969    3559.4759 0.00067869496 0.00071973363 0.00073751934 
 5182000    420.62675   -121.75226   -3724.1127    1843.4397   -1753.1937    355.00648 0.0006785102 0.00071963505 0.00073716546 
 5184000    410.12775   -121.52143     5358.097   -1651.2729   -2725.6566   -368.03136 0.00067830456 0.00071942599 0.00073688005 
 5186000    369.16883   -122.39743   -5089.0403    260.79413   -703.59289   -2901.9566 0.00067816241 0.00071923957 0.00073665882 
 5188000    380.24807   -122.39718    4182.9828   -3402.2657   -3268.5875    428.31641 0.0006780892 0.00071921072 0.00073642081 
 5190000    413.67957   -121.46843   -1128.1843   -471.91824    6960.8278     1046.352 0.00067785054 0.00071960323 0.00073605105 
 5192000     443.9596   -121.84315   -2775.1798    804.20386    848.52103    2003.0549 0.00067778353 0.00071926494 0.00073584441 
 5194000    389.48659   -122.22684    1381.7409   -2174.1408    3376.1624    993.14691 0.00067806451 0.00071909174 0.00073538486 
 5196000    405.61778   -122.87818   -5577.1799    2285.4955    2867.9395    -3589.793 0.00067759532 0.00071901354 0.00073512173 
 5198000    387.21583   -122.83162    1365.0598    951.65938     5516.363   -1962.4889 0.00067737291 0.00071861139 0.00073490855 
 5200000    381.44791   -123.04653   -2319.8897    6076.3537    70.527783    838.67361 0.00067712695 0.00071887792 0.00073467698 
 5202000     372.1645   -122.44393     1463.382   -1875.0688    2223.1597    3095.0386 0.00067689282 0.00071928086 0.00073489051 
 5204000    398.85218   -121.97136    1053.9663    1805.9842    376.29788     2404.032 0.00067693492 0.00071884372 0.00073444515 
 5206000    427.15998   -121.85683   -3010.6151    1.4297228    -2738.943    5361.4212 0.00067689457 0.00071853387 0.00073419299 
 5208000    406.36868   -122.37674     1514.196   -4307.0387    117.50348    160.77368 0.00067676508 0.00071825391 0.00073415103 
 5210000    333.39614   -122.43748   -4736.4197    3591.8253   -42.239309     5519.444 0.00067773291 0.00071795227 0.00073389755 
 5212000    403.56994   -122.12173    998.20605    2936.3048    501.03223   -470.70965 0.00067794187 0.00071770409 0.00073368598 
 5214000    425.89778   -122.83725    280.30221    4610.0668    3202.7144    926.00552 0.00067769464 0.00071741386 0.0007335387 
 5216000    457.80673   -121.04488   -1933.9569   -1641.9889    555.39787   -2577.6371 0.0006774045 0.00071752162 0.00073370284 
 5218000    391.92924   -122.82765    2975.1118    5920.0321   -359.94827   -1924.1746 0.00067730946 0.00071824617 0.00073356291 
 5220000    417.09543     -122.506   -3557.1672   -1863.2378    1536.6324    5331.6046 0.00067746447 0.0007176569 0.00073357973 
 5222000    406.20706   -121.46536    281.62635    1218.6215    -1346.942    2647.8406 0.00067715414 0.0007173725 0.00073318374 
 5224000    395.00259   -122.00037   -1844.3173    925.08467    6272.3708    2384.0615 0.00067707058 0.00071723994 0.00073302992 
 5226000    371.95002   -122.66436   -2350.6171   -2523.8069   -2844.3511   -1134.7603 0.00067747049 0.00071694529 0.00073318802 
 5228000    414.03595   -122.33759    1805.5436   -1448.9076   0.96273155     366.0858 0.00067722225 0.0007169129 0.00073347289 
 5230000    379.76272   -120.98034   -2716.4496    3953.6691   -761.72649     4153.994 0.00067691793 0.00071667095 0.00073317899 
 5232000    465.71796   -120.37815    4108.0869   -483.32068     1560.321   -2729.7451 0.00067675162 0.00071645143 0.00073289372 
 5234000    373.45406   -122.49807   -1877.9652   -643.88193    720.42299   -3117.6567 0.00067669366 0.00071634387 0.00073277651 
 5236000     371.0326   -123.36628   -2054.5724   -2566.8033   -1197.5579   -454.35299 0.00067682983 0.00071604755 0.00073262197 
 5238000    397.14994   -122.02373    2248.9866    3326.4542   -3418.0339   -3000.8202 0.00067730308 0.00071592868 0.00073255669 
 5240000    369.20908   -123.00672   -5094.2936   -1305.8348   -152.33802    3534.6533 0.00067763383 0.00071572762 0.0007322029 
 5242000    367.59877    -122.0137    3881.4714     379.2982    619.98211    448.03493 0.00067752626 0.00071548893 0.00073213764 
 5244000     402.4047   -122.39814   -1390.7585   -1905.1421    665.36682   -704.24946 0.00067742429 0.00071556197 0.00073170477 
 5246000    409.49454   -122.84079   -3060.3823   -446.13821   -1910.9492    -2353.691 0.00067759717 0.00071574325 0.00073142537 
 5248000    424.58199   -122.91064    3265.5397   -2183.5225    6264.3723    1050.9886 0.0006774597 0.00071542077 0.00073119463 
 5250000    411.03138   -122.24611   -5793.8745   -372.83988   -2125.7001   -651.86403 0.00067727689 0.00071554528 0.00073103206 
 5252000    430.83034   -122.71328    1322.6757    -567.2901    -1476.791   -3097.2944 0.00067708658 0.00071573727 0.00073081675 
 5254000    432.57117   -121.67979   -1507.3143    4764.4334   -1272.1469    3715.1958 0.00067680979 0.00071573266 0.00073040832 
 5256000    403.41237   -121.91169   -1099.5063   -996.96704    557.24493   -1372.1256 0.00067684524 0.00071578009 0.00073017834 
 5258000    353.18887   -122.04766    2366.8129   -912.74857    2115.6566   -1272.3375 0.00067660976 0.00071528415 0.00073011038 
 5260000    397.61692   -121.71661    -2298.912   -476.78755    -2946.544   -2311.3318 0.0006763625 0.00071535662 0.00072991434 
 5262000    430.32772   -122.73989    2991.5064    1417.5057    481.87589    2847.1434 0.00067627668 0.00071529875 0.00072962886 
 5264000    404.29903   -121.66224   -2824.6198    945.05552    800.23595    5717.7548 0.00067610364 0.0007149505 0.00072952582 
 5266000    371.07978   -122.35698   -506.70636    7840.2483    3353.2313    2323.1325 0.00067629194 0.00071478155 0.00072927806 
 5268000    436.27067   -122.81326    638.13501    -3602.876   -1895.6026   -2148.3336 0.00067619361 0.00071467093 0.00072935925 
 5270000    379.71852   -122.81795    -4903.465   -287.69304    13.964469   -381.69766 0.00067593761 0.00071445768 0.00072944509 
 5272000    354.10602   -122.62717    2878.7888   -1103.5769    4278.2176   -1433.2159 0.00067589976 0.00071491697 0.00072947022 
 5274000     384.2989   -122.19212   -4295.5593    -4278.245    -4070.602    3517.2965 0.00067545942 0.00071574177 0.00072959813 
 5276000    412.40719   -121.93878    1100.6976    908.25307   -2515.6245    288.39752 0.00067541741 0.00071588571 0.00072990033 
 5278000    412.78306   -122.38513     1991.603   -345.25225   -201.77871    1815.3015 0.00067511454 0.00071579424 0.00072928363 
 5280000    354.19896   -121.87618   -4038.2314    3420.1214   -876.06423    4216.9444 0.00067555543 0.00071564738 0.0007290309 
 5282000    363.91078   -122.50425    3120.5181   -3229.9585   -510.75168   -4978.7842 0.00067536326 0.00071549759 0.00072935338 
 5284000    448.22533    -122.6306   -3746.7284    2224.5818    2647.5992    1527.7822 0.0006752405 0.00071521948 0.00072934839 
 5286000    382.49545   -122.47515    -478.5532   -377.07002   -681.45739   -144.28072 0.00067521102 0.00071511069 0.00072940185 
 5288000    402.20545   -121.89601  -0.52645211    2125.5944   -7340.3179      3392.79   0.00067511 0.00071560421  0.000729318 
 5290000    362.57369   -121.78339   -4028.3355   -5223.5021   -3342.3839     3397.997 0.00067491938 0.00071535269 0.00072910957 
 5292000    416.93237   -121.49715    901.55929    2744.7684    3410.2363   -2676.0317 0.00067486249 0.00071506175 0.00072970183 
 5294000    428.17323   -121.41592   -4244.8726    2614.8188   -2584.5688    3623.5619 0.00067473535 0.0007147351 0.00072969003 
 5296000    387.69179   -122.33689     2028.887    3208.9306     5584.692    -3941.721 0.00067476649 0.00071454196 0.00072994503 
 5298000    398.43961   -121.68425   -723.44319    1085.2755   -5028.8952   -288.66828 0.00067493147 0.0007143352 0.0007299394 
 5300000    421.09078   -121.26754    705.70388    36.674442     1051.613    1208.6941 0.00067508704 0.00071416679 0.00073054893 
 5302000    370.92787     -121.926    4494.7189   -227.52183   -4072.9322    1720.6203 0.00067489478 0.00071413995 0.0007303427 
 5304000    382.47107   -121.51211   -3681.9185    -3395.171   -3090.0017    2037.3058 0.00067491615 0.00071412313 0.00073019813 
 5306000    459.36107   -121.51522    2676.1909   -1571.5843   -6.4279254   -368.64528 0.00067499341 0.00071494117 0.00073026749 
 5308000    442.80895   -121.99128   -818.31801   -713.52612   -467.06615   -3312.6968 0.0006748031 0.00071509769 0.00073014374 
 5310000    371.84388   -120.35989   -3590.3999    2590.4584   -877.97245    4797.1208 0.00067437708 0.0007148317 0.00072993932 
 5312000    382.79609   -122.66604    1760.3363   -2034.9282    200.22565   -2585.6091 0.00067389665 0.00071462644 0.00072977336 
 5314000    410.63413   -123.22169   -5247.5381   -548.55567    953.30024    4115.2249 0.00067396961 0.00071601788 0.00072967001 
 5316000    387.91858   -122.60537    277.25073    2375.1046    -639.0425    3658.4251 0.00067521305 0.00071601925 0.00072939981 
 5318000    399.31777   -122.53876   -250.47382    2276.0588    2140.9361   -535.44599 0.00067522954 0.00071577269 0.00072941825 
 5320000    421.49286   -121.62732    -1928.155    1852.5307   -2035.6057   -4912.0152 0.00067506686 0.00071568501 0.00072920972 
 5322000    341.74017   -121.98058    2692.3704    526.71748     4447.459    890.32244 0.00067492631 0.0007152265 0.00072908074 
 5324000    423.46492    -121.3588   -2650.1461   -4025.3317    293.13326     1393.696 0.00067523982 0.00071505842 0.00072897048 
 5326000    372.63954   -121.47265    2610.0585   -938.60409    -2949.986   -3456.5775 0.00067495752 0.00071530354 0.00072892869 
 5328000    448.58398   -121.86268   -1789.8606    195.24897   -953.36752    4813.4149 0.00067473288 0.00071517595 0.00072869072 
 5330000      430.631   -121.57721   -196.85925    216.32998   -1894.4949   -1957.1492 0.00067448905 0.00071527781 0.00072868756 
 5332000    435.24224   -123.27414    1671.0401    1595.8817    -2371.692    2159.5542 0.00067434299 0.00071484718 0.00072889778 
 5334000    398.85347   -121.41003   -5582.0865    647.90432   -1968.9053    -2055.076 0.00067403141 0.00071499539 0.00072867438 
 5336000    354.26567   -121.80021    3950.0571     5471.797   -7293.2549   -6075.5661 0.00067373828 0.00071464804 0.00072845944 
 5338000     412.6214   -121.59708   -4278.7243    657.27748    1342.4676     2513.203 0.00067350358 0.00071432548 0.0007281979 
 5340000    431.09821   -122.27209   -1836.2774   -1757.5314    -5464.755   -3519.4417 0.00067367984 0.00071429344 0.00072789053 
 5342000    410.02827   -122.76806    1446.1559    2192.4922   -552.34625    -1308.999 0.00067405928 0.00071425559 0.00072760521 
 5344000    415.92819   -121.94313   -4644.7214   -3547.1626   -852.94449    2111.8157 0.00067380938 0.00071465266 0.00072724641 
 5346000    411.90348   -122.32052     4126.543   -2519.4028   -1013.7203   -2251.7994 0.00067355341 0.00071502541 0.00072695291 
 5348000     377.7131   -121.34194    23.379778   -1872.2475    500.11555    1228.7708 0.00067319652 0.00071471415 0.00072704471 
 5350000    401.26756   -123.08363   -1038.5268     5382.249    3777.4852   -2826.5637 0.00067314261 0.00071449868 0.00072692688 
 5352000    456.35389   -122.70823    1518.4346    2783.8048   -3393.3863    2279.3868 0.00067288638 0.00071551644 0.00072715912 
 5354000     392.3752    -122.8872   -5160.9278    2046.8573    1163.7779    2612.1052 0.00067329614 0.00071532029 0.00072692582 
 5356000    375.96468   -121.70858    2346.2097   -1461.7283    615.11175    1009.4915 0.00067296707 0.00071502178 0.00072664937 
 5358000    409.44279   -121.97634   -4744.7406    1419.6187    2290.2368     4667.251 0.00067321106 0.00071472969 0.00072663693 
 5360000    379.14435   -120.74981    2176.1816    1187.3769    2131.4446   -652.47749 0.00067357665 0.00071443626 0.00072680279 
 5362000    374.34937   -122.35334      857.951   -5150.3807   -3005.9333    236.05228 0.00067358788 0.00071419275 0.00072693534 
 5364000    423.06688   -122.98881   -3968.2553    637.96166   -1025.6406   -310.64409 0.00067345037 0.00071425977 0.00072663247 
 5366000    430.75989   -122.10759    5596.3384   -2136.7162    680.01643   -1395.9021 0.00067316324 0.00071427462 0.00072660917 
 5368000    410.45726   -121.85352   -5844.6103    3660.9976    1163.6866   -377.30818 0.00067332813 0.00071415048 0.0007261924 
 5370000    416.10069   -120.90302    1025.7459    1786.8339    6629.7557   -269.90899 0.00067356838 0.00071403685 0.00072597106 
 5372000    401.67674   -121.78077    338.13134   -1196.2072   -2615.7068   -2448.0483 0.00067348049 0.00071379066 0.00072573151 
 5374000    393.77943    -122.6371   -3523.5994    975.72281    2303.2632    2270.4447 0.00067351049 0.00071352553 0.00072553455 
 5376000    376.28306   -122.87512    2922.0387   -1144.6832   -1130.0757   -811.21005 0.00067364693 0.00071331325 0.00072558254 
 5378000    430.20018   -122.88352    -3189.389     209.9677    -1287.196    755.18607 0.00067336288 0.00071307572 0.00072560205 
 5380000     443.7628    -122.5226   -120.18334    2773.8461   -1412.4191    3170.6335 0.00067308276 0.00071304286 0.00072542297 
 5382000    414.00913   -121.40202    -1685.577    4872.4476   -1815.5911   -1726.1005 0.0006730325 0.00071264504 0.00072514569 
 5384000    383.73943   -121.20969   -2122.5438    2410.1517     1960.779    5435.9454 0.00067264125 0.00071241515 0.00072503354 
 5386000    398.50037    -122.9738    1565.1894    159.85204   -1411.2914   -589.52263 0.00067241546 0.00071268282 0.00072474738 
 5388000    420.52766   -122.75258   -4514.4846    1494.9509    5038.7138    623.15969 0.00067217856 0.00071267971 0.0007247993 
 5390000     415.8111   -121.74994    4742.3734    3229.3363    5709.3058    2858.1547 0.00067181122 0.00071266357 0.00072463739 
 5392000    425.42755   -122.19285   -1150.7766   -4328.8209   -1370.4102   -348.85395 0.00067130141 0.00071242109 0.00072531835 
 5394000    338.95837   -121.86587   -2680.0332   -1368.3545    3569.0421    1896.2432 0.00067110308 0.00071236169 0.00072576217 
 5396000    405.38389   -121.60956    4496.0158    6673.7915    5196.2097   -1076.7615 0.0006714186 0.00071259087 0.00072559924 
 5398000    400.50847   -122.06646   -6840.8143    5368.6221    1872.2569   -227.72852 0.00067118217 0.00071271649 0.00072679079 
 5400000    418.56517   -123.17072    1402.7845    2233.5191    35.020913     2079.311 0.00067115968 0.00071284225 0.00072741519 
 5402000    386.80783   -122.92897    -110.8644     1478.064     3117.894   -2816.5267 0.0006712327 0.00071284347 0.00072723159 
 5404000    408.76807   -122.13784   -3656.1519   -3046.5787   -1891.2013     4112.346 0.00067187389 0.00071265711 0.00072702536 
 5406000    425.26019   -121.68224    5577.0933   -968.28777    1423.3601   -1573.4124 0.0006730652 0.00071289717 0.00072677782 
 5408000    433.93361   -122.18352   -5607.9335   -2582.8563    1518.8433    181.11338 0.00067317199 0.00071273031 0.00072656137 
 5410000    408.59935   -122.04394    1797.6537    2974.2087    129.42577   -1078.0288 0.00067320918 0.00071249498 0.00072700164 
 5412000    396.71152   -121.94271   -3133.8939    3685.1724    1527.4975   -2483.9462 0.00067316653 0.00071323552 0.00072662229 
 5414000    369.46923    -122.9505   -1367.5557   -389.61495   -1784.2087   -1247.3347 0.00067330377 0.00071298455 0.00072807455 
 5416000    386.04368   -122.91792    1442.0466   -1866.9797   -566.13406   -2944.5108 0.00067306837 0.00071285689 0.00073085945 
 5418000     497.8468   -123.49905   -4958.5613   -1795.5992   -3197.1978    934.63261 0.00067286234 0.00071296279 0.00073084549 
 5420000    416.11894   -122.21748    4002.0857    1172.9765    1600.3815    1110.1793 0.00067250524 0.0007127861 0.00073043251 
 5422000    389.96415   -122.06611   -3880.8737   -3294.0094    814.34894    2947.9064 0.00067225158 0.00071273238 0.00073007366 
 5424000    430.07408    -123.1312   -1032.6088   -230.71503    99.084099    6451.3741 0.0006719663 0.00071245013  0.000729867 
 5426000    423.92279   -123.20468    1857.3113    1262.4565   -2203.2774    -1467.164 0.00067208383 0.0007122209 0.00072968702 
 5428000    413.74586   -122.18572   -4627.8702   -4362.0617    2142.9549   -1111.3594 0.00067208449 0.00071200717 0.00072934309 
 5430000    400.92416   -121.69633    4554.0485    5820.2714    2176.8225   -2670.0859 0.00067195843 0.00071251263 0.00072901604 
 5432000    452.68413    -121.6832   -2715.7562    421.46693   -1436.4875    2025.0885 0.00067170706 0.00071270019 0.00072871212 
 5434000    421.62664   -122.98757   -2181.9591   -4334.4373   -2108.9853    3737.3711 0.00067150927 0.0007134283 0.00072842787 
 5436000    386.43981   -122.62775   -100.47033   -1851.0268    6918.5711   -1699.3871 0.00067119372 0.00071335027 0.00072817018 
 5438000    449.65982   -122.42536   -5246.0765    6313.3282    737.40704   -1549.5534 0.00067089579 0.00071326741 0.00072799396 
 5440000     436.6525   -121.25523    1699.3903    2225.7505   -57.672641    4113.4553 0.00067052554 0.00071472106 0.00072774986 
 5442000    347.03338   -121.84158   -1782.1972    746.17921    1978.2711   -1604.4496 0.00067044139 0.00071661161 0.00072774217 
 5444000    397.17004   -122.65981    3204.3248    3723.3006   -819.01299    3655.2068 0.00067049558 0.00071656995 0.00072787165 
 5446000    403.46894   -122.17874    1946.6871    -2825.261   -984.56867   -7140.6025 0.00067026471 0.00071629327 0.0007298472 
 5448000    415.92686   -122.64545   -1162.2048   -1358.7852    1139.5429   -1199.7665 0.00067004832 0.00071597512 0.0007301127 
 5450000    356.22474   -122.21832    1561.2606    -81.45995    235.69685   -2926.1853 0.00066994607 0.00071579246 0.00072982547 
 5452000    405.82814   -122.15792   -4296.1356    1513.7557    5377.4527   -1127.2974 0.00067057509 0.00071556725 0.00072959451 
 5454000    402.67997   -121.16917    985.63653    3208.1143   -2903.2889    100.60555 0.00067115959 0.00071538998 0.0007299232 
 5456000    375.09669    -121.6556   -3233.8258    2736.9431   -2271.9779    1528.1101 0.00067132498 0.00071544845 0.0007299379 
 5458000     396.1629    -122.0776    -1665.149    1493.0513   -1219.1457    5422.8762 0.00067105903 0.00071526899 0.00072967665 
 5460000    378.42803   -121.76158   -181.95721   -875.88421    3575.9383   -2003.0461 0.00067089642 0.00071598422 0.00072936613 
 5462000    447.99792    -122.0943   -3700.7628    678.70538   -145.12443   -854.12992 0.00067076155 0.00071708127 0.00072916096 
 5464000     342.0059   -122.10379    570.76849   -2615.8873   -2556.0343    60.848698 0.00067141473 0.00071726038 0.00072896108 
 5466000    412.70819   -122.04904   -3452.5166    581.12485    1294.8912    575.45285 0.00067178292 0.00071712933 0.00072887611 
 5468000    394.91205   -121.68417    1964.7195    3274.1656    -4314.149   -742.22445 0.0006721922 0.00071693872 0.00072870093 
 5470000    393.08213   -122.42835    1438.3788   -1140.4601    3460.9932    2525.6407 0.00067180164 0.00071683209 0.00072853569 
 5472000     443.5565   -122.51738   -1874.0392    3992.6863   -2676.4832   -6774.7894 0.00067160424 0.00071666859 0.00072825155 
 5474000    398.92449   -122.72058    2685.9878    1132.1003   -800.81235    1421.9779 0.00067150409 0.00071651771 0.00072806184 
 5476000    420.78134   -121.81567   -6141.7435    3427.4051   -4723.1673   -5659.9934 0.00067172991 0.00071735216 0.00072787264 
 5478000    405.42952   -121.71677   -1538.9668   -166.28736    1577.8564   -4182.6934 0.00067156067 0.0007172382 0.00072760935 
 5480000    386.83462   -121.45017   -2159.1455    3853.7947    4337.2887    2455.8689 0.00067195244 0.00071699896 0.00072743378 
 5482000    444.52532   -122.76784   -3983.5007   -2348.1791   -4041.9697   -84.822897 0.00067304304 0.00071669446 0.00072720644 
 5484000    435.98977    -122.8809    2228.1046   -1820.1111   -4106.5403    2065.0677 0.00067278163 0.00071652663 0.00072734095 
 5486000    379.21717   -121.93044   -947.12571   -4553.6027    243.58548   -527.98332 0.00067253331 0.00071625173 0.00072710145 
 5488000     376.8667   -122.08302    2645.1306    -14.57034    1655.1342   -2595.1395 0.00067240327 0.00071605846 0.00072688488 
 5490000     391.2605   -122.33517    335.80309   -3280.7641    433.41741   -2133.0713 0.00067220428 0.00071580562 0.00072662035 
 5492000    346.35503    -121.9917   -1221.4035   -1386.7055    3058.2688    13.040175 0.00067197273 0.0007156778 0.00072626756 
 5494000    416.66471   -122.24208   -389.50432    1506.0081    -2999.243   -568.65411 0.00067164493 0.00071589541 0.00072610544 
 5496000    430.00643   -122.30085   -4191.2225   -2518.1322    59.660638    3998.3164 0.0006715737 0.0007179433 0.00072682725 
 5498000    347.04472   -121.73003    1154.1248    1765.9757   -2864.3657   -2117.6621 0.00067134797 0.0007185963 0.00072697975 
 5500000    379.21447   -122.26446    -2677.753   -3086.2876    223.57353    3144.4904 0.00067128684 0.00071849409 0.0007268867 
 5502000    349.92252   -122.40718    37.435984    -2178.129   -903.37755   -1065.5457 0.00067107724 0.00071842047 0.00072681242 
 5504000    407.21231   -122.97715    899.87092    1140.8618   -881.59253   -4655.7674 0.00067091686 0.00071816465 0.00072713999 
 5506000    412.06186   -122.71814   -2744.5899    149.07241   -74.764297   -878.76846 0.00067137401 0.00071805748 0.00072678709 
 5508000    382.55825   -121.17685    2438.5585    701.60087   -3638.7894     153.3681 0.00067210062 0.00071800046 0.00072681687 
 5510000    376.97417   -122.34194   -3098.3155    143.55793      5004.73    396.13626 0.00067245142 0.00071767336 0.00072664612 
 5512000     369.8676   -122.71876   -2174.1161    2636.5868    -1110.398   -3835.0642 0.00067225102 0.00071754112 0.00072640595 
 5514000    408.15527   -122.35619   -611.54101   -932.44509    486.91067   -2605.5283 0.00067188625 0.0007188892 0.0007261487 
 5516000    416.12432   -121.91727   -3369.8025   -301.92886   -2329.3597    865.95246 0.00067163961 0.00072003185 0.0007259645 
 5518000    406.89323   -123.07077    1481.7697    1371.1527     2183.459    277.98188 0.00067148344 0.00072022373 0.00072572056 
 5520000    413.89746   -122.03918   -2269.0593   -2513.9367   -3105.8306    5895.0078 0.00067184214 0.00071967758 0.00072562751 
 5522000    373.29207   -122.11437    1832.8075    3016.3252   -2805.6624    730.22843 0.00067153036 0.00071943168 0.0007257655 
 5524000    476.14484    -122.1727   -434.56121   -780.78393    637.55794    -449.8269 0.00067140902 0.00071938317 0.00072558327 
 5526000    372.59675   -121.86309   -1495.1891    4071.4624   -591.99978    3129.1824 0.00067120778 0.0007190662 0.00072523254 
 5528000    389.77599   -122.29568    1900.6425   -1965.8769   -556.38524    970.11992 0.00067109182 0.00071922586 0.00072524969 
 5530000    397.50928    -123.0138   -3281.9071   -1962.7644    1469.4975   -3670.6492 0.00067089365 0.00071930849 0.00072509331 
 5532000    403.67232   -122.69966    1010.5228    -4581.516    1076.4215   -1162.7798 0.00067141236 0.00071937806 0.00072483874 
 5534000    414.89019   -122.45096     -2601.21   -441.30818   -3500.3258   -1704.9692 0.00067117773 0.00071918221 0.00072521563 
 5536000    431.57839   -121.63775   -2148.5452    1901.6999    549.71409    5156.9097 0.00067107237 0.00071898842 0.00072639271 
 5538000    429.58714   -122.52779   -1011.2749   -212.78099    833.52297   -5783.1211 0.00067077202 0.00071868773 0.00072647731 
 5540000    371.22756   -122.95814   -1842.0166    60.887762    1570.4041   -2861.2819 0.00067070487 0.00071871091 0.00072647399 
 5542000    398.40078   -123.22475    1158.8354    2088.1117   -294.25266   -2923.6074 0.00067066627 0.00071844233 0.00072657866 
 5544000    439.20935   -122.40939   -609.60772   -5038.5861    1239.6285    1548.5903 0.00067046435 0.00071828484 0.00072654791 
 5546000    449.29741   -121.70475    1885.2104    1872.0398   -614.06308    1045.7004 0.00067032527 0.00071870907 0.00072655962 
 5548000    410.21842    -121.8495    2059.0552   -759.14031    3184.5827   -1565.5885  0.000670536 0.00071921169 0.00072668533 
 5550000    376.12815   -122.11118   -1669.9198    366.33557   -1843.5767   -10.654877 0.00067036906 0.00071899808 0.0007269755 
 5552000    372.80081   -122.64933    -77.18212   -572.34288    725.75501    2556.4733 0.00067077197 0.00071880185 0.00072674942 
 5554000    381.01264   -121.95577   -5086.4294    151.37139    5300.4405    5100.2918 0.00067065279 0.00071865403 0.00072683873 
 5556000    378.08971   -121.97648   -1198.5661    4449.6535    371.00137    -1109.236 0.00067034403 0.00071852418 0.00072654409 
 5558000    419.28443   -122.36481   -1339.3018    103.43977    4152.2879    2057.4026 0.00067018315 0.00071836304 0.00072609315 
 5560000    403.16802   -121.88968   -18.540842    642.00373   -2822.9288    3193.7375 0.00067000679 0.00071843583 0.00072668115 
 5562000    431.66522   -122.05472     2385.587   -327.10464    3839.7467   -253.62198 0.0006698143 0.00071823651 0.00072702068 
 5564000    413.27081   -121.97758   -548.45735   -750.64238   -5937.9701    1234.4394 0.00066954873 0.00071866032 0.00072720845 
 5566000    415.86325   -120.58369    4025.8036    1200.6923     403.5759    3170.0983 0.00066952294 0.0007195231 0.00072687112 
 5568000    365.52467    -121.9773   -2839.3727   -1699.0218   -674.20913    2079.1415 0.00066999843 0.0007191586 0.00072658456 
 5570000     425.5342   -121.91727    -1299.755   -413.45334    4568.9071   -1128.4175 0.00066990336 0.00071892079 0.00072634678 
 5572000    400.92338   -122.88234   -737.01371    2001.9123   -155.25229    4191.9923 0.00066987707 0.0007187642 0.00072622042 
 5574000    390.93578   -121.99851   -5629.2265   -3907.5435   -557.25367   -1405.7993 0.00067117279 0.00071861694 0.00072635705 
 5576000    414.79755   -121.96831    1482.7177    2044.5682    878.69125   -2322.8725 0.00067169327 0.00071821744 0.00072620291 
 5578000    393.60549   -121.65147   -2456.1511   -1451.5614   -3680.6331    120.26279 0.00067268464 0.00071789139 0.00072622824 
 5580000    425.50855   -122.65316   -333.40627    209.33293    3426.0363   -685.35922 0.0006734397 0.00071773074 0.00072617768 
 5582000    385.79691   -123.14272    2802.5539   -2376.2823    345.28039    1563.8661 0.00067352982 0.00071748762 0.00072595258 
 5584000    392.44329   -123.04475   -2639.9756    2606.3816   -2529.5758    2758.3334 0.00067328392 0.00071743345 0.00072611657 
 5586000    438.09689   -123.20542    1293.7947    2625.9045    1315.9943   -1837.1794 0.00067356845 0.00071727121 0.00072584588 
 5588000    401.30857   -122.25907   -466.89268   -2994.9523   -6396.7538   -2379.5174 0.00067363925 0.00071691225 0.00072546719 
 5590000    411.99305      -122.03    155.46565   -59.239549     2378.449    2102.7467 0.00067442005 0.00071683572 0.00072525285 
 5592000    391.77324   -122.01675    1632.5494   -6.1022686    4117.3522   -711.81947 0.00067432374 0.00071696658 0.00072500425 
 5594000     380.7979   -122.69242   -4293.9891   -1800.1537   -1402.5639   -495.09851 0.00067415058 0.00071662455 0.00072481641 
 5596000    361.97483   -121.07236   -574.26195    2429.8355   -2438.4965    684.29064 0.00067404302 0.00071689273 0.00072469359 
 5598000    402.51663   -123.18429   -6155.6679   -2075.8686   -1020.9299   -2112.2259 0.00067407126 0.00071697762 0.00072449675 
 5600000    378.47563   -122.63256    -1313.632    2062.4726    2905.8094    2037.3384 0.00067390336 0.00071809021 0.00072455712 
 5602000    377.36184   -122.20728    1558.8993    509.52192    1089.5868    543.48822 0.00067374723 0.00071801888 0.00072422105 
 5604000    373.93208   -121.91696   -2587.3196   -1846.3989    458.10343   -4571.8861 0.00067347251 0.00071766069 0.0007239123 
 5606000    388.67487    -121.4068    6326.2638    1642.7046    6933.4129    7491.1557 0.00067356126 0.0007176833 0.00072367147 
 5608000    404.29117   -121.85045   -844.14909    1254.2221    1132.8238    -1761.812 0.00067391563 0.00071744557 0.00072335982 
 5610000    384.86373   -121.71283   -1272.8906    1252.6853     1240.647    347.56634 0.00067363674 0.00071756369 0.00072312699 
 5612000    400.76477   -123.57361    483.50829   -4367.5746    -773.6035   -54.819827 0.0006737084 0.00071738207 0.0007230002 
 5614000    419.86836   -121.70211   -5139.2681    1446.6789   -17.720328   -1369.9212 0.00067384292 0.00071782818 0.00072317166 
 5616000    410.12931   -121.97632    1622.0694   -4828.5549    2579.7183   -288.47262 0.0006735123 0.00071786401 0.00072300997 
 5618000    366.54969   -122.37376   -3672.3057    44.387932   -4088.6141    809.57948 0.00067316693 0.00071766746 0.00072287028 
 5620000     363.0635   -121.84203   -600.55233    2136.9598    3777.7302    7381.2877 0.00067288563 0.00071757439 0.00072257685 
 5622000    383.52578   -122.79472   -381.05118    888.72318   -1117.4837   -3601.0999 0.00067272216 0.00071734202 0.00072243961 
 5624000    373.51412   -121.98531   -2802.2372   -5053.3129    5.9621929    2105.4838 0.00067252549 0.00071705788 0.0007221745 
 5626000    388.54471   -122.88333    2614.8566   -2619.4099    441.68465   -2152.2819 0.00067238406 0.00071673844 0.00072198521 
 5628000    387.99295   -121.81111    -3714.256    192.19062    3715.9368   -1735.8704 0.00067239429 0.0007169678 0.00072175104 
 5630000    383.75655    -122.8499     2908.466   -2605.6747    1554.3671    3710.4539 0.00067238718 0.00071678789 0.0007214707 
 5632000    390.21823   -122.62303   -1769.7622   -390.47606     3204.951    251.36678 0.00067333745 0.00071694887 0.00072115985 
 5634000    503.08434   -122.90466   -3812.7948   -2911.1047    1516.3761    2342.8774 0.00067326123 0.00071679784 0.00072101913 
 5636000      382.586   -121.51337    2965.9746    4144.5509   -4874.8631    1394.8284 0.00067325129 0.00071647532 0.00072080116 
 5638000    368.56943    -121.3517    -6411.692   -2815.2546   -1073.5634    2440.3968 0.00067409183 0.00071715802 0.00072073255 
 5640000    379.53513   -121.75744    1477.3098   -264.88394    1177.9804    663.25307 0.00067373849 0.00071797387 0.0007206895 
 5642000    445.93623   -121.38257   -746.83457    1207.5996   -3755.0737    1973.0383 0.00067350344 0.00071823464 0.0007204588 
 5644000    434.06789   -121.82759   -766.40358   -4424.9032    2121.5058     4137.217 0.00067328127 0.00071792189 0.00072022552 
 5646000     457.7987   -122.40675    2612.0359    5355.1256   -2522.1067    1735.7717 0.00067364282 0.00071778214 0.00072040874 
 5648000    441.42497   -122.28699   -2334.4405   -3804.1489   -1875.4369   -64.881553 0.0006737449 0.00071771673 0.00072010909 
 5650000    425.20964   -121.86104     2920.849     2610.328   -1415.0576   -1135.6675 0.00067355488 0.00071780554 0.00072011531 
 5652000    363.88432   -122.26794   -3925.7265   -3366.7777   -2954.0122    1459.2934 0.00067348769 0.00071736453 0.0007199176 
 5654000    413.17222   -122.10527   -329.21597    3468.8918    -3253.868   -2950.3828 0.0006732888 0.00071684884 0.00071965148 
 5656000    445.21885   -121.82644     635.9142   -1253.1158    2280.3886    1640.0801 0.00067323458 0.00071678177 0.00071956691 
 5658000     392.0363   -122.14208   -5813.4171    441.29754    217.61503    -250.6796 0.00067304703 0.0007169769 0.00071934591 
 5660000    393.24084   -122.58827    3622.0953   -1383.2627    3593.0768    1099.9267 0.0006729664 0.00071665809 0.0007191336 
 5662000    359.60256   -121.78277   -3970.6508   -295.38167   -27.605565   -2715.1204 0.0006726542 0.00071644614 0.00071895221 
 5664000    425.86576   -121.78152   -1630.0028   -1436.2828    2555.6815    2483.0976 0.00067244592 0.00071705204 0.00071885792 
 5666000    387.91021   -122.43127    3770.4402    1231.2737    3198.7068    1586.9421 0.00067228844 0.00071773767 0.00071865994 
 5668000    440.07838   -121.97151   -3540.1838   -1097.7162   -2867.0959    1191.3465 0.00067244675 0.00071816397 0.00071858266 
 5670000    399.80885   -121.85027    4322.2832    2015.1229     312.7791    1989.4383 0.00067210522 0.00071788766 0.00071834452 
 5672000    360.85638   -121.96411   -1805.3488    2682.6368    829.04857   -2978.4951 0.00067191605 0.00071768179 0.00071839254 
 5674000    382.19984   -121.81347   -121.73548    407.15715   -5967.5588    1592.7565 0.00067186721 0.00071739817 0.00071811358 
 5676000    415.20075   -120.99848   -397.63239    4223.2126    1247.5583   -2426.5166 0.00067260974 0.00071734684 0.00071786413 
 5678000     403.2322   -122.27252    -3857.496   -3061.6441    -1793.071    1759.2917 0.00067236352 0.00071735442 0.00071768415 
 5680000    427.62386   -122.13464    2185.0956    1700.7135   -86.666969   -2281.9731 0.00067203047 0.00071746772 0.00071751068 
 5682000    372.28705   -121.61666   -3725.9091    -1157.131   -2178.2768     723.6309 0.00067184357 0.00071745843 0.00071731561 
 5684000    445.29781    -123.2712    2171.7779    2704.2814    36.360917   -4780.0931 0.00067163169 0.00071749203 0.00071711411 
 5686000    380.04516   -122.97265    665.77369    412.74532     8.161229    3635.2461 0.00067141558 0.00071726056 0.00071706112 
 5688000     384.3129   -122.41205   -3189.1749   -111.82745    706.27193    4089.6448 0.00067124305 0.00071710063 0.00071705088 
 5690000    362.98915   -122.22763    3209.4556    1409.7424    463.47207    2315.1176 0.0006710602 0.00071681236 0.00071725977 
 5692000    420.72846   -122.03925   -4859.7036   -3876.7017    4419.1492    801.27519 0.00067088674 0.00071642753 0.00071841202 
 5694000       423.28    -121.6823    883.67899   -2958.8828   -1413.0795    3477.8096 0.00067066097 0.00071625177 0.00071806934 
 5696000    431.95813   -122.27479    232.94221   -3013.5192   -6621.5857    1596.0647 0.0006709019 0.00071610293 0.0007183047 
 5698000    344.44825   -122.08985   -3310.3632   -3386.2359    322.22132     26.55379 0.00067075107 0.00071594739 0.00071850501 
 5700000    456.75302   -121.82844    3244.3687    1371.3456    252.80102    1604.4341 0.00067050672 0.00071564553 0.00071846924 
 5702000    399.64777   -123.26151   -5185.9326    1280.7259     690.6889     2666.172 0.00067031892 0.00071536014 0.00071841638 
 5704000    386.74614   -122.27563    1821.6869    4393.4725      4960.72    1417.2761 0.00067078977 0.0007150853 0.00071851294 
 5706000    360.39616   -122.36615    -2263.252    3137.3718    2174.9117   -1419.5919 0.00067172294 0.00071483952 0.00071837226 
 5708000    428.56002   -122.21087   -2399.2268    3062.9988    2415.1113    2628.3513 0.00067218834 0.00071578062 0.00071812538 
 5710000    386.03342     -121.969     4424.263    2028.3816   -4911.8965   -1676.5385 0.00067246295 0.00071620178 0.00071770492 
 5712000    379.91426   -122.09772   -5828.2343   -4137.4832   -2385.5974     62.25651 0.00067233771 0.0007158831 0.00071834753 
 5714000    388.84928   -122.48688    5875.0745   -1771.2225   -1841.2111   -4660.1158 0.0006723016 0.00071563249 0.00071879938 
 5716000    442.62611   -121.51497   -1647.1153    230.36831   -3551.5966    1191.4884 0.00067216215 0.00071542096 0.00071866684 
 5718000    407.19258   -123.20676   -2441.7098    -1596.781    3651.6972    2444.7149 0.00067214139 0.00071600559 0.00071847761 
 5720000    399.32221   -122.80807     1889.988   -1006.9761     2413.697    3495.3287 0.00067199303 0.00071586094 0.00071826306 
 5722000     476.9637   -121.99949   -6609.8939    2232.5991    1338.0012    2192.5729 0.00067216576 0.00071545778 0.00071860481 
 5724000    419.42272   -122.60576    3320.6407   -1617.3839   -780.26079    1164.1477 0.00067248592 0.0007151563 0.00071820643 
 5726000    432.76478   -122.27097   -4846.1866    2175.3487    1311.5347   -1861.0827 0.00067229409 0.00071500119 0.00071819368 
 5728000    384.21675   -121.78125    1311.5701    1808.6728   -4054.0244    3628.1004 0.00067219425 0.00071536696 0.00071796497 
 5730000    413.10998   -121.64914    439.73992    3437.5033    251.69821    6.7323346 0.00067181124 0.00071536009 0.00071786314 
 5732000     400.0614   -121.58186   -4262.1449   -4213.4631    2007.5062   -51.584036 0.00067208169 0.00071511653 0.00071824461 
 5734000    431.01726   -121.58127    4107.1329    444.83681    4374.7352     1393.463 0.00067241598 0.00071498553 0.00071809995 
 5736000    361.56627   -122.15629   -5998.8716   -2605.0805   -423.65653   -3095.2371 0.0006724857 0.00071467925 0.0007178657 
 5738000    420.84505   -121.89739    1765.8637    2286.6199   -440.88505   -2214.8379 0.00067448177 0.0007146083 0.00071793067 
 5740000    368.69819   -122.58776    94.940381   -453.70486    5231.5244   -1127.9146 0.00067476669 0.00071441198 0.00071755664 
 5742000    398.80508   -121.99613   -3420.2605   -4560.1166    2624.6474    776.49017 0.00067513975 0.00071425727 0.00071743472 
 5744000    411.71561   -122.37519     4990.186   -6815.8537    3946.7659   -1878.8945 0.00067478899 0.00071404232 0.00071725236 
 5746000    397.86051   -121.86872   -5880.4904    2861.6116    1086.5387   -1483.1957 0.00067460495 0.00071382486 0.00071719077 
 5748000    426.61753   -121.84421     2012.967   -719.27191   -2012.3524    3175.0514 0.00067446752 0.00071373792 0.00071727576 
 5750000     368.2514   -122.19066   -1712.4604   -1044.5333     1952.424    2712.4293 0.00067423889 0.00071365482 0.00071807714 
 5752000    376.82911   -122.08047   -4113.4122    524.06881   -4106.6518   -1042.8243 0.00067403394 0.0007135806 0.0007190479 
 5754000    403.91888   -122.91234    2412.6957   -906.25131   -819.96325    391.37466 0.00067414849 0.00071383242 0.00071959789 
 5756000    401.38043   -121.95482   -3641.1411    680.68136   -535.26238    1979.8576 0.00067370615 0.00071352284 0.00071935993 
 5758000    414.61176   -123.21769    2709.9084    3291.4843   -1901.9038   -2102.1663 0.00067390337 0.00071330369 0.00071908656 
 5760000    382.69706   -122.37452   -2422.0422   -2055.8445    2103.8157   -2450.0469 0.00067371102 0.00071311898 0.00071877618 
 5762000    444.60708   -122.41119   -1545.8003   -650.76735   -960.68771   -1015.2593 0.00067356501 0.00071288302 0.0007185708 
 5764000    380.95584   -122.50782    1942.3672    264.49987   -1836.3083   -2380.5548 0.00067398878 0.00071284923 0.00071842349 
 5766000    375.88416   -122.11671   -5852.7249   -4027.0478    1210.3429   -1196.0731 0.00067426683 0.00071254814 0.00071832905 
 5768000    438.03194   -122.35676    4143.9331   -3630.8174    4014.1202    2899.2145 0.00067418545 0.00071227089 0.00071817302 
 5770000    351.41864   -121.96009   -1417.3583    4233.2629    2083.4318    6542.4888 0.00067455857 0.00071293886 0.00071833463 
 5772000    397.85305    -121.4735    494.69082   -1108.4541    1582.8277   -516.76723 0.00067443429 0.00071340036 0.00071825071 
 5774000    353.69787   -122.53986    3630.9745    3678.5324     3621.222    4540.6874 0.0006743563 0.00071383183 0.00071796523 
 5776000    435.96701   -122.24923    -4749.358   -890.37552    -2805.839    6772.6005 0.00067419315 0.00071389515 0.00071748158 
 5778000    395.50197   -122.46921    3551.5111    978.20717    5978.1458    1354.0222 0.00067368142 0.00071368607 0.00071709269 
 5780000    410.20823   -121.66246   -6159.1112    4618.1211    -1299.153    2900.9853 0.00067374122 0.00071405322 0.00071680507 
 5782000    389.02351   -122.72414   -1558.7254    319.80726    1346.9216    2365.1352 0.0006734805 0.00071411417 0.00071646353 
 5784000    374.28659   -122.66795   -629.39567    4486.1564   -2205.8684    3108.4474 0.00067332337 0.00071392021 0.00071627755 
 5786000    418.00156   -122.99009    -4762.396     2551.797   -2582.7257    1924.2644 0.00067323142 0.00071386327 0.0007159047 
 5788000    346.37416   -122.70306    5004.4122    101.89859   -613.71024    2386.6367 0.00067293892 0.00071383317 0.00071562446 
 5790000    377.88471   -122.53868   -5047.6308    202.09873    1519.1257   -2972.9207 0.00067266516 0.00071382121 0.00071546289 
 5792000    386.74471   -122.15216    3561.7744    687.77281   -779.57114    1329.3654 0.00067237254 0.0007134595 0.00071545461 
 5794000    377.93463   -122.44431   -1360.3875   -941.24057    3953.1071   -1307.4784 0.00067226448 0.00071320816 0.00071574371 
 5796000    424.49263   -122.70916   -4979.6632   -4162.3321    1448.0678   -3917.6926 0.00067190416 0.00071305432 0.00071565148 
 5798000    421.88337   -122.98307    2735.5116   -4494.6219   -1778.1435    623.35497 0.00067165162 0.00071267334 0.00071577446 
 5800000    407.33714   -122.89938   -6562.8989   -1154.3699    1179.5176    3887.0969 0.00067144518 0.00071256601 0.00071562491 
 5802000    385.19231   -122.14995     4242.198    2701.7252    -700.0099   -1145.8124 0.00067118935 0.00071279373 0.00071531287 
 5804000    378.67553   -121.76604   -2121.8687   -3499.8872    593.15209    2648.2841 0.00067162806 0.0007125292 0.00071541713 
 5806000    378.64141   -122.47896   -1837.8397    3039.5108    -2753.779    -4293.509 0.00067174769 0.00071265481 0.00071536851 
 5808000     398.9843   -122.13124    2702.7169    3077.2636   -8473.4756    1012.7035 0.00067157841 0.00071239066 0.00071507931 
 5810000    421.41774   -123.00988   -6865.7741    1763.8263    5638.9085   -3184.1151 0.00067143384 0.00071225786 0.00071518835 
 5812000    379.46319   -121.84994      4045.07    1614.2677     4648.267    3119.6417 0.00067125927 0.00071210789 0.00071551183 
 5814000    386.66084   -123.27872   -4993.5873   -3547.0771   -1483.7686   -3995.1762 0.00067229117 0.00071226778 0.00071539312 
 5816000    405.68168   -122.06563    513.03756    812.59606   -474.25213    435.68631 0.00067237879 0.00071228633 0.00071650558 
 5818000    372.19017   -122.77146    1257.5968   -1647.3255    1493.9037   -3812.2981 0.00067207236 0.00071206092 0.00071912423 
 5820000    363.72903   -122.34094   -4172.3333     6920.027   -4976.8062    781.32923 0.00067196757 0.00071205626 0.00072103693 
 5822000    401.26427   -121.83542    4851.2693    938.24313    1361.8923   -1611.0517 0.00067169165 0.00071207734 0.0007216348 
 5824000    363.57714   -121.10596   -4942.9053    3059.8408   -671.52722     6130.907 0.00067159839 0.00071173544 0.00072166688 
 5826000    418.91155   -122.21299    864.56365    1146.9232    691.06528   -2217.1525 0.0006716555 0.00071179776 0.00072138053 
 5828000    402.50694   -122.85926   -936.61201    -1888.286   -3088.7474    2708.6825 0.00067217206 0.00071166293 0.00072162173 
 5830000    440.00571   -122.42666   -3374.9557   -2351.2963    2424.8887    5076.3935 0.00067295012 0.00071138352 0.00072157755 
 5832000    368.72818   -122.54481    4167.9446    -1259.696   -2344.4005     180.6764 0.00067370912 0.00071128578 0.0007215925 
 5834000    378.58447   -121.92683   -5224.1559    272.75903   -166.50586     297.7834 0.00067363101 0.00071102195 0.00072151194 
 5836000    409.27843   -121.97478    4304.2781   -6065.0888   -1661.5932    866.11885 0.00067338135 0.00071079022 0.00072123359 
 5838000    355.06385   -122.25825   -3598.6028    4193.0086    1056.8878   -1257.3017 0.00067310267 0.00071055398 0.00072097162 
 5840000    460.45306   -122.10988   -2400.0574   -2366.2496    1099.5322   -221.43983 0.00067289989 0.00071042346 0.00072080835 
 5842000    375.53319   -121.99445    2172.8548    3148.7671    -4054.825    2715.5491 0.00067269969 0.0007107155 0.0007205929 
 5844000    383.66863   -122.59706   -6106.4928    4092.3251    3680.8529    206.18641 0.00067304122 0.00071030942 0.00072104725 
 5846000    346.89494   -122.13898    3999.6205    2962.1563    1642.5491    960.19607 0.00067277375 0.00071013116 0.00072295963 
 5848000    436.83528   -122.85492   -5400.8682   -4057.5603   -1282.1395   -2178.6175 0.00067293229 0.00071028203 0.00072369162 
 5850000    383.25745   -121.92094    549.41942   -241.38622     3109.351    6405.8561 0.00067254605 0.00070993048 0.00072360693 
 5852000    423.07235   -122.31929    1924.8301    1094.7762   -1659.7896   -528.61104 0.00067235318 0.00070970236 0.00072388362 
 5854000    411.60502   -121.90753   -5851.2439   -1483.1418    1308.3135    1407.5856 0.00067220995 0.00070947849 0.00072393853 
 5856000    452.64695   -121.33138    5415.1708   -674.98708   -2228.6571    4476.0766 0.00067200641 0.00070940997 0.00072367249 
 5858000    431.93684   -121.05483   -4395.5295    1127.7491    4023.7154   -4226.7175 0.00067176311 0.00070984839 0.00072414651 
 5860000    405.94401   -122.63408    1613.9094     1693.516   -496.25979   -1122.9764 0.00067152477 0.00070967534 0.00072428719 
 5862000    387.40504   -122.42733   -584.43849   -614.51914    1549.4564   -2095.0618 0.00067132176 0.00070959415 0.0007240021 
 5864000    392.77542   -122.16961   -5044.8397   -1305.7155   -4628.7735   -4647.5954 0.00067113598 0.00070951488 0.00072361019 
 5866000    468.41765   -122.28256    3091.4403   -2788.6703   -724.39069    6653.9836 0.00067093192 0.00070921339 0.00072323073 
 5868000    378.41197   -122.06415   -6503.2914    369.96978   -2442.4235   -1451.0865 0.00067102261 0.00070894995 0.00072295465 
 5870000    432.80066   -122.55464    2612.5065   -281.86211    1544.6798    3430.4082 0.0006717663 0.00070863347 0.00072288679 
 5872000    465.86545   -122.17891   -696.85175   -2324.4848    147.81346    4841.5241 0.00067184039 0.00070832448 0.00072262069 
 5874000     410.5802   -121.71422     -3285.28    6239.3963   -986.69519    431.92107 0.00067316255 0.00070843681 0.00072250343 
 5876000    384.20977   -121.81543    3865.5725    1688.2174   -2522.8465    2627.7114 0.00067288515 0.00070834093 0.00072224652 
 5878000    374.41792   -122.81886   -6147.5031   -1471.7464     5720.149   -4438.8508 0.00067358717 0.00070812842 0.00072199868 
 5880000    383.23228   -121.84401    4058.6961    4051.7012    626.81767    3712.3323 0.00067337149 0.00070824297 0.00072179073 
 5882000    366.61805   -122.48647   -2527.7599   -2228.9849   -1061.2835   -3798.8752 0.00067317604 0.00070801931 0.00072218294 
 5884000    395.59281   -122.67855   -1116.7865   -2898.7441    1585.3616   -177.05351 0.00067303389 0.00070783227 0.00072289948 
 5886000    400.91698   -122.80552    2275.9109   -251.74357    1890.2106   -3267.4229 0.00067284702 0.00070757314 0.00072247372 
 5888000    411.32221   -121.89639   -7129.3333    4065.4649   -1905.8971   -1161.0007 0.00067272941 0.00070759187 0.0007221787 
 5890000    384.45698   -122.66958    3287.7913   -831.91297   -1865.5761   -1523.9809 0.00067257528 0.00070723677 0.00072199364 
 5892000    388.73866   -122.66251   -5288.0428    3018.7144    2971.9204    5386.9893 0.00067244535 0.00070756889 0.00072280846 
 5894000    394.42738     -122.136   -1976.7775   -922.41868   -252.97728    6102.5677 0.00067305916 0.00070736776 0.00072456944 
 5896000    400.14711   -123.35751    1540.9467    400.25354   -2369.0931   -4987.4771 0.00067360634 0.00070724564   0.00072522 
 5898000    395.29192   -122.46137   -6040.8594    1166.8345   -1116.2401    5635.9476 0.00067364269 0.00070714094 0.00072642659 
 5900000    395.85067   -122.78359    3516.2616    938.64359   -2476.0074     1276.415 0.00067375079 0.00070695932 0.00072632388 
 5902000    358.46113   -122.17105   -2969.9077    3063.2369   -2025.3049   -6230.3681 0.00067392259 0.00070695009 0.00072748237 
 5904000    396.69364   -121.16701    1845.2789   -1650.7506    1113.1047     144.1032 0.00067448322 0.00070684606 0.00072759536 
 5906000    397.43211   -121.77108    366.03793    2801.4967   -3945.7943   -3786.9847 0.0006742806 0.00070762004 0.00072768477 
 5908000    378.62544   -122.36626   -1939.5557   -2145.9901     769.3589   -513.53564 0.00067429607 0.00070730036 0.00072772806 
 5910000     406.3117   -122.47147    3328.8662   -4816.8913    237.95213    3596.5333 0.00067399115 0.00070725993 0.00072740097 
 5912000    382.16601   -121.96784   -6010.7723    2903.1409   -105.37499   -807.93746 0.00067400493 0.00070733331  0.000727247 
 5914000    384.73536   -122.09514    1189.2459   -1504.2603   -1739.3448    1575.0808 0.00067383078 0.00070711069 0.00072696652 
 5916000     393.1473   -122.96432   -3835.8269    2023.9101   -1494.5532   -3290.1856 0.00067363789 0.00070692957 0.00072673508 
 5918000    444.91811   -121.86723   -4555.6276   -2274.1792    55.527701   -2355.9408 0.00067346632 0.00070699792 0.00072653057 
 5920000    366.27716   -122.02802     2179.864    1123.8046   -747.55243    733.01164 0.00067323466 0.00070687483 0.0007263126 
 5922000    386.08037   -120.71701   -3068.3229    3394.4615    3257.5305   -611.30667 0.00067308024 0.00070676862 0.00072607842 
 5924000     373.4794   -121.55461    4928.5373   -1680.5223    -1116.462    -825.4561 0.00067288628 0.00070671638 0.00072598855 
 5926000    449.93219   -120.62047   -1034.1262   -3049.7862    742.02551    1927.9866 0.00067268047 0.00070651986 0.0007257123 
 5928000    401.83016   -122.15241    1264.4298   -1682.2594    1288.6339    -1109.871 0.00067237752 0.00070744202 0.0007260037 
 5930000    405.01007   -122.38476    1347.1903   -237.66231   -1100.5092   -3478.1988 0.00067243108 0.00070721807 0.00072570024 
 5932000    437.10347   -122.49292   -4925.7823   -1404.8221    -2177.877   -515.26321 0.00067225802 0.0007073293 0.00072544758 
 5934000    407.76291   -121.31212    3036.9013    1781.1855   -547.19394    854.65531 0.00067208614 0.00070711578 0.00072518949 
 5936000    376.10082   -122.12781   -3285.2745    838.65687   -104.73718   -270.23877 0.00067189604 0.00070692552 0.0007249607 
 5938000    429.07352   -122.52308    813.99631    2821.3614    1651.4007   -43.359653 0.00067190674 0.00070666495 0.00072472082 
 5940000    368.65045   -121.90746    1091.9502   -3418.8077    4168.7995   -544.28809 0.00067175173 0.00070650279 0.00072459566 
 5942000    439.64227   -121.80421   -5508.6355    4305.4815    -672.8959    1048.1044 0.00067148311 0.00070627644 0.00072467741 
 5944000    410.05233   -122.61684    1606.6511    -1691.164   -1502.7266    370.26151 0.00067128162 0.00070629627 0.0007244038 
 5946000     409.2985   -122.84747      -5331.2   -110.48346   -2848.6427   -281.09527 0.00067117241 0.00070615717 0.00072454407 
 5948000     400.9116   -122.99988   -741.93141   -525.54844   -152.10492   -1921.1571 0.00067100481 0.00070644999 0.00072432593 
 5950000    372.90887   -121.58644    1792.5887   -989.05384    7592.1762    1458.9754 0.0006707143 0.00070638654 0.00072383811 
 5952000    418.53459    -122.3294    996.71591   -4654.5983   -6239.3434   -3120.2247 0.00067064945 0.00070734859 0.00072365465 
 5954000     410.5254   -122.54445    2718.6602    1308.0546   -732.80334    4584.8958 0.00067047782 0.00070746181 0.00072355726 
 5956000    402.94594   -122.40152   -1793.1507    731.96046   -2857.7806   -799.33263 0.0006711233 0.00070713062 0.00072330099 
 5958000    395.10396   -122.46219   -1387.4785    2878.5671    -1202.332    -398.9348 0.0006712774 0.0007070495 0.00072336155 
 5960000    413.99543   -122.33242   -3437.3615    805.92165   -6154.3932    2110.2499 0.00067107776 0.00070681464 0.00072320863 
 5962000    406.20013   -121.72363   -2756.6276   -8383.6826   -515.52154   -853.19343 0.00067087253 0.00070681574 0.00072299351 
 5964000    378.07769   -122.45069   -163.10977   -1273.1585   -934.55746   -1449.7595 0.0006706621 0.00070694986 0.00072287766 
 5966000    443.90222    -122.7018    897.40192    4066.7881   -4049.5666   -1831.8743 0.00067045702 0.00070715133 0.00072282061 
 5968000    398.55991   -122.43924     296.3456    4103.0467    6571.0956    604.19822 0.00067024507 0.00070735052 0.00072277646 
 5970000    413.38482     -122.197    1029.0401   -1653.8828   -202.24802    3154.9156 0.00067005439 0.00070724298 0.00072296863 
 5972000    391.52884   -122.40411   -4071.0395   -1226.7732   -1021.7398    4728.0006 0.00067000348 0.00070696514 0.00072361047 
 5974000    412.03223   -121.71759   -672.26803    2525.1122    1703.6775    1661.2677 0.00066960657 0.00070694655 0.00072421801 
 5976000    390.38622    -123.0704   -2725.6994     489.0409    4350.5452    2387.9501 0.00066926239 0.00070749055 0.00072509322 
 5978000    382.47511    -122.5146   -871.60372    2758.9564   -2623.8239    4620.6703 0.00066905985 0.00070782259 0.00072468575 
 5980000    379.67134   -121.24685     2542.955   -5152.1105    3301.2098   -4060.9784 0.00066967559  0.000708363 0.00072456417 
 5982000    366.35561   -122.68691   -1357.1355    1785.3086   -1116.1873   -589.32649 0.0006698759 0.00071052465 0.00072532814 
 5984000    407.14485   -122.57384    1833.6187    864.61493   -8141.4398   -1511.0642 0.00066981056 0.00071106997 0.00072519159 
 5986000    389.42537   -122.76417   -3196.1993    789.97536   -1770.4226    729.57947 0.00066960193 0.00071082175 0.00072550214 
 5988000    415.50703   -121.21304   -1233.6645    574.93605   -591.01904    1638.6897 0.00066930579 0.00071052864 0.0007250928 
 5990000    356.53869   -122.68479   -2532.1417   -3119.9027   -5689.8876   -633.91287 0.00066904898 0.00071083241 0.00072509223 
 5992000    381.07535   -122.39229   -3763.3047    389.59239   -2263.3928   -4417.1435 0.00066962517 0.00071080432 0.0007249925 
 5994000     411.6045   -122.16104    3824.6001   -483.53732    1131.5475    372.74223 0.00067098287 0.00071058803 0.00072474959 
 5996000    437.99872   -122.92459   -1670.9115   -2411.1828     2728.519   -2818.0374 0.00067125257 0.0007106127 0.00072496936 
 5998000    451.02335   -122.55057    2145.8532    2412.3189    -1015.274   -1123.3864 0.00067087099 0.00071059981 0.00072537713 
 6000000    378.87759   -122.03116    -240.5617    907.51795   -818.44497   -534.44754 0.00067065417 0.00071105349 0.00072552201 
 6002000    333.27162    -122.0743   -4465.6579   -6936.0256      3590.11    1569.6752 0.0006714786 0.00071121464 0.00072559505 
 6004000    398.51973   -122.15138    1122.7323    456.04281    5309.7958   -4767.4905 0.00067201474 0.00071111743 0.00072582026 
 6006000    393.58896   -122.38772   -5807.7383   -1137.7285   -5006.0816    6876.3098 0.00067180442 0.0007110667 0.00072613011 
 6008000     404.1269   -122.43082    2105.7372    79.572839    187.59826   -1389.0105 0.00067158133 0.00071112669 0.00072644118 
 6010000    417.51832   -121.44113   -1456.8821    2722.9591   -2192.8127   -2120.9339 0.00067153402 0.0007108955 0.00072643464 
 6012000    402.56622   -121.95536    548.68513   -3149.6755      616.243   -2830.6165 0.00067347532 0.00071067057 0.0007263866 
 6014000    389.64255   -122.33232    2906.7403     1610.578   -2262.0731   -5030.9032 0.0006745384 0.00071052911  0.000726056 
 6016000    417.15274   -122.51794   -5233.5082    -3966.742    -1307.779    3516.0067 0.00067510654 0.00071041512 0.00072581204 
 6018000    419.56317   -123.48879    2799.9084    3278.0417    68.170295   -2348.7066 0.00067506701 0.00071022306 0.00072560242 
 6020000    416.01559   -122.76254   -6056.0098   -882.90889    508.60986   -996.51989 0.00067483488 0.00071018699 0.00072538227 
 6022000    423.46969   -122.94762   -1429.7363    1555.9085   -2496.1783   -767.63778 0.00067612893 0.00071029928 0.00072512304 
 6024000    382.60618   -122.23359    2171.2855    4866.3068   -841.09767    1863.0664 0.00067611416 0.00071036892 0.00072487576 
 6026000     431.1019   -122.56522   -4706.0307    839.42559   -3734.3229    294.97456 0.00067615787 0.00071012239 0.0007244884 
 6028000    391.40133    -122.5395    5054.1878    6280.4648    1422.5256    8674.1847 0.00067728487 0.00070993922 0.00072426912 
 6030000     456.5427   -122.52778   -3159.2255   -745.81478   -266.57413    1190.8113 0.00067819479 0.00070975143 0.00072405352 
 6032000    404.41591   -122.70748    39.129846    4096.0979     3344.914   -1389.7313 0.00067785814 0.00070949571 0.00072385329 
 6034000    363.13228   -121.90186   -480.61838   -5625.7283   -1480.5376    1580.6685 0.00067769381 0.00070932153 0.00072387646 
 6036000    425.95364    -122.4026   -3733.4868     2186.889      -1084.6    609.69836 0.00067762261 0.00070931147 0.0007237784 
 6038000    411.72132   -122.17051    3722.0758    1365.6552    1651.9357   -3514.6314 0.00067818396 0.00070924334 0.00072354306 
 6040000     384.7066   -122.04656   -5679.3446    4812.6807   -500.84475     -2756.25 0.00067898411 0.00070949577 0.00072346049 
 6042000    408.61934   -121.02921    3044.2898   -3121.5895    105.43192    4153.4614 0.00067896489 0.00070918538 0.00072324919 
 6044000    422.59269    -122.1856    -1338.525    2445.6649    6710.8445     2538.859 0.00067901884 0.00070917577 0.00072311932 
 6046000    396.48667   -122.28929   -4865.6344   -5181.9061     2438.215    3922.7636 0.00067883662 0.0007089207 0.00072335969 
 6048000    378.36329   -121.87007    3408.1123    1226.1454   -2471.2376    1140.7927 0.00067863017 0.00070842094 0.00072340129 
 6050000    338.62521   -122.09241   -6668.4762     -1711.29    2421.3566   -401.91988 0.00067861286 0.0007098529 0.00072340644 
 6052000    423.83261   -122.22892    3792.4049    564.15942    978.79122    259.73918 0.00067902016 0.00070956566 0.00072322528 
 6054000    426.52668   -121.69439   -1013.1823   -2519.9682   -6046.7908    2141.5254 0.00067869151 0.00070937271 0.00072297906 
 6056000    370.99847   -121.74978   -108.64003   -5395.6658   -1700.8773   -511.70796 0.00067848738 0.00070960255 0.00072309149 
 6058000    408.08998   -121.69902    4235.0181    4945.4086   -376.59929   -1651.3231 0.00067814884 0.00070986226 0.0007230564 
 6060000    405.72738   -122.98015   -7376.1965   -1194.7505    -964.0499    688.85853 0.00067784013 0.00071036335 0.00072300733 
 6062000    394.21187   -122.28954    4279.4444   -2025.1774   -4562.2727   -3849.0324 0.00067772914 0.00071054618 0.00072294744 
 6064000    359.90452   -122.82174   -5831.7196    1511.0314    3264.5115    3613.0612 0.00067760671 0.00071070468 0.00072299113 
 6066000    391.08068   -123.02923   -3652.2152    1360.1413   -3484.5578    850.56836 0.00067755577 0.00071059505 0.00072263928 
 6068000    429.35571   -122.39094    5619.6741    2604.1367    1951.5171   -1830.8351 0.00067762672 0.00071045911 0.00072244363 
 6070000     404.2225   -121.80837   -7629.4109    4647.8318    1356.9509    3076.5685 0.00067743898 0.00071066286 0.00072217137 
 6072000    418.06449   -122.31647    6615.2493   -1042.2329    1735.5376   -3065.3715 0.00067739633 0.00071099402 0.00072284646 
 6074000     389.8026   -122.13662   -4112.2075    -1304.374    224.44966   -2355.5587 0.00067717874 0.00071078823 0.00072515568 
 6076000    410.83193   -122.45772   -690.65947   -1996.4364    -1569.649    315.47757 0.00067699491 0.00071054626 0.00072535434 
 6078000    426.13942   -122.24401    2150.6702    714.70067   -208.60038   -2095.8361 0.00067688982 0.00071037037 0.00072512075 
 6080000    412.38808   -122.59169   -6248.1095   -410.86757   -3044.1892   -1730.4334 0.0006767327 0.00071039862 0.00072498492 
 6082000    390.12004   -122.17725    5756.2301   -2563.5333    3291.2362   -5540.9821 0.00067669897 0.00071063976 0.0007253196 
 6084000    384.70731    -120.9721   -5367.2457    4044.7128    3146.3184   -418.64842 0.00067648298 0.00071126981 0.00072504976 
 6086000    421.68757   -121.06806     2980.066    32.826747    1830.2794   -1965.5944 0.00067674542 0.00071067232 0.00072487652 
 6088000     421.7136    -122.2934   -709.66246   -601.41602    178.40761    550.31011 0.00067678457 0.00071038852 0.00072470832 
 6090000    383.72961   -122.85154   -7359.5334   -3954.4342    2337.9484    3249.5029 0.0006769697 0.00071017704 0.00072465984 
 6092000    378.33531    -122.7211    3123.2562    3987.3709    1647.3953   -3637.3529 0.00067710452 0.00071005583 0.00072440569 
 6094000    402.76946   -121.41673   -5323.8325    -241.6587    5248.6986    896.76838 0.00067735945 0.00070972291 0.00072419127 
 6096000    423.45003   -122.79263    3637.4205   -2791.1142    4474.6081    1551.3577 0.00067711528 0.00070939134 0.00072503402 
 6098000    446.10335   -121.55348    2128.3469   -1071.9535    516.47881    1228.3045 0.0006769296 0.00070914417 0.00072614605 
 6100000    365.53516   -121.65128   -299.29362    1720.4271    1806.4058    2064.7291 0.0006771222 0.00070927883 0.00072583692 
 6102000    409.45493   -122.15467    4677.9797   -5172.2983   -6185.9821   -1167.9792 0.00067687061 0.00070918336 0.00072564296 
 6104000    421.19183   -121.89129   -7164.0678   -652.73017    768.49063     3398.355 0.0006770072 0.00070913149 0.0007265265 
 6106000    397.46425   -122.40215    2467.6595   -3231.9905   -4713.1854   -2553.2492 0.00067706634 0.00070888179 0.00072643698 
 6108000    342.29232    -122.4585   -6272.9696    3463.5732    2139.4976    2443.4041 0.00067700147 0.00070869606 0.00072640109 
 6110000    403.92076   -121.89848   -1863.1547   -829.06956   -5853.0172   -2051.2911 0.00067684529 0.00070848031 0.00072633151 
 6112000    367.11393   -122.55019    3758.2244   -5125.9072   -1493.0551     2245.032 0.00067673556 0.00070822506 0.00072608976 
 6114000    414.23286   -122.28516   -6427.1038    991.01458    992.56797    2568.1381 0.00067670786 0.00070786897 0.00072603037 
 6116000    385.54719   -122.35771     7520.439   -582.82097   -547.73195    740.10547 0.00067655642 0.00070772867 0.00072587242 
 6118000    416.03491   -122.61745   -6570.8278    296.49986     4949.736    3128.9001 0.00067645818 0.00070775857 0.00072567913 
 6120000    366.88061   -122.63488   -1333.8802    835.10969    796.49931    579.58676 0.00067618973 0.0007076429 0.00072540532 
 6122000    420.00052   -121.99921    290.67263    2779.7969    1168.5225    4556.8685 0.00067626755 0.00070729916 0.00072556967 
 6124000    404.47327    -121.9385   -6656.9483    1380.9835   -4513.7878    590.15284 0.00067609628 0.00070751189 0.00072527409 
 6126000     438.3872    -122.8253     6373.908   -3211.1617    3143.2789    560.46601  0.000675964 0.00070735886 0.00072504057 
 6128000    352.83567   -121.89355   -6050.0325     2081.625     2225.264   -938.12209 0.00067658851 0.00070712103 0.00072493254 
 6130000    396.37558   -121.94986    5810.1573    2324.3328   -2568.8663   -1631.2627 0.0006764261 0.00070697391 0.0007246213 
 6132000    395.88909   -121.32412    -498.9215    114.35839   -5764.2049    1141.4369 0.00067619884 0.00070713311 0.00072459703 
 6134000    391.99729   -121.39006   -2582.9316    4179.5785   -474.98198   -581.87715 0.00067608387 0.00070714011 0.0007244221 
 6136000    395.95924   -121.68718    4651.1413   -2099.4822    613.25797   -1846.6863 0.0006767315 0.00070690452 0.00072441556 
 6138000    380.23169   -123.34835   -9231.0405    2781.9279    2301.3943    727.04275 0.00067711659 0.00070683703 0.00072416329 
 6140000    442.75663   -123.30102    4489.9619   -679.87487    1534.6559   -835.80645 0.00067698733  0.000706647 0.00072395115 
 6142000    394.56703   -122.32911   -2044.9814    994.18035   -1118.6216   -1497.7015 0.0006768939 0.00070648567 0.00072407857 
 6144000    397.97542   -121.78361   -2408.7614    2645.4715   -361.26264   -405.28604 0.00067701705 0.00070633165 0.00072410279 
 6146000    378.92373   -121.39596     4140.167   -2399.0652   -458.55106    4406.9188 0.00067704503 0.00070616004 0.00072393539 
 6148000    414.24469   -121.65203   -8599.3757   -2021.2053    1406.0821   -4625.8345 0.00067771422 0.00070617571 0.00072396356 
 6150000    416.79068   -122.39241    5705.4855    3523.7021    782.64567   -1325.4673 0.00067785477 0.00070682625 0.0007238248 
 6152000    423.07555    -121.1063   -6160.3818   -2779.3015   -702.44854    730.63911 0.00067781314 0.00070695131 0.00072372427 
 6154000    364.97909   -122.84074    545.71598    3558.6103    3810.0679    859.01374 0.00067828429 0.0007075289 0.00072380309 
 6156000    363.01859   -122.29832    3412.9526    1473.8596    51.456506    3886.7874 0.00067845671 0.00070775529 0.00072369159 
 6158000    433.37474    -121.7282   -7340.3633    1136.3655    659.80307   -3314.2385 0.00067903649 0.0007074193 0.00072358326 
 6160000    395.67136   -121.57685    8352.5527   -5215.6345   -1072.5205     1442.783 0.00067943156 0.00070745496 0.00072369515 
 6162000    359.81421   -121.99736    -7528.381    3542.9204   -327.36127   -2468.6414 0.00067958555 0.00070769024 0.00072346504 
 6164000    408.76174   -122.04236    1078.9073    731.13238    1205.6635   -326.37923 0.00068027194 0.00070816277 0.00072336591 
 6166000    395.61756   -122.85617    1061.5514    1809.4694   -4478.9204     1680.743 0.00068041004 0.00070796087 0.00072390759 
 6168000     403.7628   -122.36642    -8017.159    -3168.739    -827.6528   -90.605895 0.00068016593 0.00070770687 0.00072356298 
 6170000    375.67048   -121.03944    5943.1709    1513.7231    1850.6974    794.13209 0.00068005289 0.00070755146 0.00072329092 
 6172000    364.88223   -121.93747   -6295.3215    3305.8858   -1642.5728   -660.37332 0.00067982294 0.00070746112 0.00072324866 
 6174000    380.73168   -122.83538    1813.0537    -8.105344    1640.4671     2981.501 0.00067972977 0.00070717598 0.00072359646 
 6176000    402.74922   -122.23314      52.6903   -777.78441    2514.7711    116.86567 0.00067949134 0.00070702622 0.0007234435 
 6178000    398.05519   -122.00422   -4284.6507     4762.571    2144.0983   -2163.5374 0.00067954641 0.00070682609 0.00072330104 
 6180000    417.60249   -121.92135    4754.2638   -588.38108    2971.7383   -2469.8814 0.00067926067 0.00070656085 0.00072326133 
 6182000    424.88671   -122.02416   -7344.1339    1588.3612   -884.02242    1388.8182 0.00067911142 0.00070642166 0.00072310236 
 6184000    389.61249   -121.81564    4392.2905    4031.0458    4635.6882    2533.8716 0.00067908522 0.00070625682 0.00072326899 
 6186000    418.90863   -121.73299   -1943.5757   -1524.0185    3658.9881   -368.33179 0.00067893078 0.00070605175 0.00072315143 
 6188000    380.47355   -122.23121   -2042.8597      -70.207   -1834.3548   -3624.6878 0.00067884483 0.00070577209 0.00072301605 
 6190000    369.69938    -121.6861    5515.4812    3719.4466    2032.9178    2113.1961 0.00067892292 0.00070555197 0.00072280661 
 6192000    436.90162   -122.74782    -8111.881    2614.8617   -11151.116   -76.378345 0.00067883277 0.00070557906 0.0007226646 
 6194000    370.73104   -122.36197    4272.2618    462.22962    4352.8485   -617.42142 0.00067883791 0.00070586618 0.0007224635 
 6196000     428.2503   -121.99801   -5738.7036    1042.3814   -2481.5777  0.043560458 0.00067859247  0.000705654 0.00072230479 
 6198000    385.97748   -120.99007   -1630.8133   -1371.5661    745.95051   -87.837324 0.00067836901 0.00070546092 0.00072231965 
 6200000    363.40639   -121.19157    3239.6795    1141.5263   -1637.5288   -2037.5248 0.00067907685 0.00070545128 0.0007220403 
 6202000    388.54438   -122.81676   -5841.7063    184.73775    -1407.364   -153.34712 0.00067899853 0.00070585492 0.00072200431 
 6204000    357.98053   -123.09423    7788.5093   -2209.6048    95.001673    186.35168 0.00067882487 0.00070577823 0.00072179674 
 6206000    422.20132   -121.63696   -5663.8447    52.011618   -4744.2319   -1834.4968 0.00067865362 0.0007054945 0.00072172593 
 6208000    414.99218   -122.04797    2575.2234    1791.5558    4512.2846    815.75186 0.00067853896 0.00070543403 0.00072143433 
 6210000    357.35139   -122.52958    -2010.178    802.30105   -2301.3195    5980.6894 0.00067826707 0.00070546327 0.00072127081 
 6212000    356.69811   -121.54544   -6822.2561     1388.748    2983.5131    2350.1155 0.00067807566 0.0007053084 0.00072126902 
 6214000    409.56468   -121.23256    5926.8189    3595.1944   -2019.6726    2230.3282 0.00067833507 0.00070515623 0.0007212094 
 6216000    423.10316   -121.48921   -6274.2335    2365.9197    791.39563    1944.7573 0.00067986143 0.00070495402 0.0007210252 
 6218000    357.21404   -122.77177     4054.502   -2877.8324   -1154.4176   -2256.0826 0.00068126743 0.00070475373 0.00072081765 
 6220000    394.32325   -122.43322   -97.811773   -657.80559    3999.0425    4965.3199 0.00068224944 0.00070461564 0.0007205857 
 6222000    443.95958   -122.35171   -4303.4436    2583.4445    97.551241    1763.1069 0.00068206041 0.00070440439 0.00072070157 
 6224000    384.29957   -121.89311      2682.97    305.54497   -2509.7861   -4163.1105 0.00068203071 0.00070447814 0.00072089532 
 6226000     417.3999   -122.08603   -7420.5578    2227.1159    2964.0682   -1129.7729 0.00068201173 0.0007046008 0.00072070824 
 6228000    371.51988   -121.10105    5077.7957   -3239.7613   -2522.7832   -1284.6513 0.00068247165 0.00070504255 0.00072047559 
 6230000    408.04542    -122.0846   -2130.7435    -476.0008   -1984.4354    3389.5363 0.00068247166 0.00070574252 0.00072021794 
 6232000     422.3231   -122.62735   -784.65444   -361.75283    1280.4308    4455.5766 0.00068235877 0.00070570766 0.00071994295 
 6234000    368.92468   -122.42964    3357.2259    1252.8924    1053.2562    2181.5056 0.00068276218 0.00070549814 0.00072049703 
 6236000    416.08724   -122.62076   -8466.4303    3726.1695   -3578.5506    5534.6712 0.00068255078 0.00070541789 0.00072071949 
 6238000    400.81296    -122.7192    2318.7651   -3170.6686   -1728.2762   -3481.7303 0.00068257048 0.0007059298 0.00072047559 
 6240000    441.63699   -123.09674   -4929.9852   -1905.7183   -2080.1547    619.37349 0.00068247231 0.00070586146 0.00072030314 
 6242000    410.60447   -122.79985   -953.53105     630.7496   -1005.6612    3932.8478 0.00068249583 0.00070562473 0.00072010634 
 6244000    378.09075   -122.04194     2680.849    1671.8689   -781.39174    3243.8374 0.00068235543 0.00070542215 0.0007198453 
 6246000    384.90443   -122.03756   -4266.4593    5064.8608    729.43857    -3118.673 0.00068217118 0.00070521094 0.00072001158 
 6248000    375.85878   -121.68688    4933.4608   -3707.4851    1050.2395   -273.00195 0.00068206811 0.00070505355 0.00071992408 
 6250000    418.66013   -122.34021   -4059.9196   -7837.4513    2396.4255    573.69386 0.00068205809 0.00070477549 0.00071984235 
 6252000    353.45099   -122.12756    339.84918    1023.2123    2240.4816    1890.9532 0.0006818273 0.00070449837 0.00071996326 
 6254000    388.97053    -122.6335   -1904.1808   -7883.6374    5081.9284    1724.6784 0.00068155859 0.0007051525 0.00072005863 
 6256000    377.57041   -122.05374    -3046.647   -3724.8387    3263.1763    4591.5791 0.0006816979 0.00070599076 0.0007202345 
 6258000    374.24408    -122.7742    2763.0823    -3723.051    162.01441   -124.38841 0.00068166092 0.00070662787 0.00071999198 
 6260000    384.88416    -121.3197   -4832.0992    3234.6133   -1678.2803    71.652774 0.0006815214 0.00070690621 0.00071976404 
 6262000    408.19508   -122.00982    2980.2639    1922.2527   -4913.1524   -36.176736 0.00068130931 0.00070721553 0.00071955688 
 6264000    423.16728   -121.16719   -3090.3344    1097.0255    3157.3973    5532.1695 0.0006811436 0.00070735228 0.00071936751 
 6266000    408.84533   -122.56555   -1788.4584   -1101.9066    5023.6175    64.824079 0.00068116194 0.00070750277 0.00071937538 
 6268000    412.54254   -122.63135    2360.7267    3757.8515   -1279.5565    -4274.941 0.00068112786 0.00070760399 0.00071952707 
 6270000    390.62365    -121.5633   -4790.0925   -2223.9195    5271.8863   -1500.5128 0.00068119421 0.00070759574 0.00071950162 
 6272000       336.32   -123.11108    3077.7068   -495.34444   -3750.4214    1136.3719 0.00068086631 0.0007074061 0.00071940679 
 6274000    436.13819   -122.40333   -2155.3926     1050.012    1782.3805   -1125.4076 0.00068066266 0.00070716059 0.00071922323 
 6276000    378.39063   -122.66331   -289.96824    2914.1441    1208.5686    1130.9923 0.00068073131 0.00070713074 0.00071912623 
 6278000    413.56635   -122.08674    1330.3351    2979.1705     689.9693   -1050.3675 0.00068229886 0.00070698741 0.00071923767 
 6280000    404.08007   -122.45871   -4985.2734    3365.5235    1827.6809    3603.1122 0.00068230982 0.00070683384 0.00071887887 
 6282000    394.99387   -123.07814    3269.4009     3111.361    -2056.218    74.569006 0.00068225709 0.00070670136 0.00071856696 
 6284000    366.29418   -122.38801   -5299.7635   -8580.7821    1009.7298    3035.2195 0.00068237937 0.00070681612 0.00071829902 
 6286000    396.18364   -121.36167    2325.8829    538.74294   -145.08511   -496.69216 0.00068228559 0.00070751376 0.00071803821 
 6288000      447.317   -121.61162     523.2809   -469.06052   -2796.9015   -3389.2643 0.0006823069 0.0007081161 0.00071797282 
 6290000    370.52107   -122.29023   -3895.7495   -580.75746   -1492.6464   -1194.2346 0.00068237521 0.00070947462 0.0007175548 
 6292000    422.76248   -122.41664    4286.0155    5243.0266   -1055.6296   -380.18122 0.00068377162 0.00070934717 0.00071730782 
 6294000    442.38147   -122.47019   -4299.6562    1706.3433    1391.4287    5463.0609 0.00068422542 0.00070911034 0.0007171572 
 6296000    422.34342   -122.69032    2382.6275    549.51612   -2067.8308    1790.2984 0.00068573203 0.00070898651 0.0007171441 
 6298000    396.14974   -121.56066   -1745.1432    936.38252    52.111983    2463.9076 0.0006858483 0.00070899164 0.0007171545 
 6300000    403.28173   -121.25884   -221.00967    2226.4867     1011.035   -2512.4708 0.00068563963 0.00070931931 0.00071705389 
 6302000    384.93081   -122.62519    1326.8407   -3247.4562    776.90334    4418.5139 0.00068546144 0.00070968108 0.00071711112 
 6304000    362.75005   -122.63442   -6447.1869   -1305.0597   -351.86641   -6501.5141 0.00068529898 0.00070941442 0.00071749125 
 6306000    351.71254   -122.03835    3515.5046   -1332.5514    2243.0398    729.24018 0.00068512272 0.00070922924 0.00071834292 
 6308000    372.91419   -122.56195   -3333.3392    2152.0556   -2545.0565    238.40758 0.00068493838 0.00070892875 0.00072039813 
 6310000    436.98219    -122.0252   -1616.8665    -1498.174    544.45917      -4455.1 0.00068476985 0.00070867718 0.00072061111 
 6312000     383.9274     -122.053    4126.3309    4385.9174    1974.7386    6899.8931 0.00068454571 0.00070846438 0.00072075076 
 6314000    411.53897   -121.83013   -4648.7189   -1985.3959    2176.8797   -3198.9569 0.00068457187 0.00070823348 0.00072130652 
 6316000    434.10668   -122.01019    2985.7805   -8.6215731   -1234.8069   -5305.3875 0.00068499375 0.00070799095 0.00072108349 
 6318000    368.03287   -122.59051   -3136.2517   -9105.1452   -1077.8086   -3865.8265 0.00068518268 0.00070768528 0.00072109077 
 6320000    422.51728   -121.68432    -2.782094    3652.5426   -2488.1234    3829.3544 0.00068497272 0.00070755888 0.00072204861 
 6322000    371.07067   -121.62557    799.14701   -5285.6062   -3149.2846   -4144.7973 0.00068491156 0.00070756323 0.00072266499 
 6324000    395.56351   -122.19659   -5179.3911    4020.9605     405.4123   -577.87822 0.00068494641 0.00070744224 0.00072279244 
 6326000    386.89481   -121.67806    4870.8426    138.60757    1874.2197    -1033.204 0.00068499095 0.00070719672 0.0007224784 
 6328000    383.76749   -122.48694   -4973.6807   -2488.3507    1367.0265    3399.6506 0.00068471586 0.00070696396 0.00072224805 
 6330000    340.49521   -122.34965   -828.12726    269.72548    226.27897    2261.4994 0.00068469913 0.00070702656 0.00072200863 
 6332000    422.70712   -121.89677    729.27926   -944.52179    847.04631   -2131.5775 0.00068476382 0.00070685117 0.00072247628 
 6334000    372.31899   -121.80117   -5285.9149   -389.98318    611.52021    2365.2606 0.00068489092 0.00070655934 0.00072238661 
 6336000    391.90019   -122.00335    4194.9413   -718.68486    1817.2053    5150.3243 0.00068464889 0.00070633485 0.00072232115 
 6338000    409.59233   -122.86086   -5030.1376   -1737.3626    1800.0995   -203.41456 0.00068433576 0.00070608979 0.00072258753 
 6340000    385.61436   -122.05945    1606.2224   -555.92619   -4939.4623    3863.2574 0.00068414464 0.00070584751 0.00072251359 
 6342000    395.66873   -120.78282   -1176.9847   -3407.8832    6158.8278    3255.4928 0.00068404524 0.00070570639 0.00072328229 
 6344000    414.23145   -122.20035   -1964.2545   -390.03091   -1442.1117   -3213.0947 0.00068380036 0.00070555136 0.00072292826 
 6346000    399.26797   -122.93952    3585.7438   -227.59296   -1187.2867   -1337.1659 0.00068358974 0.00070546558 0.00072270574 
 6348000    385.35985   -122.44313   -5075.9697   -354.29391     2201.748   -4841.4392 0.00068352594 0.00070521033 0.00072264523 
 6350000    389.51512   -122.60346    2999.4114    3966.7284    900.14905    2992.6383 0.00068342417 0.00070534966 0.00072280815 
 6352000    340.48789   -122.84718   -4019.0868   -3459.9767   -1070.2181   -4472.2185 0.00068312098 0.00070610122 0.00072476139 
 6354000     365.9527   -120.95103   -3263.7207    835.74492    1812.2583     6374.745 0.00068324384 0.00070666911 0.00072513139 
 6356000    399.84441    -122.1095    1466.3456   -2133.7352    -2372.459   -335.22939 0.00068309384 0.0007065696 0.00072589024 
 6358000    373.52543   -122.88611   -4980.9023    123.43909    1396.0723     6119.024 0.00068320321 0.00070663126 0.00072644156 
 6360000    474.75594   -122.15013    5430.4598    634.24972    2946.9645    3677.4388 0.00068289169 0.00070623699 0.00072745395 
 6362000    441.69046   -122.69831   -4047.4734    4713.7814   -2705.9707    1173.7451 0.00068269089 0.00070596284 0.00072980837 
 6364000    421.98894   -122.21196    1166.3142    3030.6611   -4091.0945    1526.6524 0.00068278341 0.00070570046 0.00073044174 
 6366000    399.11628   -122.01726    307.38062   -1849.7972   -75.841835    1060.8342 0.00068258089 0.00070529343 0.00073017908 
 6368000    415.89108   -121.13292   -4742.6966    2585.2783   -5375.4798   -1772.7903 0.00068293164 0.0007052672 0.00073023787 
 6370000    396.40834   -122.37339    4345.9928    2484.6214   -1860.9732   -378.88881 0.00068430795 0.00070507709 0.00073000804 
 6372000    405.91509   -121.70619   -5333.2008   -5407.1907    857.99852    2942.7833 0.00068431901 0.00070486003 0.00072994445 
 6374000    422.28806   -121.41549    3851.3652    5497.3601    4203.6211     1348.655 0.00068411834 0.00070460801 0.00072991852 
 6376000    392.98543   -122.33315   -1073.7551   -3677.6748   -711.79089   -619.59991 0.00068413821 0.00070453017 0.00072975632 
 6378000    392.71027   -121.88904   -3479.3292   -974.07836    3876.0135   -2936.7512 0.0006842227 0.00070439716 0.0007296304 
 6380000     344.2312    -121.7509    3165.3162   -821.79103   -1743.5732   -4039.0784 0.00068394825 0.00070420024 0.00072939893 
 6382000    372.23295   -121.55428   -7575.1929   -1587.0417    1396.3935    -189.2667 0.00068383865 0.00070412254 0.0007295267 
 6384000    398.64673   -122.40072    3032.4248   -769.36101    4235.1975   -1215.2101 0.00068360719 0.00070408368 0.0007293239 
 6386000    398.32974    -121.0916   -2249.6239    -1027.118   -1455.2204    -1296.953 0.00068340356 0.00070442762 0.00072988657 
 6388000    422.25305   -122.57206   -488.05651   -467.91479    1050.8886    1780.2203 0.00068310732 0.0007040827 0.00073008004 
 6390000    356.56101   -123.00773    2502.1529    1473.1881    -581.4872    1080.4259 0.00068312861 0.00070406621 0.00073013433 
 6392000    387.62645   -122.26358   -6309.0966   -1317.8519    4735.9013     246.5116 0.0006831201 0.00070396469 0.00072965207 
 6394000    361.29459   -121.75565      3370.64   -886.29542    2779.4058   -1157.2415 0.00068319458 0.00070383193 0.00072947647 
 6396000    385.96499   -121.49338   -4462.9835    -2762.649   -1479.3241   -557.23898 0.00068307359 0.0007038755 0.0007291485 
 6398000    399.61051   -122.48527   -646.99646   -1291.2571   -1787.6328    4620.1951 0.00068305267 0.00070464786 0.00072899039 
 6400000    443.32076   -122.40877    2046.6414   -2294.8162    1745.2454   -226.10614 0.00068295635 0.00070727037 0.00072877664 
 6402000    426.28794   -122.40545   -3285.1567    4543.1179    2124.6216    78.654544 0.00068273569 0.00070744225 0.00072862057 
 6404000    382.88023   -122.56857    3216.3301   -2596.4021    2356.0401   -86.003419 0.00068282281 0.00070726868 0.00072862325 
 6406000    419.31268   -122.59322   -4012.6248   -1282.1465   -2509.7807   -2090.5862  0.000682797 0.00070734556 0.0007284903 
 6408000    411.85368   -122.02557   -510.28431    87.672384    6672.3319    2697.4025 0.00068304543 0.00070700528 0.00072837184 
 6410000    430.95991   -121.64578   -1030.4492    1920.7238   -2356.8308   -4590.7083 0.00068321936 0.00070701731 0.00072817438 
 6412000    412.95115   -123.42425    -2666.164   -2149.4312   -1393.5428   -3594.2065 0.00068310929 0.00070668046 0.00072805791 
 6414000    362.03341   -122.33742    4130.6966    5353.7899    2433.6592   -886.33963 0.00068299641 0.00070653926 0.00072828312 
 6416000    376.06855   -122.95779   -3626.3674    4829.2143   -2862.5321   -1916.7821 0.00068287671 0.00070657345 0.00072902933 
 6418000    410.05214   -122.92539    3144.5872   -3291.7102   -1051.1779   -3088.9617  0.000682605 0.00070666679 0.00072911277 
 6420000    409.28146   -122.77198   -1534.2822   -1173.0786   -2737.8003   -1766.5758 0.00068241926 0.00070644081 0.00072907467 
 6422000    403.38088   -122.85516   -3314.3764   -1713.6584   -2099.6602   -970.43153 0.00068221603 0.00070643062 0.00072881054 
 6424000    429.62128   -122.88885   -1015.8571    3593.0923   -64.046342    1578.4485 0.00068241291 0.00070611596 0.0007288471 
 6426000    411.63874   -121.92972   -6589.8761   -1885.1723    1061.3401    1544.6867 0.00068216318 0.00070616776 0.00072872747 
 6428000    370.15693   -122.40048    2303.2165    3648.0272    4398.3891    1272.5375 0.00068200842 0.00070620704 0.00072840029 
 6430000    377.26308   -123.03976   -2404.4067    749.53144   -1623.2465    5196.0146 0.00068174227 0.00070610541 0.00072838095 
 6432000    411.05504   -121.95365    1733.5209    3760.5027   -916.89194    -3571.339 0.00068188574 0.00070600756 0.00072825425 
 6434000    401.37948   -122.26366    2648.5092   -877.44311   -907.40401    3220.5987 0.00068147276 0.00070601719  0.000728512 
 6436000    394.63538   -122.75236   -3882.7654    5.0791234   -1400.1612    58.340272 0.00068150722 0.00070572464 0.00072846842 
 6438000    404.41758   -121.38976    4289.2746    1450.9974    -1567.495   -6559.7003 0.00068166421 0.00070552672 0.00072864396 
 6440000    398.11796   -122.79775   -5088.6417   -4416.3581    565.68374    5725.9531  0.000681494 0.00070529813 0.00072841167 
 6442000    383.52956   -121.72091    1203.1847   -431.44222    2039.7647    406.99843 0.0006812875 0.00070522146 0.00072820649 
 6444000    387.28524    -122.2019   -1209.7742   -2972.2011    614.64228    3541.3967 0.00068106125 0.00070491826 0.00072793129 
 6446000    379.67384   -121.71005   -3271.9308    1202.3943   -2738.4654    5079.3656 0.0006810166 0.00070472238 0.00072820788 
 6448000     384.6255   -122.17368    2719.5435    2987.7155   -214.35966   -1454.4756 0.00068115108 0.0007049201 0.00072835495 
 6450000    442.79842   -122.74047   -5108.3176   -2948.4436   -1509.0658   -2752.4871 0.00068098309 0.00070660063 0.00072818953 
 6452000    404.69954   -121.36084     2677.342    2869.0196   -3200.6762    4371.6882 0.00068081597 0.00070794671 0.00072796976 
 6454000    396.16143   -122.45047   -2238.6115   -1244.7101    3755.0506    -4159.599 0.00068060205 0.00070752649 0.00072791378 
 6456000    403.95676    -122.0883    -2835.903    1157.7044    1021.7843   -73.922254 0.00068036224 0.00070737674 0.00072772057 
 6458000    405.87481   -121.64212    3202.9679   -349.18885    4049.8569   -422.72688 0.00068013996 0.00070774614 0.00072755594 
 6460000    384.74044   -123.17661   -4925.4126    764.58016   -570.46409    145.12359 0.00068000635 0.00070724968 0.00072774962 
 6462000    481.56608   -123.18055    3952.1233    1737.3873   -1129.3005    977.11046 0.00068014497 0.00070712109 0.00072759331 
 6464000    428.33966   -122.52072   -1556.5302   -566.30937   -535.86092   -244.57262 0.00067985851 0.00070695072 0.00072741552 
 6466000    398.07083   -123.42245   -3417.9107    -2903.674   -1925.8687   -3069.7155 0.00067999145 0.00070691113 0.00072719613 
 6468000    387.91584   -122.81019   -295.13081    732.75012   -1230.9408   -617.06921 0.00067967504   0.00070671 0.00072698567 
 6470000    399.36316   -122.07432   -6148.4947     1309.454    2695.5072   -1110.3314 0.00067949381 0.00070659538 0.00072689564 
 6472000    321.07235    -122.5888    2117.4969    3694.7134    291.40917    964.00085 0.00067980675 0.00070644184  0.000727081 
 6474000    459.08544   -121.66592   -2574.2449    2057.0314    2921.4223     1984.584 0.0006805916 0.00070629783 0.00072721767 
 6476000    398.53082   -121.68321    2772.2535    2650.0871    2979.9746   -2976.7098 0.00068040704 0.00070615734 0.00072794666 
 6478000    376.50141   -123.24891    2737.2474    -1217.007    1482.1414    478.32101 0.00068019537 0.00070592132 0.00072808255 
 6480000    467.20368   -123.28838    -2905.962   -4707.9062   -1786.4255    3335.1891 0.00067997098 0.00070575109 0.00072808021 
 6482000    379.99706   -123.07355    3024.2696    579.28554   -2862.6696   -3580.3967 0.00067992977 0.00070551791 0.00072793018 
 6484000    465.67843   -122.24663   -7397.3195   -2477.3417   -1857.6037    2221.1685 0.00068005143 0.00070539846 0.00072768173 
 6486000    400.00466   -121.80989     -1159.97    -5252.124    1281.8153    2464.0527 0.00067978866 0.00070578193 0.00072799957 
 6488000    470.99257    -122.9754   -1138.2096    3988.1242   -824.10435   -2116.6484 0.00067986537 0.00070569757 0.00072791414 
 6490000    363.19705    -122.0747   -2893.9607   -2023.6722   -1830.3845    589.98291 0.00067992376 0.00070571535 0.00072771828 
 6492000    394.07841   -123.54776    4327.8449    1865.6812    4570.0056    -296.3514 0.00067982226 0.0007055596 0.00072739424 
 6494000    517.41102   -122.84187   -3757.8242   -1195.4127   -1470.0766   -4881.3783 0.00067955615 0.0007054598 0.00072715166 
 6496000    445.60267   -121.87805    2150.7322     1274.514   -1714.0836     4952.675 0.00067938711 0.00070540353 0.00072714351 
 6498000    390.75465   -122.23224   -725.23566    2982.9146    263.25904   -2182.2488 0.00067948406 0.00070518571 0.00072768013 
 6500000     382.5453   -121.58772   -3999.1563   -1094.7753    880.75163   -2552.6396 0.00067953792 0.00070509907 0.00072785173 
 6502000     355.3018   -122.30243    3808.1497   -2760.3317   -1760.0439   -2185.8121 0.0006793303 0.00070492847 0.00072766931 
 6504000    393.82013   -122.67396   -3400.0672    2865.6995    5936.7317   -1623.0596 0.00067922747 0.00070470834 0.00072763189 
 6506000     400.7196   -122.65556    3320.5796    1035.5027   -869.02384    630.35172 0.00067916221 0.00070464035 0.00072753003 
 6508000    374.38035     -122.615   -617.71447   -3763.6862    2111.7658    532.52132 0.00067937976 0.00070438123 0.00072737727 
 6510000    445.21042    -122.7766   -3813.8144    1990.7417    2572.6785    714.85941 0.0006796761 0.0007041275 0.0007271483 
 6512000    410.42093   -122.45029    641.61263   -2401.2743    463.42368   -1495.1071 0.00067953936 0.00070393354 0.00072703633 
 6514000     384.1041   -122.17563   -6894.4909    952.91663   -1252.5463   -1431.6302 0.00067934987 0.00070375493 0.00072682856 
 6516000    397.78739    -121.3782      3737.52   -104.05552   -2661.6739   -902.54826 0.00067920456 0.00070373582 0.00072671186 
 6518000    402.25708   -122.20567   -2860.9748   -174.93914    347.49915    4347.9679 0.00067915626 0.00070371613 0.00072685058 
 6520000     398.0452   -121.96777    3807.2983   -2225.7834   -1368.9489   -4847.1721 0.00067922475 0.00070363927 0.00072662958 
 6522000    416.35489   -122.17254    3465.8585   -2998.8701   -2262.6842    3457.2969 0.00067988236 0.00070345584 0.00072643409 
 6524000    403.26935   -123.01817   -3523.9784     2190.074   -3124.6868    -2994.899 0.00068020427 0.00070365427 0.00072726628 
 6526000    368.45612   -122.59719    3157.6451    -2279.141   -479.13741    706.85348 0.00068036978 0.00070363831 0.00072787066 
 6528000    435.83857   -122.11669   -6887.8013   -214.12951   -5320.7851   -943.51122 0.00068078453 0.00070336855 0.00072859523 
 6530000    411.59455   -122.20011   -400.97678    2765.0879     139.6461   -124.57152 0.00068336371 0.00070317234 0.00072899031 
 6532000    405.28646   -122.14121   -1826.4959   -2016.9798    -3380.334    4791.5494 0.00068344811 0.00070297853 0.00072853999 
 6534000    381.23267   -122.10357   -3222.1915    2770.8357    3769.7777   -4636.0228 0.00068324045 0.00070302559 0.00072846178 
 6536000    401.41763   -122.34729    4934.4159    1309.0234     484.7114     4600.833 0.00068346992 0.0007030093 0.00072824417 
 6538000    417.42194   -122.99008     -4726.95    2273.5627     773.0201    1393.0529 0.00068360444 0.00070299049 0.00072818121 
 6540000      405.181   -122.24827    4597.5838    2441.6207   -1270.4336    3959.6666 0.00068340271 0.00070309396 0.00072815351 
 6542000    395.93826   -121.78675   -3681.8823    2601.3705   -3002.4338    2352.2947 0.00068332062 0.0007028614 0.00072773105 
 6544000    410.58318   -121.37759    -1660.431    254.75679    2768.9245     366.4245 0.00068327791 0.00070270014 0.00072743547 
 6546000    444.59331   -122.41187    2552.5696   -1054.3216    3381.9201    2798.7931 0.0006830815 0.00070255033 0.00072757056 
 6548000    360.14056    -122.8704   -6157.8204   -59.125033     2374.388    1411.0907 0.00068302944 0.00070236356 0.00072743862 
 6550000    406.35552   -122.69319    5621.6116    270.72904   -240.15689   -822.22049 0.00068318303 0.00070217101 0.00072745146 
 6552000    417.61505   -122.41612    -3683.764   -2914.9985   -4691.8705    1223.3801 0.00068308078 0.00070193528 0.00072713573 
 6554000     358.2449    -122.1481   -1549.7324    1410.2795    4454.0832    -202.1561 0.00068293836 0.00070182476 0.00072707121 
 6556000    355.25217   -122.25866    -1040.763    346.17251   -1819.1357    -5509.723 0.00068267253 0.00070174996 0.00072682634 
 6558000    380.79548   -123.29923   -6645.2327   -1010.0843    3747.3142    2613.5367 0.00068240513 0.00070151063 0.00072670898 
 6560000    410.34816   -123.49304    4042.2583    830.91343    2619.8622    334.79138 0.00068222561 0.00070123114 0.00072658524 
 6562000    432.15695   -123.35263   -3858.8066   -1459.2924   -2828.8095   -2930.5536 0.00068216156 0.00070130014 0.00072639282 
 6564000    427.82905   -122.70402    5752.6876   -3926.7961    5646.8827   -285.32098 0.00068222935 0.00070129728 0.00072649484 
 6566000    391.23112   -122.08328    2429.3347     1729.693   -758.15186    1305.6019 0.00068220409 0.00070111079 0.00072612757 
 6568000    402.88104    -122.7054   -3764.4235    1457.5081       3703.1   -1742.1985 0.00068216242 0.00070093036 0.00072600348 
 6570000     396.1068   -122.39197    2723.3364   -4775.2261   -551.39196    1010.6548 0.0006821935 0.00070076583 0.0007257481 
 6572000    386.69227   -122.14952   -7651.2011    795.14014   -326.72027    1624.8713 0.00068190891 0.00070052486 0.00072549532 
 6574000    421.90979    -123.0064    1341.6921     1363.272    486.20344    2922.7863 0.0006816132 0.0007007086 0.00072525656 
 6576000    422.15191   -121.82457    1450.1093   -2941.3431    3301.5604    2312.1122 0.00068153403 0.00070085569 0.00072585035 
 6578000    344.81435   -121.85373   -1459.3967    3907.6633    -707.6402    3902.3608 0.00068153734 0.00070101945 0.00072603486 
 6580000    454.73726   -122.82808    3335.7168   -2634.9545   -3501.6678    4456.8145 0.0006820658 0.00070119369 0.00072599727 
 6582000    377.26753   -122.26551   -5761.1804    -248.2967    -106.9282   -3803.1216 0.00068194517 0.00070115202 0.00072541349 
 6584000    420.61651    -122.2879   -132.02418    341.81484    1913.7107    721.14998 0.00068194849 0.0007010066 0.00072530751 
 6586000    379.14009   -121.52514    -5520.568   -491.46997   -3344.9984    3248.6426 0.00068215782 0.00070078232 0.00072520024 
 6588000    428.45906   -122.69119   -1670.4141   -1516.3691    704.25928   -3480.5738 0.00068215315 0.00070099861 0.00072508115 
 6590000    420.70165   -122.22592    3703.7444   -2231.0298    1969.8285    3159.1803 0.00068201557 0.00070104426 0.00072494372 
 6592000    392.45878   -121.47416   -3742.8547   -66.877666   -1229.9631    295.92874 0.00068256209 0.00070090113 0.00072468066 
 6594000    384.87392   -121.89413    6439.5785    -1739.538    698.86263   -842.61349 0.00068332039 0.0007007591 0.0007246109 
 6596000    421.93212   -122.08517   -3391.6493    2765.4183    579.53459    -2381.408 0.00068328772 0.00070122755 0.00072497858 
 6598000     415.7665   -122.93283   -5393.2239   -1128.4476    -3734.824    2990.9781 0.00068305983 0.00070102215 0.00072488461 
 6600000    394.00704   -122.62595    1946.3398   -1306.4954    8428.2451   -3888.6648 0.00068279233 0.00070092804 0.00072577716 
 6602000    403.56463    -122.1141   -8187.8507   -1860.4266   -2449.2391    1033.9439 0.00068261256 0.00070093878 0.00072561271 
 6604000    396.96332   -122.39888     4203.418   -368.65778     306.9553    4737.6175 0.00068247799 0.00070088585 0.00072551801 
 6606000    397.32373   -122.40875   -867.63744   -1688.5965    -3965.729   -1427.2406 0.00068228725 0.0007012318 0.00072539015 
 6608000    400.22045   -121.53163    773.93455    1031.9215   -3438.9425    -2902.858 0.0006821435 0.00070115511 0.00072526596 
 6610000    439.98045   -122.26006    3794.9186    125.94767   -179.89803   -1867.8407 0.00068216182 0.00070100866 0.00072514855 
 6612000    394.81924   -122.37612   -7486.3684    4391.0791    668.72534    4234.3039 0.00068211097 0.0007010472  0.000724992 
 6614000    397.57435   -122.19306    3934.9297    768.17639   -3688.6699    732.06279 0.00068187085 0.00070109982 0.00072484273 
 6616000    367.59523   -122.69404   -6073.3894   -1435.4025   -1852.7092   -1187.7968 0.00068195917 0.00070090524 0.00072465806 
 6618000    377.71978   -123.18545   -890.00588    1276.0979   -2593.5503     -3236.57 0.00068163728 0.00070067332 0.00072455939 
 6620000    396.51923   -123.04994     3669.134   -7330.8243   -2736.7189    822.95475  0.000681769 0.00070054174 0.00072493205 
 6622000     367.0653   -122.46864   -5980.0152    1436.9265   -1781.8904   -367.47998 0.00068204157 0.00070053616 0.00072475643 
 6624000    392.21117   -122.92651    4512.7568    1064.9079    1450.0972    3907.6673 0.00068182512 0.00070078409 0.00072450991 
 6626000    388.02432   -122.98239   -5964.1863    955.30019   -1671.9033   -38.118464 0.00068154585 0.00070097192 0.00072427466 
 6628000    390.39193   -121.81842   -124.25759    -73.62385     3247.693    1525.0448 0.00068133082 0.00070129096 0.0007240321 
 6630000    378.09089   -122.38969   -129.36023   -3455.4696    3609.2861    1117.4174 0.00068131106 0.00070151194 0.00072404041 
 6632000    443.30003   -122.33902   -4299.6706   -1872.6148   -703.64903     4014.643 0.0006810509 0.00070198675 0.00072401021 
 6634000    381.20339   -122.10594    5451.8225   -2543.6852    5305.0718     3011.963 0.0006808016 0.0007023274 0.00072377911 
 6636000    346.87407     -122.143   -4773.1032    1140.5257   -877.96415    1844.5705 0.00068066185 0.00070345757 0.00072351061 
 6638000    426.05223   -123.07542    2260.9676    1236.3314    1413.9623   -1762.2276 0.00068040456 0.00070374493 0.00072325942 
 6640000    402.09436   -122.24834   -2552.2803   -3511.7388    1873.5421    1841.6769 0.00068025004 0.00070358443 0.00072320268 
 6642000      363.837   -122.01422   -5128.8635    502.83779    390.97507   -7634.6665 0.00068021884 0.00070369528 0.0007230064 
 6644000    335.34806   -121.31386    2868.5635    812.08433   -1976.9802   -1946.9979 0.00068076819 0.00070369636 0.00072278843 
 6646000    371.67823   -122.17144   -6138.5168   -870.11707    3393.9594   -3817.7636 0.00068097199 0.00070430887 0.00072263742 
 6648000    425.55326    -121.6863     3960.404    886.17761    127.50178   -1789.7114 0.00068155992 0.00070425407 0.00072232682 
 6650000    401.24593   -122.16558   -2082.0983    722.07525    3390.2102   -1894.3086 0.00068173549 0.00070412613 0.00072271542 
 6652000    390.69055   -122.94671    -649.2341    2860.2588   -3245.0703    -794.4326 0.00068148951 0.00070463622 0.00072348644 
 6654000    384.14841   -122.03693    3021.8933   -4882.5955    3181.3584    4378.7818 0.00068211331 0.00070501923 0.00072414217 
 6656000    392.40413    -123.3024   -6701.2343   -40.843304   -585.64243   -4507.4733 0.00068181536 0.00070473973 0.00072438778 
 6658000    381.19301   -121.98572    4458.9253    -1625.787    1682.4629   -5096.7432 0.00068165951 0.00070450433 0.00072436809 
 6660000    377.19083   -121.62483    -4435.854    830.54545    866.82356   -564.67481 0.00068154296 0.0007042844 0.0007242769 
 6662000    401.74952    -122.3562    152.61156    2621.4673    745.83975   -1979.7897 0.0006813308 0.00070418914 0.00072460877 
 6664000    418.00428   -121.52201    1194.4694    11.418787     692.0283   -2233.2694 0.00068138397 0.00070396481 0.00072452098 
 6666000    364.98061    -121.5444   -5049.8537   -3516.1118   -7915.1645   -3157.9931 0.00068119553 0.00070388738 0.00072426379 
 6668000    397.32598   -122.28267    4376.4527    1604.3318    3192.8152    2722.6376 0.00068100756 0.00070386378 0.0007242565 
 6670000    370.92043   -122.52198   -4575.8445     136.0701   -2132.8192   -3254.4838 0.00068086683 0.00070378544 0.00072408122 
 6672000    404.79908   -122.40778    3239.5301   -779.89201   -697.45259   -713.35279 0.00068069354 0.00070374112 0.00072401502 
 6674000    397.78346   -121.60264    561.25571     1289.747     4570.101    927.21367 0.00068058364 0.00070374229 0.00072423171 
 6676000    426.62523   -121.88406   -3400.4203   -1152.0991    813.85929    1571.1153 0.00068036123 0.00070378164 0.00072471287 
 6678000    401.12742   -122.74744    4655.5224    4018.6082    4416.4487   -1026.8248 0.00068026213 0.00070381784 0.00072490306 
 6680000    364.73176   -121.83695   -6544.9301    3101.4653   -1234.2397   -606.42607 0.00068069277 0.00070361071 0.00072471106 
 6682000    399.73195   -122.38313    3850.4503   -5430.6512    1417.5354    665.39192 0.00068101836 0.00070347414 0.00072449914 
 6684000    362.39929   -122.69547   -2173.2157   -1524.4668   -1913.3463    1197.4324 0.00068085638 0.00070353054 0.00072430117 
 6686000    462.73391   -123.78046    -3394.053    1134.7962    1223.7918    4201.1462 0.00068067505 0.00070329749 0.00072403929 
 6688000    459.82351   -121.94874    4171.8818    463.51201   -2396.6216   -1927.6211 0.00068117963 0.00070408446 0.00072416232 
 6690000    396.39869   -122.64258   -7871.9779    3338.6339    778.65287    -516.1599 0.00068115523 0.00070519041 0.00072411616 
 6692000    381.34895   -122.55452    2784.5414    1068.4954    2033.5667   -235.96917 0.00068112566 0.00070554702 0.00072394561 
 6694000    390.78099   -122.80826   -5140.3184   -3053.3097    2640.6408     4864.018 0.00068201148 0.00070525137 0.00072382721 
 6696000    408.08303   -122.41247    109.89613     1054.286   -1282.4601   -2964.8197 0.00068194274 0.00070506371 0.00072367376 
 6698000    399.77683   -121.45898    3681.5039   -3941.4876   -1132.7393    662.75258 0.00068178296 0.00070487301 0.00072350251 
 6700000    444.14784   -122.82321   -4929.3393    891.45662    1321.1951   -4194.9734 0.00068163069 0.00070473667 0.00072331207 
 6702000    408.55432   -121.96524    8187.8859    5339.4042    3587.4712    5410.4149 0.00068186142 0.00070445204 0.00072324408 
 6704000    385.44269   -122.79311   -6562.0455    683.09844    2572.0424    2558.1054 0.00068165396 0.00070414416 0.00072306607 
 6706000    379.72833   -121.96024    981.93066    3808.2839    2865.4727   -1510.0059 0.00068214428 0.00070396065 0.00072296027 
 6708000    380.03844   -122.89618   -882.05615   -2354.8949    44.457113      4507.25 0.00068225316 0.00070384322 0.00072310371 
 6710000     427.5689   -122.12928   -8785.6341   -3143.5674    1702.8777   -676.95376 0.0006821522 0.00070388426 0.00072285275 
 6712000    407.79232   -122.99088    5674.8336    2082.9613   -1267.9089    1295.7748 0.00068223388 0.00070368712 0.00072276831 
 6714000    395.15245   -123.63346   -7231.5607   -887.14273    2282.0966    -2611.948 0.0006820744 0.00070354889 0.00072236906 
 6716000    407.24907   -122.29013    3001.6615   -1401.1636   -948.36954    1854.3945 0.00068199702 0.00070338718 0.00072232534 
 6718000    407.32091   -122.17519   -815.70811    2860.0818   -2975.4346   -2659.2685 0.00068240581 0.00070322005 0.00072259803 
 6720000     390.3164    -123.0728   -2966.8859   -1130.4304    174.46842   -226.85484 0.00068219787 0.00070304485 0.00072267223 
 6722000    396.17666   -123.41449    5770.8167    4129.7007    1291.0822    1383.0343 0.00068203637 0.00070356217 0.00072268774 
 6724000    401.35369   -121.96199    -9287.342   -3295.6307   -2083.7574   -3004.1855 0.00068187996 0.00070385524 0.00072242743 
 6726000    436.75413    -121.7889    8667.9201    3278.9877    551.97705   -2616.3057 0.00068171697 0.00070403208 0.00072252718 
 6728000     410.1752   -122.43263   -4716.6582    2208.5145     4627.255    717.57321 0.00068161161 0.00070380876 0.00072283542 
 6730000    405.70051   -122.30294   -1882.4209   -307.16285    2916.2221      599.152 0.00068154081 0.00070361875 0.00072295291 
 6732000    372.16068   -122.62974    2168.5541   -2608.8253    10029.777   -2369.1815 0.00068148043 0.00070397029 0.00072293091 
 6734000    412.91343   -122.41102   -9906.8491     -4545.02    851.55334    6836.9585 0.00068135742 0.00070373538 0.00072290125 
 6736000    416.59173   -121.84201    5842.2468   -274.65311   -1426.5538   -1268.4437 0.00068131966 0.0007035758 0.00072273927 
 6738000    363.81553   -122.09939   -7577.2654    2000.3619    1286.1869   -278.91984 0.00068120959 0.0007033681 0.00072285397 
 6740000    428.15774   -120.94379       5105.4     -1694.58     3.505569   -4051.7078 0.0006811603 0.00070332103 0.00072275053 
 6742000    404.49054   -123.35715    2678.4541   -380.31619   -1590.4041   -4654.3135 0.00068100944 0.00070303738 0.00072386028 
 6744000    420.81873   -122.07027   -5914.6367   -1736.1013   -1354.5904    3271.0568 0.00068080661 0.00070302493 0.00072366839 
 6746000     434.0508   -122.16537     10011.81    -6085.449   -891.16292   -3308.8718 0.00068063773 0.00070273769 0.00072374475 
 6748000    387.40849   -122.96865   -9884.8446   -436.16531   -3237.0669    5236.8842 0.00068041547 0.00070253874 0.00072358242 
 6750000    369.02997     -121.972    2963.2086    2081.2024   -3003.9092    -1298.503 0.00068030895 0.00070237727 0.00072347677 
 6752000    394.97347   -121.73235    -4333.283    2242.6621    124.60908    838.47077 0.00068024018 0.00070223265 0.00072345812 
 6754000    417.92907   -121.39444   -4039.3201   -2513.8043    771.24075    5045.6667 0.00068003775 0.00070235155 0.00072358938 
 6756000    402.21894    -122.3913    5339.0648   -1166.4909   -520.07388   -342.17449 0.00067981114 0.00070228369 0.00072332079 
 6758000    419.14231   -123.31051     -10655.2    37.576717   -3404.1156     2328.832 0.00067970421 0.00070227595 0.00072345507 
 6760000    411.61258   -121.81349    8585.1848    5791.5199    -4517.532     1496.482 0.00068000803 0.00070309558 0.00072324577 
 6762000    380.09128   -121.77922   -5593.1724    5831.6725    1164.5865   -2186.3665 0.00068003322 0.00070283459 0.0007230565 
 6764000    393.95482   -121.14489   -2321.3555     2072.573    -4651.525     28.96657 0.00067982235 0.00070260396 0.00072295644 
 6766000    428.21217   -122.24026    5756.8206    3442.9913    344.05833    5884.9253 0.00067993325 0.0007024707 0.00072275772 
 6768000    387.04733   -121.89976   -5975.0424   -2130.5951    377.86604    3708.4056 0.00068026412 0.00070254215 0.00072295287 
 6770000     389.4519   -122.44175    7595.9931   -2195.5009   -726.71835    2476.3573 0.00068005268 0.0007031544 0.00072286643 
 6772000     408.5482   -121.63591   -3753.4395   -1267.3731    1248.1225   -942.74378 0.00068036417 0.00070316044 0.00072280605 
 6774000    357.98762   -122.56755    274.65285   -4969.9892    3804.8642    6092.9745 0.00068019447 0.00070337984 0.0007226795 
 6776000    384.19207   -122.74235   -2036.0192    3850.4596    1864.7745   -4756.6375 0.00068004168 0.00070324672 0.00072280208 
 6778000    450.93712   -122.15806    -10580.78   -804.54277    965.84107   -518.69518 0.00067996282 0.00070335524 0.00072286763 
 6780000    399.41544    -122.3078    5030.8562    1221.1713   -1938.0097    119.55854 0.00067977027 0.00070330371 0.00072290216 
 6782000    433.13842   -122.02439   -9943.6521   -6454.2721    1712.2714   -3989.4178 0.00067964301 0.00070334441 0.00072275505 
 6784000    371.56839   -121.19035    3967.2967   -548.85344   -4642.1393     1813.686 0.00067974521 0.00070314872 0.00072279975 
 6786000    380.57747   -121.78997     4072.248    56.788267   -2639.7087    2770.8586 0.00067978496 0.00070299157 0.00072280496 
 6788000    373.94568   -122.17645   -4634.2616   -790.67047   -3180.5632   -1274.4499 0.00067959989 0.00070278334 0.00072249095 
 6790000    392.53037    -122.0954    7552.7336   -250.66822   -2625.8657    3955.1112 0.00068043932 0.0007025193 0.00072231848 
 6792000    448.32397   -121.88035   -6778.6328    2811.2984   -657.85606    -1784.839 0.00067989046 0.00070228193 0.00072214332 
 6794000     367.2164   -122.10786    2600.7737   -3421.5892   -3465.0687    1429.7093 0.00067985346 0.00070215102 0.00072234026 
 6796000    399.27038   -121.15492   -2300.0972    3870.8356   -1429.5978   -3093.4713 0.00067961461 0.00070201789 0.00072250974 
 6798000    386.66882     -122.022   -4416.2797   -2333.3737   -2938.9916    407.66312 0.00067973964 0.00070261998 0.00072306168 
 6800000     384.2238   -122.43275    7161.1769   -520.81205   -203.27062   -2957.3332 0.00067954459 0.00070284622 0.00072299968 
 6802000    361.24534   -123.10718   -11054.701    5081.6365   -1465.0454    2435.2988 0.00067931109 0.00070269334 0.00072283186 
 6804000    373.17782   -121.71232    6300.7744   -3643.5963   -2405.0853    1393.3738 0.00067916043 0.00070268976 0.00072299573 
 6806000    371.86178   -122.85012   -5737.9864    2632.6429   -3433.5297     -641.865 0.00067900739 0.00070286569 0.00072328671 
 6808000    385.05985   -121.77225   -4792.9164    175.21079     5043.084    1648.8043 0.00067912479 0.00070260749 0.00072301236 
 6810000    371.63037   -122.20141    5697.8774    514.01166   -742.09928   -616.02643 0.00067922215 0.00070248223 0.00072299697 
 6812000    397.31769    -121.9479   -7999.4369   -1409.9013   -278.85345   -3114.2001 0.0006791811 0.00070235117 0.00072276461 
 6814000    433.69084   -121.56517    8888.9862   -662.53982    297.27553   -3062.9608 0.00067920621 0.00070293165 0.00072326434 
 6816000    429.46528   -122.04395   -5267.9049   -2337.3513   -2698.5608    6946.6671 0.00067898599 0.00070333502 0.00072303766 
 6818000    371.67768   -121.67869    523.36441   -1703.8367    2487.6018   -159.41375 0.00067870901 0.00070310685 0.00072296031 
 6820000    450.24553   -121.05444     2700.918    4436.6015    79.395905    1796.6128 0.00067856792 0.00070290623 0.0007227718 
 6822000    428.40889   -122.59277   -9992.3406   -777.83804   -2555.4837   -1635.8858 0.00067849132 0.00070270515 0.00072246015 
 6824000    378.12141   -122.56271    6354.6234   -772.98171    5145.3815   -819.76279 0.00067850712 0.00070253099 0.00072258343 
 6826000    408.19264   -121.33474   -6423.3049   -2806.6767     1034.993   -3176.4063 0.00067835744 0.00070249137 0.0007222434 
 6828000     379.0292   -121.81847    2211.8532   -5851.8131   -225.78038    3226.6688 0.0006786687 0.00070276736 0.00072211793 
 6830000    438.88485   -122.39224    2115.9922   -4584.7695   -2052.8415   -2880.2566 0.00067847899 0.00070266836 0.00072224758 
 6832000    406.80796   -123.34524   -4626.4749   -103.95701     911.5733   -1233.6095 0.00067823285 0.00070300509 0.00072198901 
 6834000    434.13739   -121.26546    6732.3297    1470.6995    267.04119    26.690899 0.00067810013 0.00070291145 0.00072194638 
 6836000    393.00676   -122.25889    -11284.96   -1252.9878   -3404.7206   -912.72548 0.00067798274 0.00070301829 0.0007219273 
 6838000    412.36469   -122.83945    4013.5044    4916.8041    3765.9316    504.73227 0.00067778537 0.00070293843 0.00072188808 
 6840000    369.24682   -122.92952   -2931.9358   -2634.3012    137.07136   -2039.0085 0.00067771047 0.00070298901 0.00072165529 
 6842000    387.57322   -121.57144   -3890.1055     331.1387    881.07281   -6835.2674 0.00067797355 0.00070308371 0.00072258077 
 6844000    397.21488   -122.26577    6024.6108    627.72628    51.832761    1327.5177 0.00067817113 0.00070353232 0.00072290968 
 6846000    393.30561   -122.09252   -7886.6628   -1643.5229   -2926.3758    1564.9906 0.00067811797 0.00070415776 0.00072265286 
 6848000    389.80518   -122.08105    6473.9704    2202.5688    672.42062   -1338.4801 0.00067796227 0.00070491769 0.00072254571 
 6850000    403.86553   -121.52824   -4851.5896    3906.9915    3801.7543   -92.472415 0.00067780115 0.00070556635 0.00072235054 
 6852000    397.71365   -122.73968   -889.90454   -4453.9983   -579.27138   -1820.0899 0.0006776828 0.00070542318 0.00072233279 
 6854000    391.13315   -121.98342    3321.3128    970.81974   -2622.0869    358.96528 0.00067750237 0.00070515404 0.00072227548 
 6856000    397.69672   -122.53444   -9467.2453    1523.3336    2278.4941    -86.21551 0.00067735881  0.000705088 0.00072219601 
 6858000    450.69362   -122.57177     7166.825   -2808.6158   -4249.1795    2040.8124 0.00067718258 0.00070517267 0.00072196749 
 6860000    396.00129   -122.96625   -6569.7084   -4285.5055    3695.1429   -206.72709 0.00067697407 0.00070500146 0.00072195206 
 6862000    420.23193   -121.01051     1101.135    895.70411    923.40213     89.23019 0.00067690819 0.00070559074 0.00072185445 
 6864000     375.5658   -121.09603    2428.8899    774.81955    2319.9928    -3565.912 0.00067679055 0.00070557229 0.00072227358 
 6866000    445.26779   -121.44299   -5731.2325   -1367.3636    1324.0009   -3544.9039 0.00067656007 0.00070621352 0.00072269013 
 6868000    410.41694   -121.96848    6370.1515    3254.9836   -3948.2344     2047.258 0.0006768246 0.00070584418 0.00072247217 
 6870000    385.73366   -121.66283   -8607.6368   -4471.1657    3341.9085   -376.98537 0.00067667003 0.00070604944 0.00072256338 
 6872000    408.83186   -122.27723    5463.6231   -2288.0236   -1844.8714    901.01193 0.00067695726 0.00070591629 0.00072243303 
 6874000    424.27917   -122.69341    -2814.479    1792.2766   -1802.3178   -3317.4497 0.00067667055 0.00070571967 0.00072243403 
 6876000    429.86947   -121.60809   -2486.7378    -2672.487    3429.9384   -1979.5773 0.00067723458 0.00070560332 0.00072249253 
 6878000     401.9644   -122.52902    6729.9801    4028.2753    4351.9457    3959.4233 0.00067721739 0.00070546668 0.00072258299 
 6880000    389.40002   -122.32455   -9983.8728   -1931.0227   -5690.5833   -4567.1015 0.00067703237 0.00070567045 0.00072273873 
 6882000    381.57674   -122.59441    4461.0927   -5064.7549   -422.94805   -5333.1495 0.0006769198 0.00070541656 0.00072252137 
 6884000    397.64158   -121.41421   -4912.3037   -1936.2844     6317.793   -1204.0785 0.00067663182 0.00070527116 0.00072239007 
 6886000    441.44132    -122.0313    -2588.001    1320.2115   -121.63704    78.884634 0.0006763757 0.00070512063 0.00072214855 
 6888000    399.09311   -122.85486    4112.8386    671.40054   -1074.3714    4162.2449 0.00067654339 0.00070490237 0.00072198397 
 6890000    387.88782   -122.52118   -6077.8711    6146.7655   -5108.4884    4224.1164 0.00067631254 0.00070495282 0.00072189816 
 6892000    409.47051   -122.87251    6447.7028    1424.2676    1218.1925     1334.669 0.00067621797 0.00070489067 0.00072166052 
 6894000    358.86312   -121.54732   -5878.1951    3135.5871   -5889.5363   -6093.7306 0.00067604022 0.00070484151 0.00072142417 
 6896000    418.32601    -121.5696    229.51392   -2328.0049    4638.5473     18.55279 0.00067583083 0.00070460589 0.00072177583 
 6898000    398.75414   -122.03981    638.20001    3408.2998     652.5014    2217.5679 0.00067565826 0.00070441824 0.00072162376 
 6900000    361.60997   -121.51691   -8228.4061   -3964.0089    2094.7642     1928.696 0.00067584358 0.00070492603 0.00072306108 
 6902000    377.28301   -122.88981    4637.2776   -1875.2417    3484.9163   -4147.5947 0.00067612427 0.00070459414 0.00072292915 
 6904000    406.02454    -121.6217   -6561.7175   -1103.0667   -3953.9073    541.49715 0.00067596027 0.0007046886 0.00072309319 
 6906000    371.44141   -122.81932    3005.9667   -3883.1075   -414.26506   -759.23842 0.00067592315 0.0007046145 0.00072388072 
 6908000    410.57167   -122.99314   -182.28254     2242.811    724.36339     1180.859 0.00067677462 0.00070441063 0.00072354298 
 6910000    388.10953   -123.40712   -4395.0565   -861.06968   -2655.0854    983.99436 0.00067700388 0.0007042104 0.0007235607 
 6912000    372.36902   -122.48357    5996.0964    3157.5964    534.18608       2529.4 0.00067753194 0.00070402151 0.00072462011 
 6914000    381.54899   -121.92962   -7910.2801   -6184.8036    2452.3994   -3681.2144 0.00067732254 0.00070398581 0.00072506301 
 6916000     394.4925    -121.6765    5698.3455    3208.7974    820.84646    969.13555 0.00067730164 0.00070558445 0.00072516358 
 6918000    420.85861   -123.07583   -2541.2258   -3395.4448   -706.53452   -478.33386 0.00067732114 0.0007057702 0.00072503336 
 6920000    403.32381   -122.34837   -2243.5958    685.75944   -3473.9222   -1369.5675 0.00067773084 0.00070550359 0.00072534676 
 6922000    401.23396    -121.8771    3443.3992   -1831.9143   -1515.1323     908.5391 0.00067831902 0.00070536804 0.00072569188 
 6924000    374.19926   -123.13444   -8883.5214    2772.8332   -4409.5265   -77.488737 0.0006784547 0.00070551173 0.00072549808 
 6926000    398.59621   -121.78308    4190.1843     6041.405     2763.727    3046.2162 0.0006783082 0.00070523299 0.00072534927 
 6928000     366.6945   -122.29254   -7971.0434   -4.0040738    -753.4842    -102.4411 0.0006781239 0.00070504363 0.00072525527 
 6930000    417.80845   -121.55376    1931.6783    3892.0448   -787.78685   -3663.5349 0.00067785149 0.00070509722 0.00072499694 
 6932000    419.18401   -121.57081    3922.0439    1170.4544    3429.7028   -383.80909 0.00067777074 0.00070503713 0.0007248724 
 6934000    361.14923   -122.12205   -5057.4485   -3330.8531    -4821.088    205.33936 0.00067783402 0.00070506484 0.00072501346 
 6936000    362.83382   -122.98971    6926.6494   -4017.5572   -187.14951    4604.2599 0.00067772406 0.00070582289 0.0007258128 
 6938000    407.60436   -123.27695   -7504.9858    2122.0694   -1185.7513   -4089.0615 0.00067902414 0.00070577397 0.00072580868 
 6940000    395.44999   -123.32429    1572.3425    101.79126   -1627.1267   -1869.7852 0.00067934661 0.00070555678 0.00072572223 
 6942000    452.94003   -122.23741   -2699.9757    1597.3967   -159.73162   -1399.6593 0.00067906512 0.00070534688 0.00072555972 
 6944000    417.29484   -122.78951   -3451.9729    246.13338    3714.2046   -2116.5565 0.00067893533 0.0007051933 0.00072571998 
 6946000    444.48871    -122.8935    5486.1003   -1062.9362   -1559.2647    2679.9732 0.00067873381 0.00070545183 0.00072555043 
 6948000    392.86325   -122.27999   -7680.6125   -662.90853    4062.9388    1511.0025 0.00067857051 0.00070557882 0.00072542915 
 6950000     399.8683   -121.99757    6589.2484    1828.0572    -434.0211   -1608.8201 0.00067853511 0.00070531311 0.00072596072 
 6952000    440.41132   -122.29699   -2237.1477   -270.39668     336.4084   -2026.2175 0.00067845928 0.00070513428 0.00072757843 
 6954000    390.50362   -122.76216   -2901.8575    4802.4216    4387.6344   -3470.1452 0.00067857918 0.00070501827 0.00072831027 
 6956000    474.74903    -121.8724    2817.8849   -3193.9136    649.93438     3909.053 0.0006785212 0.00070485491 0.00072814389 
 6958000    397.57054   -123.33707   -6118.4679    3323.8471   -2405.0202   -3095.0554 0.00067863355 0.00070467306 0.00072798613 
 6960000    378.10093   -120.91865    6030.1095   -2240.8023   -460.46563   -555.70239 0.00067863863 0.00070467727 0.00072835615 
 6962000    379.37533   -121.99077   -5536.0794   -5072.6014   -2900.6289   -668.08196 0.00067843763 0.00070483404 0.00072845477 
 6964000    423.63469   -121.74691    1521.4727   -4328.3735    973.13779   -4523.9044 0.00067903954 0.00070478106 0.00072820317 
 6966000    402.60465   -122.56774    426.73016   -4141.6968   -1549.2439    -1957.031 0.00067895266 0.0007045616 0.00072796591 
 6968000    422.20174   -122.11942   -7554.2438    2951.3923    3438.8699    4993.4416 0.00067937778 0.00070438104 0.00072772815 
 6970000     406.7998   -123.52883      4303.94   -4188.7119    1211.9977   -2283.9625 0.00067937152 0.00070441283 0.00072752212 
 6972000    438.24723   -122.23362   -6141.8867   -675.28289   -2470.3424    1979.2592 0.00067942902 0.00070465385 0.00072736193 
 6974000    360.55678   -122.04936      1954.14   -1108.8295   -817.57963    2248.3235 0.0006798035 0.00070505521 0.00072716979 
 6976000    402.09008   -122.29139    1094.0348    2024.8569    1072.4387   -1638.6323 0.00067940504 0.00070513237 0.00072707811 
 6978000    391.48699   -122.33587   -2371.3881   -647.32215   -1476.4997   -1140.4403 0.00068006644 0.00070485095 0.00072684361 
 6980000     442.7184   -122.67725    5046.8294   -1251.0207   -1225.5253     2357.679 0.00067971096 0.00070489271 0.00072670456 
 6982000    377.95646   -121.94181   -7390.3004   -874.42948   -819.28762   -1207.8419 0.00067949111 0.0007057689 0.00072648586 
 6984000    376.39721   -120.59603    4990.1447   -3981.4038   -2670.3944    1866.7714 0.00067930957 0.00070604156 0.00072652318 
 6986000    417.25101    -122.7829   -4890.1261   -6561.8551   -1449.2474    1439.0266 0.00067947288 0.0007059749 0.00072638987 
 6988000    361.69693   -123.13038   -3800.4101    -493.2185    2006.1242    7170.9865 0.00067995233 0.00070590646 0.00072616589 
 6990000    388.64435   -122.54809    3291.9226   -6366.6604   -4454.5154   -1644.4999 0.00067981248 0.00070567525 0.00072609439 
 6992000    377.25383   -122.32164    -7393.831    6160.4973    2889.2389   -331.36467 0.00067984958 0.00070570637 0.00072596147 
 6994000    372.84774   -122.47557    6399.9792     1757.953    2053.0501    2298.4073 0.00068029804 0.00070585738 0.00072578671 
 6996000    385.94411    -121.8617   -4746.7455    1480.1221   -3991.3952   -3163.3725 0.0006798986 0.00070564592 0.00072556053 
 6998000    413.30547   -121.18765    2804.9484    8084.7927    4231.2415    2409.8171 0.00067996793 0.00070545922 0.00072534491 
 7000000    399.56195   -122.25408    1109.3505   -4173.4684    2659.4932   -894.66454 0.00068047125 0.00070540731 0.00072519442 
 7002000    415.54001   -121.29365   -7546.9737    2266.4916    2364.3125   -1578.4775 0.00068062516 0.00070517164 0.00072503694 
 7004000    412.09858   -122.30924     6779.757   -5408.1586    3831.5851   -293.62957 0.00068045611 0.00070500709 0.00072525926 
 7006000    433.31163   -122.78064   -8623.2834    111.56503    928.21912   -2209.2672 0.00068043461 0.0007048373 0.00072493957 
 7008000    411.78162   -122.11141    2847.2482   -4431.2904    2307.0847    956.59077 0.0006802476  0.000704914 0.00072466109 
 7010000     417.4984   -121.37018   -636.31491    673.87911   -4532.7902   -736.38106 0.00068013921 0.00070506025 0.00072460339 
 7012000    408.73808    -122.0691   -5779.6062   -1877.5961    1041.7424    2592.0715 0.00068008416 0.00070489777 0.00072438146 
 7014000     412.9431   -122.27413    3633.4002    2481.9266   -685.48471     547.3463 0.00068009464 0.00070471738 0.00072436244 
 7016000    373.44952   -122.67123   -7204.2434     50.73257    1922.0159    2155.1127 0.00067991977 0.0007048697 0.00072433646 
 7018000    413.68076   -121.91814    4568.5727    2477.3962    2508.9255    3356.7015 0.00067982092 0.00070474923 0.00072416138 
 7020000    422.60485   -122.81876   -2006.6552    1342.6432   -901.88985   -287.95416 0.00067993933 0.00070461052 0.00072414102 
 7022000    390.96703   -121.85798   -640.90058    2926.6929   -1107.3086   -1207.2071 0.00067983526 0.00070444257 0.0007240755 
 7024000    374.35028   -122.47154    6381.3903    3908.7504   -814.27343    3797.6823 0.00067972267 0.00070423081 0.00072410439 
 7026000    358.30908   -122.36469    -9659.285     814.8531     2318.147   -2591.4542 0.00067982977 0.00070451116 0.00072411622 
 7028000    396.62474   -121.82186    1930.6151   -3224.1713    1392.4841   -4070.4326 0.00067967796 0.00070444026 0.0007240027 
 7030000     408.6021    -122.0991    -4147.849    -4880.889   -1748.6057    2571.6024 0.00067948413 0.0007042239 0.00072382316 
 7032000     416.2834   -122.49637   -3151.6475    -1074.807    936.21214   -1595.4648 0.00067938832 0.00070403657 0.00072364053 
 7034000    408.21149   -122.32917    3795.3361   -2745.9001   -3757.8122   -1992.7794 0.00067936645 0.00070389223 0.00072339265 
 7036000    383.24797   -123.22342   -5621.3741      2530.91    991.91223   -5656.5485 0.00067935324 0.00070371872 0.00072338745 
 7038000    334.27844   -123.00151    7438.1065   -8094.6354    572.47551    428.02501 0.00067924079 0.0007034797 0.00072352682 
 7040000    387.27692   -122.11319    -6035.109    1171.5835   -666.59164   -4798.3413 0.0006791494 0.00070327301 0.00072370956 
 7042000     420.9162   -122.07556   -861.41726   -5928.3084    2863.7851    2560.1851 0.00067921648 0.00070321848 0.00072453047 
 7044000    375.03228   -122.79431    1032.8771    6444.0029    2455.5585   -1813.7027 0.00067900628 0.00070341002 0.00072478507 
 7046000    362.62415   -123.01219   -8224.2486    4524.0357   -550.50814   -1118.7143 0.0006789521 0.00070437871 0.00072466004 
 7048000    450.75132   -122.83683    4866.0846   -2429.8894   -1104.2189    3253.9512 0.00067870339 0.00070488276 0.00072442981 
 7050000    381.33943   -122.79066   -5841.0242    1337.5953    1823.2718    -506.7032 0.00067852041 0.00070482413 0.00072456082 
 7052000    359.93193   -122.35572    3241.7302   -1536.5075     2313.142    3300.0269 0.00067880056 0.00070472362 0.00072469418 
 7054000    435.40905   -122.05332   -48.132599    2819.5206   -979.14676   -73.221486 0.00067966508 0.00070456154 0.00072517217 
 7056000    378.22306    -122.2762   -5734.1993     127.6134    -3194.071   -435.62514 0.00067966218 0.00070446469 0.0007261379 
 7058000    364.84988   -122.20359    7557.9021    531.15755    2264.9033   -429.02852 0.00067957074 0.00070432343 0.00072631484 
 7060000    383.27704   -121.34812   -8540.4143   -1496.9472   -3513.4659     4653.597 0.00067945515 0.00070432773 0.00072642776 
 7062000    367.47997   -123.19458    4197.6613    3349.2935    535.54649   -756.84096 0.00067973012 0.0007042544 0.00072629161 
 7064000    443.47034    -122.3785    160.72389    2307.9628   -3702.5714    2907.4083 0.00067972745 0.00070407721 0.00072612193 
 7066000    386.63932   -122.94686   -5215.7077   -1624.0037    1195.8496   -3706.2672 0.00067959582 0.00070396654 0.00072600776 
 7068000    442.11509   -121.57749    5063.7663    1231.3022   -324.42475   -2302.4141 0.00067951819 0.00070389135 0.00072680352 
 7070000    376.83596   -122.41215   -9877.9144   -4446.4773    5914.1173   -119.09367 0.00067934775  0.000703793 0.00072849227 
 7072000    388.34178   -121.33987    4018.8358    646.97632   -2222.8369   -7296.9923 0.00067918851 0.0007042185 0.00072869949 
 7074000    365.26033   -121.20731    -5251.795   -2851.1127   -174.96334   -201.86515 0.00067904846 0.00070432985 0.00072870663 
 7076000    378.36363   -121.90969   -468.23578     -3320.25   -1827.8425   -1935.0616 0.00067965232 0.00070417998 0.00072868305 
 7078000    389.94746   -122.45001    6746.1865    1442.3031    -2465.389    1187.0326 0.00067958243 0.00070397215 0.00072851547 
 7080000    364.77424   -121.56244   -7513.1231   -170.46457    982.86949     1128.636 0.00067925808 0.0007037341 0.00072873017 
 7082000    456.53603   -122.09303    8708.2095    640.29246   -7113.2753   -2088.9139 0.00067926181 0.00070364674 0.00072895426 
 7084000    403.01583   -122.14464   -4545.3994    4690.1303    1045.6683    3015.3061 0.00067960372 0.00070341763 0.00072876582 
 7086000    389.73851   -122.09881   -909.37181   -967.85875    59.247609    1409.6201 0.00067914248 0.00070325347 0.00072860814 
 7088000     391.7357   -121.75023   -265.49359    3632.9903   -1849.0636    1192.0018 0.00067901727 0.00070359632 0.0007292814 
 7090000    396.64315   -121.82925   -8056.4782    1980.5178   -1062.4383     1919.199 0.00067895237 0.00070441096 0.00072937777 
 7092000    414.14782   -122.10653    6332.6862    1939.4163   -3188.5429    -5038.203 0.0006788005 0.00070429203 0.00072931384 
 7094000    392.44493   -121.12178   -7956.1501    1417.8403   -654.04781    5041.5681 0.00067876062 0.00070410553 0.00072956257 
 7096000    375.09731   -121.01062    5515.2092   -3467.8474   -2161.2156   -2888.7599 0.0006785507 0.00070421844 0.0007294679 
 7098000    388.70636   -122.45179      1637.22   -125.69779    2426.4328   -8617.1401 0.00067870987 0.00070420274 0.00072921658 
 7100000    424.73358   -121.64003   -7015.8188    1116.5669   -125.34253      5708.01 0.00067842156 0.00070549165 0.0007290493 
 7102000    412.79915   -121.27275    10899.214    2313.4049    -779.5264   -6123.0658 0.00067820166 0.00070545631 0.00072918014 
 7104000    364.72274    -122.3998    -9297.628      2587.45    -2298.772   -205.69223 0.00067801057 0.00070535036 0.00072948739 
 7106000    399.03704   -121.65432    4215.4588    2449.9682    3088.9993   -875.83666 0.00067785404 0.00070541793 0.00072953854 
 7108000    404.84348   -121.71561   -1964.4847   -4825.4429    8.9304327     5052.811 0.00067782001 0.00070675844 0.00072931955 
 7110000    413.23635    -121.9424   -4963.2723    -4515.938   -1832.0299   -4275.3662 0.00067765465 0.00070675784 0.00072910412 
 7112000    392.79008   -121.96225    7264.4308    836.36844   -3354.9251    -697.7056 0.00067775852 0.00070734967 0.00072899832 
 7114000    402.67432   -122.03736   -10118.626   -8509.0642   -1566.4259    2033.5465 0.00067747527 0.00070772445 0.00072886925 
 7116000    369.20194   -122.10805    9156.5243    5348.2965    516.91817   -1370.1751 0.00067761366 0.00070799334 0.00072877282 
 7118000    420.64632   -122.28874   -5315.4042   -4080.8791    1093.0765   -1096.0043 0.00067791512 0.00070778704 0.00072866534 
 7120000    403.77036   -121.78905   -2020.7235    352.32352   -780.46159    1655.4609 0.00067808165 0.00070771505 0.00072887937 
 7122000    368.16536   -122.44726    7403.9239      4343.39     2052.029   -1890.2341 0.00067790043 0.00070782205 0.0007285422 
 7124000    414.10987   -121.48536   -10294.271   -2894.2414   -3668.2548    227.11351 0.0006777451 0.00070776298 0.0007283641 
 7126000    407.40455    -122.8649    8921.2174    4754.8331    1249.3995    3570.5234 0.00067759699 0.00070865025 0.00072814224 
 7128000    435.66129    -121.6949   -9313.2746   -2260.8206   -4664.9233    4843.9299 0.00067751747 0.00070917178 0.00072786087 
 7130000     400.7226   -122.57169    1826.9129    6778.4932   -2418.7053    560.12767 0.00067862149 0.0007090362 0.00072769926 
 7132000    374.42875   -121.57335    2083.3212    -2247.025    2154.0659    2249.7849 0.00067951142 0.0007095621 0.0007275691 
 7134000    390.81964   -122.34182   -11251.947    3492.5884    1201.3345   -1335.1507 0.00067949845 0.00070926042 0.00072777141 
 7136000    372.21077   -122.11632    10881.585    331.27967    3654.9939   -3196.0584 0.0006794077 0.00070902749 0.00072813181 
 7138000    418.61469   -122.05133   -8764.4039   -1707.1335   -1492.1934   -2312.2097 0.00067921308 0.00070907222 0.00072787843 
 7140000    407.95587   -122.34912    5187.2322   -1716.8485    7318.5141    5491.3596 0.00067913513 0.00070907281 0.00072766394 
 7142000    421.69551   -122.21074    851.68741    6951.1127   -3798.0541   -2921.5784 0.00067963347 0.0007088962 0.00072755314 
 7144000    427.11805   -122.37316   -7474.0038   -2174.0688    1634.7116    273.25576 0.00067987877 0.00070877458 0.00072745743 
 7146000    435.73311   -122.25448    9594.9145    -2089.413   -2978.0098   -4427.3268 0.00068050948 0.00070875194 0.00072739829 
 7148000    424.26394   -122.33648   -16033.524    1224.5918    3546.9812    3981.5966 0.00068040728 0.0007088201 0.00072760162 
 7150000    446.83147   -121.82281    8030.6469    3382.1975     1166.179    2528.5146 0.00068016361 0.00070873417 0.00072787313 
 7152000    424.52057     -122.028   -3878.7801   -1130.4818   -385.98741    4433.4706 0.00068006685 0.00070855988 0.00072772526 
 7154000    404.97656   -121.92203   -6282.4702    9100.9065    -352.4526    3184.3715 0.0006798959 0.0007086792 0.00072879656 
 7156000    410.04046   -121.53383    11156.948   -3079.3839    4649.2526   -3488.3677 0.00067978299 0.00070865831 0.00072971773 
 7158000    361.95949   -122.45631   -10142.283   -1711.6666   -1884.1028    2150.2286 0.00067962397 0.00070878426 0.00072976213 
 7160000    426.97707   -122.57242    10175.204   -1133.8073   -1513.0003   -1236.4604 0.0006795103 0.00070902093 0.00072969105 
 7162000    415.71385   -121.50913   -7069.0832   -2739.4486   -3442.3749   -837.18002 0.00067926843 0.00070887241 0.00072955325 
 7164000    430.04674    -122.7591   -434.61324    3242.3101   -2462.0009   -98.020224 0.00067901935 0.00070863756 0.00072994174 
 7166000    424.95432    -123.0554    5933.5449    1105.4566   -715.19861   -4723.5022 0.0006787843 0.00070857409 0.00072972449 
 7168000    400.01122   -123.06891   -15501.224    3934.4506   -3323.5201    1301.9788 0.00067861911 0.0007084323 0.00072954252 
 7170000    379.89619   -122.59113    12210.317   -659.25985   -4030.0308   -802.71114 0.00067853508 0.00070869202 0.00072959415 
 7172000    354.99864   -123.43644    -11024.67   -1935.6735    789.25611   -1443.2711 0.00067839454 0.00070866217 0.0007294549 
 7174000    342.05827    -121.9599   -1617.3725     5322.227   -4727.9323   -582.31096 0.00067844899 0.00070848743 0.00073106629 
 7176000    379.75379   -121.22539    4598.7137   -6172.4024    2674.9537    3324.5145 0.00067840314 0.00070835134 0.00073077573 
 7178000    387.70811   -122.52995   -7909.2754    755.87349   -1715.3349    3129.9097 0.00067833553 0.00070820358 0.00073070737 
 7180000     378.5528    -122.7932    11625.632   -3189.9536    1270.6032    5890.0261 0.00067815902 0.00070802889 0.00073066587 
 7182000     410.6114   -122.72806   -8624.4102   -1143.3998   -4845.5359    -3713.147 0.00067803526 0.00070785798 0.00073047106 
 7184000    438.21313   -122.32409    9354.7878    -2885.395    216.60563    6356.0393 0.00067813998 0.00070766594 0.0007306692 
 7186000    411.75806    -122.6681   -359.22781    887.90575    2985.8935   -330.68754 0.00067814186 0.00070743802 0.00073046366 
 7188000    413.65835   -122.80028   -10788.426    1726.7305    668.86776     797.4498 0.00067802396 0.00070745683 0.00073035971 
 7190000    406.48192   -121.45332    10032.005   -1980.4774   -652.96506   -564.95991 0.00067793107 0.00070744384 0.00073015183 
 7192000    418.25997    -122.4264   -15250.907   -123.59657   -6179.8176    197.31299 0.00067779969 0.00070756846 0.00072995412 
 7194000    399.14497   -122.98465    4248.9878    -151.7135    452.09007    1929.3055 0.00067759396 0.00070742393 0.0007297277 
 7196000    399.13342   -122.26176   -3.0831321    3842.4257   -5125.8762   -3862.5854 0.00067735334 0.00070727044 0.00072956366 
 7198000    393.99909   -121.82115   -2768.9114    403.56763   -1690.1918    208.59099 0.00067716822 0.00070707372 0.00072972012 
 7200000    416.24252   -122.02701    7545.6649    2481.7922   -1563.5402   -4889.2877 0.0006769527 0.00070688965 0.0007297013 
 7202000    401.06616   -121.99061   -8546.7175    903.25084    2342.4512    4266.5143 0.00067681505 0.00070752469 0.00072961614 
 7204000    385.66977   -123.28235    7960.2625   -1125.7969    608.77658   -108.06265 0.00067674215 0.00070728177 0.00072947157 
 7206000     425.8387   -122.71429   -6606.7507    787.09485     1238.758    3635.3461 0.00067672984 0.00070718763 0.00072932489 
 7208000    422.69162   -122.25234   -538.88601    2066.3614    6181.5796    1055.7798 0.00067649333 0.00070713299 0.00072913174 
 7210000    363.26763    -120.9372    5821.2525   -1634.6717     432.3073    7688.4497 0.00067650894 0.00070736045 0.00072891159 
 7212000    398.90334   -122.74049   -11525.857   -1409.8883    -7146.104    1672.6658 0.00067640272 0.00070703869 0.00072863671 
 7214000    413.11284   -121.66585    6409.3529   -4110.5174    2496.6351   -3843.3288 0.00067623656 0.00070690633 0.00072866707 
 7216000    409.38557   -121.79228   -8252.9872   -485.15355   -5724.7213    3621.8767 0.00067610024 0.00070684685 0.00072849202 
 7218000     420.8587     -123.399   -523.00028   -674.34078    1736.0386   -1025.6549 0.00067621872 0.00070668672 0.00072831588 
 7220000     374.2976   -122.76843    1073.2907   -3483.2965   -1826.9435    635.74072 0.00067607003 0.00070659884 0.00072815318 
 7222000    402.05882   -121.86861   -7050.0312   -3797.3016   -347.49193    1078.3944 0.00067611588 0.00070661886 0.0007279388 
 7224000    402.98648   -121.25002    12163.975    405.14297   -2615.9527   -104.96999 0.00067613497 0.00070651575 0.00072776248 
 7226000    409.05184   -122.01115   -8153.2493   -3715.4853   -508.88043     -1138.95 0.00067661102 0.00070660124 0.00072760404 
 7228000    406.15773    -122.5487    6029.7721    1784.3704    1089.4133   -2704.3335 0.00067670693 0.00070664841 0.0007275951 
 7230000    411.60175   -122.70888    736.71729   -1598.9335    4136.5898    4097.5854 0.00067653217 0.00070690426 0.00072744288 
 7232000    388.98921   -121.64913   -9207.4993    3709.7655    3905.5005    548.62878 0.00067639598 0.00070771402 0.00072762503 
 7234000    413.98005   -122.07964    6419.1477    4702.3115   -5739.4174   -1062.9582 0.00067619488 0.00070759198 0.00072761095 
 7236000    396.15332   -121.97574   -10000.557   -2746.9865    47.003136    32.760423 0.00067593871 0.00070777222 0.00072736959 
 7238000     387.9326   -121.88308     5187.398   -2161.7102   -1207.1889    636.40293 0.00067569933 0.00070795736 0.00072756959 
 7240000     368.6968   -121.61876   -4719.5293   -4662.2211     905.6098    87.627467 0.0006754961 0.00070782813 0.00072735912 
 7242000    363.36704   -122.83815   -2864.0588    838.76684   -1120.6064   -472.20176 0.0006759377 0.00070764926 0.00072726636 
 7244000    439.61634   -123.14963    6590.9812    4825.5365   -723.81165    749.83204 0.0006756387 0.00070757384 0.00072749926 
 7246000    416.56628     -122.812   -9720.6912   -2575.0441   -1051.7547   -287.34536 0.00067550536 0.00070737332 0.00072749164 
 7248000    453.10907   -121.94796    10660.255    2105.1185   -1516.7726    1241.0653 0.00067535976 0.00070726956 0.00072750858 
 7250000    355.18378   -121.58165    -2573.978    977.29565    2036.5373    1232.2511 0.00067547981 0.00070710796 0.00072761998 
 7252000    397.93155   -122.65108   -491.00943   -86.749658   -1456.5511     2364.904 0.00067540815 0.00070694914 0.00072762452 
 7254000    401.30283   -122.84796    1512.0515    2081.3053    929.02865   -2855.6126 0.00067524903 0.0007067341 0.00072767294 
 7256000    381.78001   -121.57297   -8571.7542    313.58394   -281.13545    1944.2846 0.00067520747 0.00070656732 0.00072779256 
 7258000    398.01493   -121.73381    3106.7275    7076.2981   -225.24503   -909.11945 0.00067511605 0.0007067318 0.00072755134 
 7260000    388.93837   -120.93124   -8559.3374    -988.6519   -2479.2308    1079.6974 0.0006750594 0.00070752084 0.00072726669 
 7262000    365.67891   -122.65955    2069.5474    4869.6083    2140.8861   -1512.1608 0.00067490134 0.00070752938 0.00072819186 
 7264000    459.55161   -121.84528    2350.0409   -889.88579   -505.37923    -1737.415 0.00067469357 0.00070744023 0.00072782955 
 7266000    392.63241    -122.3833   -4517.2611   -926.67994   -1770.2675    4079.6792 0.00067455012 0.00070727431 0.00072766872 
 7268000    401.52885   -121.52304    8298.3923    1627.0661    276.86043   -384.21927 0.00067432969 0.00070708089 0.0007276019 
 7270000    440.83288   -121.76186   -5170.5548   -4427.5255   -2613.9174   -339.79152 0.00067417729 0.00070716165 0.00072741597 
 7272000    361.76627   -121.63311     1953.621    -5391.414   -3633.4418    306.05766 0.00067402172 0.0007073596 0.00072767687 
 7274000    401.36671   -122.38706   -1917.3165    6881.1246   -2649.1773   -132.09961 0.00067410283 0.00070733775 0.00072778655 
 7276000    379.68899   -122.01225   -4634.5441   -4153.1757   -3088.1421   -5548.2888 0.00067403925 0.00070715802 0.00072803318 
 7278000    430.82431    -122.1569     2659.677    1497.3924   -658.47932    1491.9731 0.00067391616 0.00070725149 0.00072810705 
 7280000     419.3614   -122.26643   -6456.5376   -1454.1642   -629.13043   -926.52185 0.00067383243 0.00070712879 0.00072808662 
 7282000    371.65954   -122.29836         3434   -249.31444   -280.93042   -1891.4296 0.00067398598 0.00070688275 0.00072810493 
 7284000    425.69526   -123.15019   -2100.0104    645.09131   -1771.4887     3107.176 0.00067459384 0.00070698188 0.00072808322 
 7286000    380.25509   -122.89662   -2417.6187   -943.21784   -8944.7794   -3763.5233 0.00067455305 0.00070676794 0.00072781455 
 7288000    379.01542   -121.81106    3315.4958    1330.5709    3808.7337    3893.1306 0.00067441468 0.00070673672 0.00072810311 
 7290000    370.56411   -122.46925   -4738.1657    -887.7288   -3116.7379   -5217.1331 0.00067436749 0.00070675332 0.00072781687 
 7292000    389.13017   -122.62728    2068.7869   -310.66074    3924.2663    1303.4403 0.0006741701 0.00070661881 0.00072758715 
 7294000    383.19029   -122.81416   -2295.4324   -1756.5732    3057.9311    1954.8882 0.00067398015 0.00070655822 0.00072775425 
 7296000     459.4571   -121.64881   -278.42654     3519.132   -2968.5521    3959.0259 0.0006738719 0.00070659359 0.00072756705 
 7298000    412.19816   -121.39954    1193.9661   -1451.9404    5785.6225     405.7121 0.00067368364 0.00070667012 0.00072751851 
 7300000    384.50904    -122.1294   -5961.0713   -756.22551   -2567.3808    511.04648 0.00067365206 0.00070666183 0.00072741459 
 7302000    391.84138   -121.88752    960.36569    2935.4951    4163.4463    2575.2601 0.00067352874 0.00070665414 0.00072724768 
 7304000     424.5154   -121.51369   -4421.3628   -5433.4529   -820.80576    719.88406 0.00067350649 0.00070654473 0.00072719952 
 7306000    424.58945   -121.61734   -224.72428   -511.34255   -114.18196    455.31188 0.00067383678 0.00070633466 0.00072716074 
 7308000    374.30228   -121.71328    1864.3084    2717.1789    2650.7686    -686.6764 0.00067478446 0.00070644062 0.00072717776 
 7310000    406.27979    -121.4452   -829.02828    -622.6788    4046.7057    2657.6545 0.00067501161 0.00070639912 0.00072735522 
 7312000    484.06217   -121.86214    3717.8042    -1986.203   -2051.3698   -1536.0001 0.00067487737 0.00070642547 0.00072731181 
 7314000    403.23792   -122.69192   -3732.9225   -5157.6777    1929.8086    1362.3328 0.00067465301 0.00070620532 0.00072767667 
 7316000    410.43762   -121.60523    162.48455    4163.2164    2179.5116    2375.2969 0.00067451438 0.00070595242 0.00072748366 
 7318000    393.45145   -122.86863   -3706.1442    2371.5629    2104.4865   -3402.5308 0.0006742637 0.0007062093 0.00072745704 
 7320000      363.223   -122.56277   -5336.2661   -3480.9235    2064.4735   -1219.7767 0.00067432886 0.0007075605 0.0007274218 
 7322000    361.31631   -121.60578    3144.1363    4431.1499    1116.3926   -4220.1312 0.00067456345 0.00070713567 0.00072725861 
 7324000    379.45725   -122.12391   -3783.6263   -1515.8406    955.68789    771.01947 0.00067483015 0.00070694904 0.00072720071 
 7326000    433.70699   -122.71257    2174.8254    6573.5702   -362.05735    -1613.946 0.00067437936 0.00070674807 0.00072697094 
 7328000    414.66552   -121.91386    914.57631   -3193.4527   -2497.1017   -154.24952 0.00067427393 0.00070654929 0.0007268139 
 7330000    376.68415   -122.14753   -2986.4701    2556.7141   -4571.0859   -3094.7217 0.00067463752 0.00070632173 0.0007267844 
 7332000    417.57286    -121.6947    1498.4092   -1751.7585    2018.0767    3292.1143 0.00067482774 0.00070616649 0.00072668317 
 7334000    386.04729   -122.66037   -4936.0483   -5350.2072    -1137.033    4115.5756 0.00067486873 0.00070600621 0.00072662817 
 7336000     371.5989   -121.77709    2201.8676    -4680.131   -1608.7448    2080.0899 0.00067473813 0.00070579089 0.00072640337 
 7338000    411.92467   -121.84307   -2168.2683    1553.8923    1172.2965    3889.5485 0.00067506665 0.00070589913 0.00072612243 
 7340000    416.18041    -123.2463   -2269.7656   -1936.4007    2660.6298    -3278.775 0.00067494468 0.00070586615 0.00072587033 
 7342000    399.60742   -121.92427    2948.4041    4451.6127   -216.91719    -2999.659 0.00067641675 0.00070588666 0.00072572783 
 7344000    438.12153    -121.6311   -7113.9305     2679.148   -378.79982    1022.7735 0.00067713705 0.00070563027 0.00072638247 
 7346000    370.53468   -122.44506    2162.9766    5581.5609    225.48038   -2578.8126 0.00067684632 0.00070553186 0.00072750479 
 7348000    389.18898   -122.19828   -4229.2395   -682.74924    4883.7231   -272.18479 0.00067684322 0.00070551728 0.00072882668 
 7350000    390.00562   -122.53839   -163.83109    2764.2157    842.28895    5579.6746 0.00067663054 0.00070530828 0.00072882146 
 7352000    361.00547    -122.0204    1517.6213   -518.23383   -2928.5639    1709.1456 0.00067665898 0.00070525436 0.00072876767 
 7354000    381.49132   -123.09135   -3502.2453    1793.7515    3585.9963    2569.5901 0.00067731378 0.00070533181 0.00072855446 
 7356000    379.08775   -122.62175    2797.2527   -3856.5945   -3101.0578   -1920.0575 0.00067743621 0.0007051445 0.00072847493 
 7358000    395.81163   -120.73128   -5193.2296    -1797.559     1253.997   -2758.4899 0.00067746618 0.00070505213 0.00072823678 
 7360000    388.27759   -122.72995    50.680813    4413.8711   -323.36466    952.12242 0.00067749001 0.0007048869 0.00072820046 
 7362000    413.38443   -121.83007   -1112.6457   -260.85671    2148.9939    -3317.855 0.00067768926 0.00070470132 0.00072848998 
 7364000    420.31232   -121.69797   -3064.2867   -1706.3765   -3682.7029   -48.000219 0.00067766587 0.00070479237 0.00072858125 
 7366000    373.97122   -122.01594    2893.3896    4006.2493    2729.1647     1067.842 0.00067754264 0.00070498693 0.00072842461 
 7368000    408.58877   -121.83606   -3290.0568    3771.0039   -1601.5884   -204.65267 0.00067823816 0.00070524203 0.00072829364 
 7370000    428.24981   -122.37314    799.87261   -1723.1154    2145.3181    4065.0288 0.00067903919 0.00070570154 0.0007281346 
 7372000    367.45398   -122.45222   -2006.9077    1315.3728    1804.7703     4987.216 0.0006789489 0.00070568403 0.00072794048 
 7374000    355.20263   -123.51092   -2925.2378    2637.4495    1536.9407   -2906.9838 0.00067915156 0.00070556896 0.00072765373 
 7376000    400.50943   -122.09415    1640.0976    -3126.923   -1666.1838    1643.0168 0.00067893735 0.00070554806 0.00072744717 
 7378000    419.67493   -121.75648   -2961.8013     3360.003    747.66852   -2870.4537 0.00067876243 0.00070540724 0.00072724052 
 7380000    389.50449   -121.78027    2316.9349   -488.90031     1778.449   -2520.9764 0.0006792488 0.00070522418 0.00072705636 
 7382000    396.79819   -122.99571   -2029.6565    3296.1158   -1999.1529    -2927.287 0.0006790672 0.0007050949 0.00072668794 
 7384000    406.71087   -123.29288    -1760.438    -3723.297    5435.9556   -5653.0091 0.00067892403 0.00070501094 0.00072685962 
 7386000    397.07993   -121.59614   -75.927118    2825.1611    -2142.931    -5054.159 0.0006787614 0.00070486488 0.00072694069 
 7388000    386.53089    -122.1748   -3844.3396   -967.17135     2463.547   -1050.1126 0.00067870009  0.000704624 0.00072699674 
 7390000    322.14575   -121.95424    1724.4388    2637.5228   -6253.4336   -4456.8152 0.00067870697 0.00070489235 0.00072705536 
 7392000    398.81132   -122.82282   -3288.5999    1383.1133    4330.9085    1408.9927 0.00067854699 0.00070500212 0.00072690097 
 7394000    420.98737   -122.17758    1875.6447   -278.96622   -2063.8814    2195.6402 0.00067856563 0.00070492411 0.00072688016 
 7396000    401.29218   -123.63968    1208.6084   -549.94804   -4105.9891    2564.4174 0.00067838267 0.00070483814 0.00072715164 
 7398000    408.65264   -121.50159    -1594.085   -621.12735    4014.8728    1744.8328 0.0006784926 0.00070463957 0.00072760589 
 7400000    394.09123   -123.41128    1437.1454    5270.0413   -9482.9488    259.03206 0.00067859716 0.00070517137 0.0007279229 
 7402000    383.05506   -121.65716   -4321.7351    4664.4295   -8078.1642    6291.9314 0.00067844917 0.0007059714 0.00072790055 
 7404000    445.97339   -122.29824    162.86558    4094.0586    5966.1589   -637.53184 0.00067858466 0.00070585812 0.00072775475 
 7406000    414.97989   -121.98562   -2811.3983   -6289.7424   -4639.1351    -435.5795 0.0006784424 0.00070602491 0.00072818608 
 7408000     365.6321   -122.50172    -2898.519    5669.4972    -744.2953     4318.363 0.00067833218 0.00070590584 0.00072818296 
 7410000    384.82028   -121.36059    2457.2779    1290.7837   -3679.7257   -5428.9368 0.00067828976 0.00070604737 0.00072833454 
 7412000    378.30625   -122.30454   -2370.3921   -2515.9934   -353.75602    4428.8929 0.00067815929 0.00070580941 0.00072822197 
 7414000    410.18095   -122.09859    2713.5803    2532.2541   -3579.6668   -4434.7226  0.000678235 0.00070560695 0.00072807786 
 7416000    391.38155   -122.13791   -1785.5275    -2217.267   -1851.0472     2527.203 0.00067849158 0.00070542002 0.00072805154 
 7418000    368.15646   -121.81107   -440.22814    740.85709   -3107.3336    413.28394 0.00067824416 0.00070524209 0.0007282205 
 7420000    387.88772   -121.29829    141.50407   -993.60209   -2192.9465     1171.456 0.0006783958 0.00070513621 0.00072799095 
 7422000    392.67732   -122.41716   -4195.3311    322.38643   -3091.3355   -4780.8241 0.00067825141 0.00070492456 0.00072863759 
 7424000    406.81719   -122.38605    1720.6372    1168.5282   -2778.7923   -3449.8182 0.00067813088 0.0007047319 0.0007290172 
 7426000    389.04482   -121.88145   -4138.0813   -211.35799    948.58267    2410.8485 0.00067815839 0.00070490418 0.00072888064 
 7428000    386.66395   -122.98824     1488.386    2982.6144   -1909.0576   -474.43075 0.00067804807 0.0007050054 0.00072908832 
 7430000    358.78398   -121.33674    -731.1787    1304.6002   -2654.1257    1191.4459 0.00067786316 0.00070542637 0.00072941441 
 7432000    413.83281   -122.43458   -1317.4836    -4157.398   -1449.8302     1550.459 0.00067779903 0.00070524147 0.00072973485 
 7434000    370.91495   -122.98087    1687.0009   -3464.0615    1179.1883   -298.71811 0.00067782078 0.00070517513 0.00072949291 
 7436000    424.82914   -122.92916   -3508.0507     2057.891   -1261.5889   -1190.8804 0.00067786522 0.00070506623 0.00072939462 
 7438000    370.75671   -122.72014    2248.6167    6408.5935    1083.8995   -3731.1696 0.00067777662 0.00070490134 0.00072975976 
 7440000    404.20908   -122.13045   -3706.7138   -2524.5321    64.787487    3020.5267 0.00067757969 0.00070471854 0.00072991304 
 7442000     442.3394   -122.00899   -388.43223   -549.56859    4224.1854   -1275.1765 0.00067780232 0.00070454516 0.00072982953 
 7444000    425.85111   -121.59457   -1100.4174   -334.80123   -1969.2705    539.16175 0.00067794256 0.00070440701 0.00072963243 
 7446000    381.04682   -121.74723   -6116.6671   -4714.0499    3327.6716   -124.60138 0.0006778301 0.00070421377 0.00072941957 
 7448000    410.94004   -122.16841    2878.8472    1310.4647   -6812.3001   -2635.8493 0.00067770028 0.0007044343 0.0007294917 
 7450000    448.15434   -121.92963   -5075.5139     1095.844    1236.8331    7500.2171 0.00067758458 0.00070450667 0.00072952738 
 7452000    433.15564   -121.58348    1459.2328   -4916.7827   -3657.6413   -3269.4849 0.00067761972 0.00070475471 0.00072948831 
 7454000    392.49865   -122.04995   -434.73136    3527.5936   -4442.6199    4255.0326 0.00067736565 0.00070489351 0.00072956149 
 7456000    395.27904   -122.33301   -3108.1817   -1317.2342   -839.94501   -1277.3156 0.00067762341 0.00070573697 0.0007294572 
 7458000    369.45846   -122.25268    3109.8062    1432.8625    2772.3491   -5942.2143 0.00067778385 0.00070608418 0.00072969128 
 7460000    373.82799   -122.10118    -5054.942   -5918.4522    438.77732   -680.87225 0.00067785984 0.00070588485 0.00072971739 
 7462000    430.07986   -122.92136    1426.2265    2202.8278   -4275.6725   -4190.8127 0.00067782064 0.00070581434 0.00072961212 
 7464000     403.9473   -122.06129   -1659.4848   -1232.3631    3626.3313    785.25177 0.0006777636 0.00070566091 0.0007297971 
 7466000    342.16274   -122.81412   -1928.6811    3097.0929   -5554.6445   -2715.2322 0.0006779427 0.00070567581 0.00072979839 
 7468000    404.15622   -121.60021    3893.7198   -277.65717    2813.3127   -3731.6333 0.00067821085 0.00070612971 0.0007303729 
 7470000    447.10567   -122.68551   -5908.3399   -44.010008   -679.82511    2300.1859 0.00067808091 0.00070646646 0.0007307446 
 7472000    391.65794   -122.45597     1476.112    1380.3676    1575.8351   -2898.2847 0.00067789223 0.00070682069 0.00073091696 
 7474000    446.67162   -121.73365   -3394.0254   -4218.6433   -2728.2279    3445.2197 0.00067774173 0.00070666166 0.00073149665 
 7476000    391.46494   -122.20586   -1658.4249    3402.1269    5216.4038   -2226.8411 0.00067762872 0.00070665489 0.00073140398 
 7478000    395.94873    -121.9331    2034.1159    50.484675   -4704.9669   -2201.6452 0.00067748105 0.00070661347 0.00073142585 
 7480000    421.16298   -122.45513   -3917.9793     5889.326    5031.9268   -2834.1881 0.00067764721 0.00070645187 0.00073135997 
 7482000    397.51285   -121.65359    4875.9267   -3453.5458   -3339.4382   -372.30412 0.00067745999 0.00070639317 0.00073114431 
 7484000    394.74368    -122.5958   -5081.0798   -1655.2302   -445.84668   -1484.7813 0.0006772611 0.00070633384 0.00073116689 
 7486000    362.97901   -122.54919   -319.67838    -4312.807    81.951818    433.01678 0.00067709112 0.00070615257 0.0007312302 
 7488000    398.21474   -121.87802      352.009   -1544.8018    2954.3299   -835.74581 0.00067689716 0.00070595523 0.00073104191 
 7490000    410.59373    -122.4827     -5129.37    2150.1441    4325.6983   -230.27733 0.00067752889 0.00070568097 0.0007309946 
 7492000     387.6154   -122.90035    3074.8967    3597.4368    -13.47766   -2853.6105 0.00067752323 0.00070618852 0.00073134203 
 7494000    386.25527   -122.28384   -4241.1849   -3070.5017   -1908.1043    3035.0038 0.00067739765 0.00070689654 0.00073095769 
 7496000    361.32261   -121.44986    1214.1678    -1513.704    3208.0849   -5004.0722 0.00067847813 0.00070834642 0.00073082576 
 7498000    393.29001   -122.14736   -1951.7567    5232.3481    31.547762    4035.3474 0.00067986743 0.00070847026 0.00073071945 
 7500000    391.30545   -121.69392   -4477.8541   -2322.0538    -2405.814     1770.359 0.00067973451 0.00070831976 0.00073055366 
 7502000    369.36933   -121.48955    4927.5684      1357.59    96.051801    3274.9719 0.00067952227 0.00070814831 0.00073031227 
 7504000    371.08957   -122.13093   -5835.6001   -2950.2052    1199.4621    317.39094 0.0006793911 0.00070881536 0.0007300816 
 7506000    380.60652   -122.05465      4351.42     3149.765   -1004.7581   -668.04937 0.00067938991 0.00070881197 0.00073006313 
 7508000    354.22506    -122.0275   -1142.6832   -4984.0961   -2092.6897    6424.0175 0.00067930558 0.0007089537 0.00072987184 
 7510000    409.27928   -121.77212   -936.39441    3556.2942    2857.9449   -11325.016 0.00067927991 0.00070860588 0.00072964865 
 7512000    386.40864   -122.80572    904.96168   -988.82383    1946.1885   -1397.9322 0.00067927311 0.00070880419 0.00072945753 
 7514000    387.18851   -121.98626   -5333.9641   -2189.3788    3464.4889   -673.84851 0.0006791433 0.00070839538 0.00072924797 
 7516000    433.13856   -122.94905    3039.3683    5728.7298    2758.4405    -5052.018 0.0006789811 0.00070844701 0.00072916641 
 7518000    376.92368   -122.14005   -4960.4822   -3152.6689    1100.8202    5137.9956 0.00067939177 0.00070889047 0.00072901901 
 7520000    382.28769   -122.03007    1610.6742    1249.2179   -2933.0877    -1666.835 0.00067964582 0.00070912957 0.00072895976 
 7522000    385.42952   -122.65245   -1007.9593   -528.22028     -563.946   -2987.1241 0.00068004451 0.00070964183 0.00072871086 
 7524000    359.80612   -122.16641    -2299.969   -45.746961    532.13194    2416.0199 0.00067992636 0.00070973416 0.0007291098 
 7526000    378.82121   -121.82879    2367.2193    1172.9217    3326.0615   -2307.8316 0.00067991671 0.00070959054 0.00072942747 
 7528000    408.25353   -122.31258   -5836.3043    923.34238    3085.6933    963.65654 0.00067973775 0.0007094873 0.00072923839 
 7530000    392.60121    -121.5418    3042.6679   -2239.9257   -1960.0077    999.55609 0.00067952706 0.00070929523 0.00072903125 
 7532000     453.7613   -122.01782   -3989.5445    2131.1068   -3454.7441   -1128.5235 0.00067933204 0.00070908622 0.00072879445 
 7534000    447.31391    -121.7641   -2386.4099   -7762.7325   -1421.5368    5805.8791 0.00067917037 0.00070903731 0.00072864945 
 7536000    385.24797   -122.33756    1110.7835    151.18999    578.96503   -1120.7989 0.00067899083 0.00070883132 0.0007284426 
 7538000    385.07882   -122.53401   -5128.5275     2974.877   -1682.5484   -2653.7893 0.00067904891 0.00070863228 0.00072833946 
 7540000    371.02053   -123.21108    2860.3537   -3297.4892   -1993.1638    1287.0938 0.00067899759 0.00070872753 0.00072843417 
 7542000    399.56738   -122.23575   -3803.8356   -3444.3567    4313.3193    2016.6978 0.00067892866 0.00070848469 0.00072848873 
 7544000    448.76284   -122.14169    2217.8019    4985.4753   -1743.8763   -1384.3672 0.00067866932 0.00070863455 0.00072832895 
 7546000    423.47507   -122.39549    -578.7837    209.47303    1711.3266    1359.1754 0.00067843361 0.00070853571 0.00072814812 
 7548000    377.83217   -122.31643   -3157.6429    3160.5551    2230.7211   -2210.4352 0.00067825471 0.0007086106 0.00072858712 
 7550000    369.56626   -121.97333    2112.1263   -4974.7127   -5710.9138    1754.7683 0.00067814811 0.00070863139 0.00072824707 
 7552000    385.81779   -122.12555   -6525.0398   -1185.7595    5478.3382   -2614.0459 0.00067803413 0.00070852584 0.00072800066 
 7554000    369.73378   -121.61734    837.47391    1306.1163   -1157.6666    1784.5949 0.0006780668 0.00070832638 0.00072778023 
 7556000    438.06628   -122.99097   -2286.3073    1804.9277    2169.0325     1163.076 0.00067789763 0.00070857751 0.00072772502 
 7558000    355.97041   -123.47691   -1909.1475    91.612372   -3327.5751    2159.0863 0.00067779713 0.00070909167 0.00072756126 
 7560000     411.9052   -122.06034    2575.9907    3632.2198   -4314.3601    4646.4866 0.00067759705 0.00070938166 0.00072748453 
 7562000    415.36453   -121.22277   -3934.2385    2451.9771   -1059.0357    -1010.257 0.00067757395 0.00070920874 0.00072724972 
 7564000    386.84635   -121.67916    3533.8713    1213.9644   -6683.2585    2158.7051 0.00067784316 0.00070904916 0.00072703677 
 7566000    379.24496   -122.29226   -3997.3667    5489.9761    6099.2462   -822.04491 0.00067785802 0.00070900987 0.00072684145 
 7568000    426.10623   -122.28046     238.0678   -418.04433   -90.511767    3001.3753 0.0006777481 0.00070879927 0.00072668861 
 7570000     356.3399   -121.77528    1337.2573   -1445.5078    4526.1697    1310.0476 0.00067756314 0.00070866972 0.00072646427 
 7572000    383.61959   -121.71278   -3738.9575   -4420.3542   -778.30636    4296.3461 0.00067739162 0.00070845577 0.00072631073 
 7574000    407.30552   -122.67598    2560.7229    3795.2394    2609.9734    3261.1406 0.00067735646 0.00070827002 0.00072614806 
 7576000    401.21657   -122.20034    -4271.796   -3588.2192    508.64907   -3131.3564 0.00067726969 0.00070807809 0.00072644233 
 7578000    382.63126   -122.64107    152.48213    5016.5604   -1596.1978   -3492.2307 0.00067724557 0.00070792394 0.0007261431 
 7580000    453.83325   -122.31396   -592.54953   -1893.5053   -5034.1264    2462.4052 0.00067708741 0.00070770571 0.00072596063 
 7582000    441.36793   -121.97435   -5093.6715   -445.65999   -605.74108   -2740.9224 0.00067718918 0.00070784984 0.00072583978 
 7584000    354.88765   -122.62461    5169.5189   -2222.6678    3019.9858   -1504.5758 0.00067780293 0.00070754134 0.00072578045 
 7586000    382.48695   -121.84365   -5299.7629   -2191.7088   -2376.0373   -3767.3511 0.00067777862 0.00070752193 0.00072602189 
 7588000    378.92966   -122.73192    2313.1447   -3300.6215    5255.3816   -4872.5208 0.00067759091 0.00070738661 0.00072608847 
 7590000    392.56451    -122.0268    6.2930672   -831.51001   -2599.2543    532.19196 0.00067790809 0.00070740114 0.00072589746 
 7592000    461.38177   -122.18719   -4505.7347    1591.2885   -965.97653   -745.27969 0.00067797054 0.00070722433 0.00072566299 
 7594000    359.91933   -122.44449    1844.3641     2554.006    557.84986   -3139.5805 0.00067805411 0.00070704285 0.00072562878 
 7596000    367.06253   -121.60511   -7199.6385     2884.018   -5878.3897    2467.2295 0.0006779666 0.0007068726 0.00072550242 
 7598000     388.9905   -122.64409     3462.542    5390.1602    3059.7229    4557.1737 0.00067819923 0.00070680361 0.00072526133 
 7600000    424.90984   -123.15171   -2122.2257   -2060.1265    1340.6974     2022.442 0.00067813104 0.00070670868 0.00072534655 
 7602000    421.13473   -121.98284   -85.608298   -1918.8549   -1262.8664    -1591.543 0.0006779681 0.0007064587 0.00072530399 
 7604000    387.73055   -122.10696    2991.7597    -643.9585    331.66861    5117.1546 0.00067780239 0.00070625803 0.00072520915 
 7606000    429.74827   -122.36536   -6452.4228    4057.3352   -1301.2296    1663.7604 0.00067764205 0.00070618545 0.00072508135 
 7608000    349.30375   -121.14971     1856.799   -3087.1691    231.53782    -48.13505 0.00067758763 0.00070615601 0.00072498988 
 7610000     376.4486    -122.4452   -5783.8769    619.20732    2103.6234    5580.5245 0.00067749982 0.00070596461 0.00072477525 
 7612000    412.13161   -122.23726    314.57563   -745.17599     808.8339   -1710.4396 0.00067737183 0.00070578534 0.00072467425 
 7614000    396.44344   -122.59529    1341.1084   -438.81836   -846.70958   -2394.1454 0.00067731729 0.00070560224 0.00072456785 
 7616000    382.26656   -121.99651   -4710.9547    2395.2127    2662.3958    76.833951 0.00067718764 0.00070551308 0.0007246657 
 7618000    398.82839    -122.2131    3961.8416   -1379.1934   -3452.8777   -4535.3796 0.00067705094 0.00070536971 0.00072455147 
 7620000    363.35489   -121.77128    -5841.607    2910.2721    1767.7954    3710.5288 0.00067713466 0.00070526602 0.00072445228 
 7622000    349.83726   -121.22696    322.60065   -3904.8237   -2073.4111   -2749.2152 0.00067767269 0.00070507323 0.00072434819 
 7624000    429.40933   -121.71839   -743.10049    10103.816   -1183.2746    5217.5242 0.00067794299 0.00070499502 0.00072420548 
 7626000    430.07415    -122.0728   -3219.5827     747.2146    2162.5161   -573.96005 0.00067770811 0.00070498315 0.00072408847 
 7628000    423.49606   -121.76062    2918.7054   -1507.8431   -1097.6087    3930.7637 0.00067761774 0.00070492407 0.00072396745 
 7630000    401.44633   -122.79774   -5492.0508    3082.1815    6030.0127    3192.5244 0.00067820625 0.00070475615 0.00072399417 
 7632000    440.78428   -121.40686    2234.8754   -4337.1283    2142.5485   -1114.8758 0.00067811109 0.00070479518 0.00072450355 
 7634000    382.02452   -121.46831   -3523.4387    970.72358    315.01007    6440.0982 0.00067809808 0.0007048633 0.00072455276 
 7636000    416.47537   -122.01942    -892.0843   -1082.2799    2162.9931   -210.88221 0.00067821138 0.00070479218 0.00072464405 
 7638000    400.15599   -122.10603    2541.5161    1771.1281   -6258.1074    2660.0237 0.00067801635 0.00070471413 0.00072455013 
 7640000    399.81732   -121.83288   -2118.1679    -1271.266    112.79716   -779.66733 0.0006778479 0.0007046042 0.00072442211 
 7642000    377.89685   -121.17769    6738.5325   -4969.7295   -5694.3842   -3730.5009 0.00067768965 0.00070472151  0.000724209 
 7644000    376.70959   -122.60573   -3592.7181    2867.0326   -756.97519      3344.36 0.00067817282 0.00070467478 0.00072403287 
 7646000    421.16933   -121.41797    509.42857    -2535.179   -6201.1555    905.81836 0.00067843651 0.00070524324 0.00072380113 
 7648000    463.19061   -122.06719   -2462.3552    5132.6058   -520.68473   -4434.9996 0.00067842174 0.0007060239 0.00072359632 
 7650000    398.29366   -122.68526    -6485.748    26.305234    4020.8969   -2084.9039 0.00067831734 0.00070604873 0.00072342382 
 7652000    414.03299   -121.94295    5557.8816    991.85971   -5588.2051   -92.621916 0.00067812304 0.00070596392 0.00072371226 
 7654000     383.7692   -122.63235   -6262.7314   -3841.6151    2656.1661     2673.063 0.00067793668 0.00070586494 0.00072384651 
 7656000    365.26059    -121.6974    4553.9467   -2286.0163     1089.796    168.69372 0.00067796952 0.00070575997 0.00072380519 
 7658000    385.95793   -122.33769   -527.02743    1985.0269   -5016.6604    233.73007 0.00067808737 0.00070574192 0.00072375378 
 7660000    364.94302    -121.7754   -3042.8912    2091.1519    5357.2736   -1076.9303 0.00067882614 0.00070582077 0.00072354351 
 7662000    345.80975   -122.32965    3017.1744    2955.7519    -1445.494    2698.1239 0.00067975745 0.00070613686 0.00072333015 
 7664000    423.63449   -121.66205   -7666.5744   -4127.5279   -150.92051   -339.15404 0.00068014161 0.00070604568 0.00072309093 
 7666000    377.37081   -120.96165    5500.3244    2963.0759   -1553.0667   -776.41119 0.00068054656 0.00070588056 0.00072297898 
 7668000    416.37293   -122.48938   -4648.4986   -3760.0555   -2425.5774    -1168.888 0.0006816598 0.00070566206 0.0007234595 
 7670000    383.52327   -122.73407   -374.22557   -99.579101   -2079.1393   -1852.9358 0.00068221017 0.00070565183 0.00072319212 
 7672000    392.92329   -121.90246    956.78046    5140.7256   -4079.1048   -383.25223 0.00068229994 0.00070598883 0.00072319943 
 7674000    398.96554   -122.06883   -7210.1491   -6061.6188    3665.5788    3327.1862 0.00068236283 0.00070624336 0.00072304617 
 7676000    415.13395    -122.4964    3539.5679    871.58537   -27.324701    3120.5279 0.00068225021 0.00070600069 0.0007231301 
 7678000    422.85278   -122.09985   -5131.4321   -3753.3233   -5456.5028   -282.23321 0.00068209986 0.00070577014 0.00072292625 
 7680000    360.14149   -122.15085    2761.5105     1710.728   -4291.7137    2359.2946 0.0006821127 0.00070548372 0.00072275521 
 7682000    425.98532   -122.96672   -313.87074    -2049.995    5070.2425   -134.16821 0.00068214392 0.00070552903 0.00072282861 
 7684000    414.45899   -122.90371   -5705.4326    -1212.123   -2079.3082    2093.9973 0.00068191423 0.00070537139 0.00072329713 
 7686000    403.57941    -123.0404    3281.2966    3758.4396    5135.7577   -1748.1959 0.00068178501 0.00070519321 0.00072369364 
 7688000     376.5606   -121.95095   -8975.5689    84.365391   -2094.9256   -2360.1914 0.0006816432 0.00070517657 0.00072359256 
 7690000    417.51604    -122.7438    3255.7423   -5963.9192   -1261.8314    1290.9982 0.00068160069 0.00070504925 0.00072378885 
 7692000    440.82253   -122.45744   -378.72524    2892.4871    2222.6984   -2823.8457 0.00068208312 0.00070490195 0.00072361972 
 7694000    363.73422   -121.46912   -811.70653    1361.5923   -13240.839    51.246713 0.00068202165 0.00070512732 0.00072339768 
 7696000    374.65819   -123.25491    3712.7337    -1698.024    1108.2091   -885.01551 0.00068206929 0.00070499467 0.00072324068 
 7698000    399.17804   -122.09103   -6900.1674    5533.7129     40.52338   -1745.7932 0.00068196071 0.00070510319 0.00072306233 
 7700000    362.72335   -121.34779    4669.4007   -2306.7317   -3594.7538   -1972.7529 0.00068176342 0.0007051866 0.00072307237 
 7702000     395.3944   -121.71406   -6259.1965    6453.5516    2621.6304   -2423.1154 0.00068163002 0.00070536008 0.00072379174 
 7704000    443.58347   -121.27807   -854.14363    2675.0972   -17.289815   -318.20319 0.00068142018 0.00070509012 0.0007248615 
 7706000    402.23907   -122.12787    3075.6562   -1240.2877    1234.0681   -265.14247 0.00068120623 0.00070511904 0.00072444389 
 7708000    429.04714   -121.75444   -7551.6076    3245.6725   -3524.1294    -667.1808 0.00068127644 0.00070504631 0.00072462812 
 7710000     388.7661   -121.38303    5835.1621    2394.7439   -750.17287    4356.5728 0.00068161886 0.00070539566 0.00072596303 
 7712000    399.32475   -122.50101   -6912.1378    1052.0063    1527.8363     640.1912 0.00068170027 0.00070535574 0.00072662522 
 7714000    388.98923   -121.39975    1717.4251     805.2679    1564.5204   -326.05641 0.00068155004 0.00070513396 0.00072671137 
 7716000    424.78432    -122.5805   -1155.9818   -3147.8964    3205.1621   -2929.0538 0.00068133566 0.00070502126 0.00072651863 
 7718000    414.32257   -121.96285   -5859.1364    -1014.672    5142.2925   -2345.0794 0.00068175871 0.00070530968 0.00072634625 
 7720000    388.94718   -121.91083    8383.5568    1361.7433   -5496.7505    2278.6698 0.00068182027 0.00070495703 0.00072634145 
 7722000    347.28651   -122.17714     -6391.56    2574.8187    2839.0129     -5870.94 0.00068194149  0.000704822 0.00072663493 
 7724000    407.56305   -122.60802    4840.1628    1803.6727    808.28741    5588.9229 0.0006818261 0.00070471422 0.00072663056 
 7726000    439.93058   -121.11857   -1486.1523   -183.76503   -1878.1622   -7046.2963 0.00068171465 0.00070546178 0.00072661014 
 7728000      382.477   -121.97939   -5504.2328   -74.604895    2948.6782    2573.4577 0.0006818455 0.00070565981 0.00072698387 
 7730000     377.6642   -122.65491     2742.483    3340.6995    2543.5776   -3201.9251 0.00068170642 0.00070585933 0.00072705956 
 7732000      378.496   -120.98616   -8982.0153    1262.4295   -2031.9715    1856.7707 0.00068177224 0.0007058037 0.0007272706 
 7734000    392.08769   -122.25678     5741.542    3253.8872    2055.9563    3588.6995 0.00068185726 0.00070573068 0.00072785825 
 7736000    373.22775   -122.22379   -1834.4672   -4774.3003    53.827535    1715.5815 0.00068165203 0.00070593577 0.00072787202 
 7738000    373.55596   -121.66433   -300.63971    1949.9105   -2888.1999   -2212.1007 0.00068150479 0.00070596133 0.0007278788 
 7740000    352.38817   -122.69739    3373.4115     -3125.43    6268.1712   -1855.1341 0.00068136054 0.00070599285 0.00072775722 
 7742000    401.92175   -121.75997   -6970.1428    4967.7698   -3075.1989   -2012.2861 0.00068118192 0.00070596576 0.00072746064 
 7744000    418.09591   -121.18746    3419.3168    99.639935    4859.0336   -3708.5723 0.00068102738 0.00070582927 0.00072731463 
 7746000    390.22891   -122.48642   -6016.3155   -1415.3107    4298.1469     29.69859 0.00068102388 0.00070578441 0.00072715958 
 7748000    404.56641   -122.31612    1187.8311   -916.95085    50.628417   -1717.3584 0.00068083266 0.00070571294 0.00072698304 
 7750000    420.43598    -121.9166    1921.7199   -186.89606   -1757.6766   -2080.2155 0.00068068403 0.00070556325 0.0007268408 
 7752000    395.71674   -123.06686   -4674.3264    1044.9086    5970.9431    5205.0959 0.00068061789 0.00070533918 0.00072684703 
 7754000    395.00343   -122.43355    6214.8306   -1880.3219   -2998.5594   -2628.2507 0.00068045899 0.00070523586 0.00072676752 
 7756000    387.16142   -122.25256   -8188.8634    -571.6687     659.1941    3326.9482 0.00068070243 0.00070537513 0.00072661929 
 7758000     435.1673   -122.25911      -341.23   -6969.2656    6843.6393   -3910.3155 0.00068131096 0.0007057574 0.00072650345 
 7760000    358.29019   -122.52113   -1541.6545    5428.6254   -777.27179   -2977.7608 0.00068195694 0.0007059325 0.00072652906 
 7762000    367.32164   -122.05526   -3814.4809    807.26583    741.77417    445.45336 0.00068197477 0.00070573929 0.00072648052 
 7764000    393.72176   -122.11344    6006.7625    3008.1871   -1001.1193   -4258.7868 0.00068257229 0.00070558941 0.00072628194 
 7766000    376.12558   -122.78358   -4970.2715    2307.5446   -4072.4865    271.31401 0.00068275132 0.00070542887 0.00072609323 
 7768000    355.58158   -122.62623    4810.8945   -2854.4242    3894.2216   -5107.3379 0.00068263857 0.0007053262 0.00072591957 
 7770000    409.07484   -121.55409   -3470.9079   -6093.7301   -510.83985    1935.4599 0.00068251869 0.00070558622 0.00072579724 
 7772000    414.75654   -122.38818   -3966.6955   -2595.3316     -1749.86     -898.714 0.00068223468 0.00070560248 0.00072565725 
 7774000    461.99632     -122.888    2256.5163   -6186.7576    4240.4067    6664.1624 0.00068239507 0.00070542215 0.00072555114 
 7776000    396.82403   -122.15282   -9169.3395   -1966.3085    1037.8481    -1004.162 0.00068254692 0.00070519801  0.000725341 
 7778000    385.92707    -122.5952    5687.7434    1701.5276    225.24252     4379.203 0.00068247902 0.0007050655 0.00072525447 
 7780000    389.65959   -122.62609   -2741.5804   -942.31864   -3839.7362   -1498.9388  0.000682318 0.00070537953 0.00072506438 
 7782000    390.52999   -122.68374    1161.2899     7632.243    5952.3226   -2036.5453 0.00068249982 0.00070517481 0.0007251122 
 7784000    404.49679    -121.3416    3209.9673    3665.7522    2200.0206    2415.0305 0.00068293863 0.00070506428 0.00072572091 
 7786000    418.70068   -121.71596   -6659.7419   -591.43899    498.40723   -483.46208 0.00068283993 0.00070494335 0.00072567154 
 7788000    393.94359   -123.51263    3702.0545   -3081.6677   -2743.5287    4450.3975 0.00068277098 0.00070497957 0.00072563906 
 7790000    442.74155   -122.67137   -8547.8927    3792.7449    1504.5112   -3133.1366 0.00068264705 0.00070476786 0.00072612911 
 7792000    401.05769   -123.23203     998.6855   -297.97245   -1415.4536   -1666.0578 0.00068247181 0.00070465409 0.00072651915 
 7794000    383.65309   -123.21374    177.33312   -3179.7686    4486.2612    1071.3214 0.00068242037 0.00070451641 0.00072788382 
 7796000    404.15403   -122.72809   -2497.2766     138.3814   -1593.1362    -1990.012 0.00068237401 0.00070437038 0.00072858183 
 7798000    352.83982   -123.00389    4011.4357    171.81191    1259.5294    1170.0528 0.00068252386 0.00070465601 0.00072851819 
 7800000    400.99798   -122.50289   -5748.2583    -1194.461   -3174.2898    220.22305 0.00068230752 0.00070443155 0.0007282783 
 7802000    404.06899   -123.64584    2659.5727   -2056.0567   -5871.7345    -2049.446 0.00068240574 0.0007043177 0.00072808477 
 7804000    410.20706   -123.04923   -3534.7574     1498.502    4918.9728    2291.7411 0.00068233089 0.0007040984 0.00072819937 
 7806000    396.06622   -122.43898   -3514.1805    206.41122    4500.0893   -561.15069 0.00068303334 0.00070414525 0.00072818804 
 7808000    355.19621   -122.30049    3555.9259    3243.2763    94.153222   -1914.5114 0.00068306561 0.00070411677 0.00072822957 
 7810000    430.60278   -121.93781   -7263.7253    2229.3754   -886.76324    910.91124 0.00068307674 0.00070398105 0.00072821124 
 7812000    424.13293   -123.19513    3748.8783   -697.90499   -2591.2611     4926.714 0.00068318346 0.00070381135 0.00072805781 
 7814000    398.21354    -122.8811    -2210.566   -4841.0105   -2429.2494   -963.84542 0.00068300207 0.00070370704 0.00072790046 
 7816000    382.03647   -123.59333   -2200.9505   -2082.1235    2511.4273   -498.64784 0.00068279739 0.0007034698 0.00072778367 
 7818000    405.28023   -122.87364    527.55163   -2628.3895   -661.97742    4505.4956 0.00068263033 0.00070346959 0.00072761858 
 7820000    400.41641   -122.90597   -5656.8611    1041.6106   -1125.9809   -2645.4832 0.0006825795 0.0007045688 0.00072747328 
 7822000    430.47772   -121.78496    3362.2693    904.62476   -8105.4577    1003.6779 0.00068279474 0.00070445179 0.00072752709 
 7824000    408.21075   -122.41446   -5163.1207    194.17771   -2235.7737    566.41411 0.00068269221 0.00070432212 0.00072762123 
 7826000    388.90485   -122.47355   -240.72911    4534.2541   -4083.3458   -1168.3044 0.00068268615 0.00070405514 0.00072756477 
 7828000    354.20626   -122.51051    1122.7398   -1035.1856    1210.1692    6388.6698 0.00068246908 0.00070401423 0.00072741384 
 7830000     380.2554   -122.54772   -4847.6863    5108.4199   -1055.5789   -4026.8676 0.00068243727 0.00070421225 0.00072726436 
 7832000     428.5783   -121.89271    4096.4061   -3285.6598   -484.27267   -4332.9923 0.00068243276 0.00070429437 0.00072725675 
 7834000    375.95124   -123.04336    -3384.181    1125.9255   -2846.5958    180.98244 0.00068235287 0.00070443199 0.00072705495 
 7836000    390.83328    -122.6145    1025.7696   -3196.2024    761.09931    1006.4864 0.0006828132 0.00070426819 0.00072699919 
 7838000    408.76941   -122.15763   -646.04543   -307.72058    494.12049    2612.9924 0.00068271401 0.0007043005 0.00072727314 
 7840000    374.03797   -120.72961   -3877.9501    5829.8447    7169.4875    750.17823 0.00068284489 0.00070411712 0.00072729342 
 7842000    377.70987   -121.01768    4459.5221    690.34422   -407.68983    4636.2183 0.0006828496 0.00070395508 0.00072705109 
 7844000    379.49985   -122.72433   -5976.6168   -1314.3104    2083.9412    -5125.471 0.00068275711 0.00070376118 0.0007275683 
 7846000    376.81329   -123.16111    2021.0643   -182.99368    1282.3363    2049.1235 0.00068302631 0.00070361412 0.00072784089 
 7848000    388.81095   -121.34954    288.69385    3298.9763    3093.3496    1113.0404 0.00068295835 0.00070361218 0.00072775279 
 7850000    351.40173   -122.03269   -3305.3524    -2491.497    5985.2769    -3867.634 0.0006827777 0.00070327975 0.00072808284 
 7852000    399.95162   -122.66249    2280.5969   -314.12049   -3921.4335    3488.3427 0.00068306617 0.00070352071 0.00072803167 
 7854000    388.34991   -122.30963    -5530.817   -3155.5006    3942.9109    1153.8375 0.00068305765 0.0007033171 0.00072813826 
 7856000    424.77102   -123.03147    1850.9874   -2355.9881    -457.4073    3850.0225 0.00068283558 0.00070320702 0.00072843436 
 7858000    406.50773   -121.85464   -2602.2297   -1762.1104    5828.9974    1266.5656 0.0006826334 0.00070298959 0.00072855398 
 7860000    386.41957   -122.45341   -1028.3107   -1888.6999   -1885.8138   -3653.5145 0.00068255693 0.00070282152 0.00072857734 
 7862000    388.52541    -122.1127    2312.7212    210.74144    1103.7248    2483.6312 0.00068302992 0.00070267952 0.0007284274 
 7864000    457.33159   -121.85026   -4419.8727   -2880.6164   -3161.1623   -682.31758 0.00068320671 0.00070295162 0.00072831762 
 7866000    405.67833    -121.9704    3488.8954    2788.1251    1776.3502     3744.964 0.00068316992   0.00070282 0.0007281671 
 7868000    391.66371   -121.12713   -1876.2352   -1911.6658   -3924.2624   -1501.7689 0.00068300027 0.00070273015 0.00072802336 
 7870000    342.36643   -120.81824    -516.2483    4089.5775   -3153.4069    986.03049 0.00068283396 0.00070254142 0.00072816025 
 7872000    426.46105   -122.44034   -1021.6741     1466.031    4142.4751    330.21133 0.00068266305 0.00070229428 0.00072803334 
 7874000     432.9352   -121.91068    -5279.674    841.25775   -1197.7933   -1501.4409 0.00068245442 0.00070240224  0.000727939 
 7876000    387.53446   -121.47767    2319.8575   -143.47374    9443.1311    1552.6766 0.00068239232 0.00070227576 0.00072768177 
 7878000    436.83625   -122.73785   -2825.0359   -1669.8477   -3855.3629   -4218.5852 0.00068249661 0.00070233048 0.0007274286 
 7880000    417.85593   -121.94897   -404.84549   -2471.9784   -1810.5027   -4434.0766 0.00068271403 0.00070258039 0.00072724152 
 7882000    375.95511   -121.51697    2016.6375   -1983.8137   -1729.0966   -1520.0409 0.00068266874 0.00070258755 0.00072702009 
 7884000    391.17536   -122.23159   -3557.4007   -829.60955    6435.2855    783.30752 0.0006835812 0.0007026883 0.00072691259 
 7886000    453.26573   -122.14709    2549.8955    2423.1983   -201.91086    5612.9695 0.00068422565  0.000702832 0.00072672092 
 7888000    406.71258    -121.8213   -2359.1971   -146.19248    2942.6053   -1530.2682 0.00068431536 0.00070284152 0.00072641383 
 7890000    399.86366   -122.16732   -657.00898     205.1793    1314.3901   -3473.9544 0.00068411654 0.0007026552 0.00072633999 
 7892000    406.22602   -122.39225    588.77951   -2889.9253   -6149.2274   -3984.9563 0.00068399417 0.00070256545 0.00072624098 
 7894000    377.68794   -122.23481   -3197.9227    2696.4962    3926.5993    2905.3838 0.00068404631 0.00070261044 0.00072633925 
 7896000    381.88468   -121.14887    1250.4759    -4873.003     4135.383   -2080.1594 0.00068493269 0.00070288425 0.00072611103 
 7898000    432.94178    -121.8434   -2615.7604   -163.02499    3946.3167    4694.7545 0.00068525512 0.0007029942 0.00072593898 
 7900000    372.99158   -123.17251   -1405.6916   -2028.7051   -3597.4575   -1039.9974 0.00068559427 0.00070274307 0.00072588198 
 7902000    391.63956   -122.61786    482.62595   -5044.2651    1554.7531    3036.1751 0.00068595062 0.00070257618 0.00072575324 
 7904000    413.90412   -122.32191   -2116.0498    5958.0793    152.99144     934.3243 0.00068622692 0.00070248847 0.00072615806 
 7906000    384.65375   -122.74107    1929.0031   -220.25347    1086.6015    3039.9742 0.00068627362 0.00070257904 0.00072644729 
 7908000    461.44817   -122.57948   -763.40283    1841.6834    2267.8066    786.84098 0.00068613349 0.00070256475 0.00072643839 
 7910000    393.34784   -122.32454   -1914.6243    69.145866   -3293.9295   -2617.9296 0.00068647876 0.0007028862 0.00072618666 
 7912000    463.36692   -122.08286   -1260.5203   -271.60243    4307.4376    7345.0069 0.00068631195 0.0007028033 0.00072603781 
 7914000    404.52718   -122.56782   -5775.4993    797.56761    881.59314   -3460.6199 0.00068617182 0.0007027055 0.00072599494 
 7916000    399.04517   -122.18684    503.09137   -2969.4141   -1992.7681    4563.4447 0.00068601908 0.00070260993 0.00072598549 
 7918000    422.98905   -122.59442   -2651.9302    2072.2091    -1709.091   -5369.5903 0.00068584793 0.00070240882 0.00072608216 
 7920000    384.53232   -121.69689    573.07015    256.21786     1360.184    949.08497 0.00068567109 0.00070218139 0.00072599627 
 7922000    419.57789   -121.94313     2809.127    -671.8841    1890.8865    4600.8024 0.0006855234 0.00070218573 0.00072591934 
 7924000    374.69148   -122.65556   -2278.9506    1201.0659   -156.97288   -3603.0225 0.0006855059 0.00070187298 0.00072576207 
 7926000    456.55372   -122.87978    2471.2148    -2250.001    3333.6231   -996.06304 0.00068531826 0.00070166747 0.00072561239 
 7928000    391.97269   -123.06379    -3299.791    697.53396    2215.3912   -1817.2536 0.0006851606 0.00070150589 0.00072541449 
 7930000    383.96864   -121.93852   -910.36442   -827.09201    2568.9884   -5225.1055 0.00068501533 0.00070137192 0.00072577197 
 7932000    350.80021   -121.91363    -1040.333    326.62711    3476.2212    364.01415 0.00068479619 0.00070120217 0.00072566075 
 7934000    409.87322   -122.39694   -3879.3208    2238.9327   -1176.0227    1386.7774 0.00068459147 0.00070104647 0.00072553407 
 7936000    407.34637   -122.75469    1931.2802    986.03878    3014.7401   -1503.9175 0.00068441894 0.00070094319 0.00072542146 
 7938000    384.33602   -122.80242    -4090.799   -1062.9645   -3156.4578   -1897.6983 0.00068431766 0.00070087987 0.00072526913 
 7940000    430.50785   -122.36467   -39.946383    2071.6412   -291.06599    6299.1566 0.00068422592 0.0007009198 0.00072506593 
 7942000    431.70944   -122.46666   -1564.7893    1061.2742   -2605.0153    5643.6001 0.00068412947 0.00070076066 0.0007249388 
 7944000    418.93468   -122.44643    -2224.922   -378.21708    1620.6424    -7460.417 0.0006840824 0.00070059673 0.00072487913 
 7946000    385.21787   -122.71247    1668.4391    602.51924     867.8203      3367.23 0.00068397055 0.00070044484 0.00072480114 
 7948000     360.2561   -123.52603   -3091.6591    749.96771   -2334.9079    -2213.605 0.00068383276 0.00070026968 0.00072500036 
 7950000    349.09529   -122.41629    1923.4535    -452.1117    873.03304   -1343.7031 0.00068371709 0.00070027143 0.00072488516 
 7952000     407.6598   -122.22866   -1887.9618    185.83267     3797.595   -1882.9103 0.0006838141 0.00070027564 0.0007249249 
 7954000    396.27115   -123.38549   -2382.3377    1759.0613   -17.754553    2676.3226 0.0006835036 0.00070007856 0.00072509121 
 7956000    365.69842   -122.79874   -113.52294    6860.2893    4544.2522   -519.28567 0.00068344396 0.00069997319 0.00072549071 
 7958000    380.81929   -121.78205   -5658.3988    769.03981   -3174.7906    3622.4921 0.00068319979 0.00069975421  0.000725353 
 7960000    366.26281   -122.58661   -664.95113    2159.3749   -4761.8052   -3320.3444 0.00068322805 0.00069966497 0.00072550331 
 7962000    465.86057   -122.06157    -1459.017   -3180.4943    1399.1765    6644.4656 0.00068311947 0.00069947788 0.0007252308 
 7964000    376.31777   -122.55729   -447.54814   -117.32758   -2899.3529    1436.3074 0.00068312967 0.00069945291 0.00072500903 
 7966000    377.77314   -122.40702    3060.1222    1206.1445    4589.5009    4341.6965 0.00068361475 0.0006995866 0.00072509116 
 7968000    454.38426   -121.99136     -723.672   -942.88147    981.81374   -2769.6918 0.00068369533 0.00069953927 0.00072523618 
 7970000    382.43775   -122.24513    1498.2627   -1987.0726   -1051.2332     1734.794 0.00068478808 0.0006994002 0.00072526751 
 7972000    424.87011   -122.37537   -2842.8286    5728.0988   -2398.1523    901.34936 0.0006846059 0.00069928905 0.00072541663 
 7974000    383.83395   -122.23944   -2360.9263   -4242.8213   -4471.1134   -2462.2595 0.00068431157 0.00069914424 0.00072541225 
 7976000     419.2499   -121.53427    -1996.543    2181.7403     3870.109   -1393.9352 0.00068411217 0.00069899532 0.0007252831 
 7978000    402.55906   -122.34198   -3382.9129   -3020.4136    2210.6736   -4167.9614 0.00068392637 0.00069912215 0.00072532937 
 7980000    444.56138   -122.83835    -798.6014     2315.364   -3991.5113   -3196.6998 0.00068416944 0.00069910446 0.00072546192 
 7982000    424.48263    -121.2276   -331.86943   -1776.0043    3273.2092    1092.2295 0.00068433237 0.00069915596 0.00072594038 
 7984000    370.90211   -121.69136    1214.4495   -2648.3277   -4259.4235   -922.02117 0.00068462434 0.00069925282 0.00072574964 
 7986000    367.69243    -122.0947    -263.8614    1661.9558    6629.8247    2195.1401 0.00068450646 0.00069913263 0.00072564695 
 7988000     404.2386   -123.28003   -1746.6717   -6108.2876   -763.25915   -1628.7015 0.00068445911 0.00069894834 0.00072593592 
 7990000    375.82524   -121.22038   -3.3999116    11267.037    230.42163    1604.7391 0.00068446501 0.00069876858 0.00072573781 
 7992000    389.67224   -121.73552   -1294.5132   -4433.4773   -3015.8669   -3692.7813 0.00068466072 0.00069902038 0.00072590428 
 7994000    454.56941   -121.48671    689.01897    5650.3853    429.48183    3783.2746 0.00068478156 0.00069882979 0.00072575591 
 7996000    434.70848   -120.98409   -830.28782    2785.5036   -3219.2049    90.688399 0.00068498596 0.00069875349 0.0007256205 
 7998000    378.84712   -122.14073   -104.67017   -3305.5882    1958.4192   -2247.2613 0.00068491365 0.00069875359 0.00072567291 
 8000000    391.68402    -122.0545   -2426.2141    2071.8172   -2601.5656    85.898646 0.0006846932 0.00069914026 0.00072546636 
Loop time of 7627.68 on 1 procs for 8000000 steps with 160 atoms

Performance: 90.617 ns/day, 0.265 hours/ns, 1048.812 timesteps/s
98.1% CPU use with 1 MPI tasks x no OpenMP threads

MPI task timing breakdown:
Section |  min time  |  avg time  |  max time  |%varavg| %total
---------------------------------------------------------------
Pair    | 6249.1     | 6249.1     | 6249.1     |   0.0 | 81.93
Bond    | 48.668     | 48.668     | 48.668     |   0.0 |  0.64
Kspace  | 977.28     | 977.28     | 977.28     |   0.0 | 12.81
Neigh   | 119.27     | 119.27     | 119.27     |   0.0 |  1.56
Comm    | 131.29     | 131.29     | 131.29     |   0.0 |  1.72
Output  | 11.751     | 11.751     | 11.751     |   0.0 |  0.15
Modify  | 60.069     | 60.069     | 60.069     |   0.0 |  0.79
Other   |            | 30.29      |            |       |  0.40

Nlocal:    160 ave 160 max 160 min
Histogram: 1 0 0 0 0 0 0 0 0 0
Nghost:    3084 ave 3084 max 3084 min
Histogram: 1 0 0 0 0 0 0 0 0 0
Neighs:    35459 ave 35459 max 35459 min
Histogram: 1 0 0 0 0 0 0 0 0 0

Total # of neighbors = 35459
Ave neighs/atom = 221.619
Ave special neighs/atom = 1.5
Neighbor list builds = 100104
Dangerous builds = 0
variable     ndens equal count(all)/vol
print        "average viscosity: $v [Pa.s] @ $T K, ${ndens} /A^3"
average viscosity: 0.000703099938783521 [Pa.s] @ 400 K, 0.0132485764803493 /A^3
Total wall time: 2:11:51
