LAMMPS (16 Mar 2018)
dimension 3
boundary p p p
atom_style full
units metal
kspace_style pppm/cg 1.0e-4
kspace_modify pressure/scalar no
bond_style harmonic
angle_style harmonic

neighbor 2.0 bin
neigh_modify delay 0 every 1 check yes

region box1 block -40.0 40.0 -40.0 40.0 -40.0 40.0
create_box 4 box1 bond/types 2 extra/bond/per/atom 2 angle/types 1 extra/angle/per/atom 1 extra/special/per/atom 10
Created orthogonal box = (-40 -40 -40) to (40 40 40)
  1 by 1 by 1 MPI processor grid

molecule cat_ion cation_mol.txt
Read molecule cat_ion:
  3 atoms with max type 4
  2 bonds with max type 2
  1 angles with max type 1
  0 dihedrals with max type 0
  0 impropers with max type 0

mass    1  86.8 #anion
mass    2  67.0 #ring
mass    3  15.0 #methyl
mass    4  29.0 #ethyl

create_atoms 1 random 40 1340 box1                     #at least 40
Created 40 atoms
  Time spent = 0.00427294 secs
create_atoms 0 random 40 2345 box1 mol cat_ion 1234    #at least 40
Created 120 atoms
  Time spent = 0.000179052 secs
#create_atoms 1 single  10.0 0.0 0.0
#create_atoms 0 single 0.0 0.0 0.0 mol cat_ion 1234
group anion type 1
40 atoms in group anion
group ring type 2
40 atoms in group ring
group methyl type 3
40 atoms in group methyl
group ethyl type 4
40 atoms in group ethyl

bond_coeff 1 87.729 2.689748837
bond_coeff 2 87.729 3.04931147
angle_coeff 1 87.729 144.1868904
pair_style lj/cut/coul/long 30.0
#pair_style nm/cut/coul/long 30.0
pair_modify mix geometric
################### properties to change
pair_coeff 1 1   1.1436950146628  1.3636363636364
pair_coeff 2 2   1.1436950146628  7.3998044965787
pair_coeff 3 3   3.5972629521017  0.57429130009775
pair_coeff 4 4   1.0654936461388  3.4345063538612

#create_bonds single/bond 1 2 3
#create_bonds single/bond 2 2 4
#create_bonds single/angle 1 3 2 4

set type 1 charge -1.0
  40 settings made for charge
#set type 2 charge  0.408675
#set type 3 charge  0.317505
#set type 4 charge  0.273820

########################################

write_data solid.data pair ij
PPPM initialization ...
  using 12-bit tables for long-range coulomb (/home/conda/feedstock_root/build_artifacts/lammps_1526417570236/work/src/kspace.cpp:321)
  G vector (1/distance) = 0.0715088
  grid = 8 8 8
  stencil order = 5
  estimated absolute RMS force accuracy = 0.000442562
  estimated relative force accuracy = 3.07342e-05
  using double precision FFTs
  3d grid and FFT values/proc = 2197 512
Neighbor list info ...
  update every 1 steps, delay 0 steps, check yes
  max neighbors/atom: 2000, page size: 100000
  master list distance cutoff = 32
  ghost atom cutoff = 32
  binsize = 16, bins = 5 5 5
  1 neighbor lists, perpetual/occasional/extra = 1 0 0
  (1) pair lj/cut/coul/long, perpetual
      attributes: half, newton on
      pair build: half/bin/newton
      stencil: half/bin/3d/newton
      bin: standard

thermo_style	custom step temp pe ke ebond press density

##################################
variable    T equal 298.0
variable    V equal vol
variable    dt equal 0.0001
variable    p equal 400     # correlation length
variable    s equal 5       # sample interval
variable    d equal $p*$s   # dump interval
variable    d equal 400*$s   
variable    d equal 400*5   

# convert from LAMMPS real units to SI

variable    kB equal 1.3806504e-23    # [J/K/** Boltzmann
variable    bar2Pa equal 100000.0
variable    A2m equal 1.0e-10
variable    ps2s equal 1.0e-12
variable    convert equal ${bar2Pa}*${bar2Pa}*${ps2s}*${A2m}*${A2m}*${A2m}
variable    convert equal 100000*${bar2Pa}*${ps2s}*${A2m}*${A2m}*${A2m}
variable    convert equal 100000*100000*${ps2s}*${A2m}*${A2m}*${A2m}
variable    convert equal 100000*100000*1e-12*${A2m}*${A2m}*${A2m}
variable    convert equal 100000*100000*1e-12*1e-10*${A2m}*${A2m}
variable    convert equal 100000*100000*1e-12*1e-10*1e-10*${A2m}
variable    convert equal 100000*100000*1e-12*1e-10*1e-10*1e-10
timestep     ${dt}
timestep     0.0001
variable    tdamp equal ${dt}*10.
variable    tdamp equal 0.0001*10.
variable    pdamp equal ${dt}*100.
variable    pdamp equal 0.0001*100.
thermo       $d
thermo       2000

variable  ILdens equal density
variable  ILstep equal step
variable  ILtime equal time*1.0e-12 #from ps to s
variable  ILtemp equal temp
variable  ILpe equal pe
variable  ILke equal ke
variable  ILpr equal press

##################################
fix             333 all print 2000 "${ILstep} ${ILtime} ${ILdens} ${ILtemp} ${ILpr} ${ILpe} ${ILke}" file density.dat screen no
dump 1 all dcd $d minim.dcd
dump 1 all dcd 2000 minim.dcd
dump 2 all custom $d dump.atom id mass type x y z
dump 2 all custom 2000 dump.atom id mass type x y z

##################################
##################################
#  Minimize initial
##################################

velocity     all create $T 102486 mom yes rot yes dist gaussian
velocity     all create 298 102486 mom yes rot yes dist gaussian
minimize 1.e-4 1.0e-6 1000 10000
PPPM initialization ...
  using 12-bit tables for long-range coulomb (/home/conda/feedstock_root/build_artifacts/lammps_1526417570236/work/src/kspace.cpp:321)
  G vector (1/distance) = 0.0715088
  grid = 8 8 8
  stencil order = 5
  estimated absolute RMS force accuracy = 0.000442562
  estimated relative force accuracy = 3.07342e-05
  using double precision FFTs
  3d grid and FFT values/proc = 2197 512
  PPPM/cg optimization cutoff: 1e-05
  Total charged atoms: 100.0%
  Min/max charged atoms/proc: 100.0% 100.0%
Per MPI rank memory allocation (min/avg/max) = 10.13 | 10.13 | 10.13 Mbytes
Step Temp PotEng KinEng E_bond Press Density 
       0          298 1.9566855e+11    6.1246042    0.2462049 2.4491899e+12  0.025660516 
     132          298   -90.182286    6.1246042  0.092290692   -71.185126  0.025660516 
Loop time of 0.168336 on 1 procs for 132 steps with 160 atoms

99.4% CPU use with 1 MPI tasks x no OpenMP threads

Minimization stats:
  Stopping criterion = energy tolerance
  Energy initial, next-to-last, final = 
          195668549698     -90.1764879851     -90.1822862281
  Force two-norm initial, final = 3.45083e+12 12.7731
  Force max component initial, final = 1.52393e+12 7.99571
  Final line search alpha, max atom move = 0.0119064 0.0951999
  Iterations, force evaluations = 132 191

MPI task timing breakdown:
Section |  min time  |  avg time  |  max time  |%varavg| %total
---------------------------------------------------------------
Pair    | 0.041087   | 0.041087   | 0.041087   |   0.0 | 24.41
Bond    | 0.0017629  | 0.0017629  | 0.0017629  |   0.0 |  1.05
Kspace  | 0.11669    | 0.11669    | 0.11669    |   0.0 | 69.32
Neigh   | 0.002851   | 0.002851   | 0.002851   |   0.0 |  1.69
Comm    | 0.0030873  | 0.0030873  | 0.0030873  |   0.0 |  1.83
Output  | 0          | 0          | 0          |   0.0 |  0.00
Modify  | 0          | 0          | 0          |   0.0 |  0.00
Other   |            | 0.002857   |            |       |  1.70

Nlocal:    160 ave 160 max 160 min
Histogram: 1 0 0 0 0 0 0 0 0 0
Nghost:    746 ave 746 max 746 min
Histogram: 1 0 0 0 0 0 0 0 0 0
Neighs:    3433 ave 3433 max 3433 min
Histogram: 1 0 0 0 0 0 0 0 0 0

Total # of neighbors = 3433
Ave neighs/atom = 21.4563
Ave special neighs/atom = 1.5
Neighbor list builds = 9
Dangerous builds = 0

reset_timestep 0
fix 1 all npt temp $T $T ${tdamp} iso 1.0 1.0 ${pdamp}
fix 1 all npt temp 298 $T ${tdamp} iso 1.0 1.0 ${pdamp}
fix 1 all npt temp 298 298 ${tdamp} iso 1.0 1.0 ${pdamp}
fix 1 all npt temp 298 298 0.001 iso 1.0 1.0 ${pdamp}
fix 1 all npt temp 298 298 0.001 iso 1.0 1.0 0.01
run             800000
PPPM initialization ...
  using 12-bit tables for long-range coulomb (/home/conda/feedstock_root/build_artifacts/lammps_1526417570236/work/src/kspace.cpp:321)
  G vector (1/distance) = 0.0715088
  grid = 8 8 8
  stencil order = 5
  estimated absolute RMS force accuracy = 0.000442562
  estimated relative force accuracy = 3.07342e-05
  using double precision FFTs
  3d grid and FFT values/proc = 2197 512
Per MPI rank memory allocation (min/avg/max) = 9.004 | 9.004 | 9.004 Mbytes
Step Temp PotEng KinEng E_bond Press Density 
       0          298   -90.182286    6.1246042  0.092290692   -71.185126  0.025660516 
    2000    301.56921   -123.52326    6.1979599  0.062093239    66.816122  0.050108963 
    4000    306.73037     -201.035    6.3040338   0.20623848    -73.05905   0.10288924 
    6000    309.35035   -298.74177    6.3578806  0.061921249     397.6589   0.18140622 
    8000    312.07828   -409.35459    6.4139461  0.065623053   -415.55057   0.29522044 
   10000     310.1413   -540.29073    6.3741365   0.16129522     1753.427   0.41917098 
   12000    307.57863   -624.81818    6.3214677  0.081907541    1794.1916   0.50387652 
   14000    285.24317   -705.06726    5.8624212   0.39346238    1358.9166    0.5698932 
   16000    327.10664   -771.20451    6.7228144    0.1164193    614.85693    0.6386321 
   18000    289.56618   -839.43664    5.9512692   0.34919434   -1354.9639   0.69343846 
   20000    291.46603   -889.41427    5.9903156   0.23980526    578.88673    0.7321747 
   22000    289.32222   -925.57616    5.9462554   0.38342569   -2085.6862   0.77416666 
   24000    266.03261     -970.696    5.4675987   0.52751382    1863.5476    0.8145603 
   26000    312.51042   -1001.4595    6.4228275   0.61497791   -2605.4999   0.83961631 
   28000    281.12146   -1011.2511    5.7777103   0.31725029   -77.740038   0.85613317 
   30000     299.2403   -1022.3537    6.1500953    1.1974487   -776.44275   0.86055929 
   32000    300.23165   -1031.2439      6.17047    1.0066574   -6088.3207   0.86916989 
   34000    317.72641   -1040.4325    6.5300286   0.61674098    975.05639   0.88320122 
   36000    307.18529   -1047.8148    6.3133836   0.77406535   -4421.5065    0.8816934 
   38000    307.57378   -1051.8005     6.321368   0.83976185   -5786.1273    0.8815413 
   40000    315.07898   -1054.7735    6.4756176   0.76706369   -1144.8659   0.88540845 
   42000    270.35866   -1061.1139    5.5565093   0.78949138   -1467.1142   0.88211588 
   44000    301.51981   -1061.2781    6.1969446   0.85665282    1274.5905   0.88537354 
   46000    320.20348   -1060.4369    6.5809382    1.3211893    6995.7826   0.88420241 
   48000    303.67055   -1061.7364    6.2411475    1.1514524   -931.49709   0.88570934 
   50000    287.14071   -1062.0957    5.9014201   0.90768449    954.87147   0.88489616 
   52000    289.84631   -1062.4801    5.9570265   0.90694575    2983.9879   0.88205003 
   54000    345.27219   -1064.3178    7.0961594   0.87713208    -2309.629   0.87991473 
   56000    274.86394   -1063.1837    5.6491035    1.0336877   -5060.1794   0.88134883 
   58000    269.58995   -1065.1426    5.5407105   0.81458892     1418.967   0.88695212 
   60000    288.01683   -1064.5627    5.9194265   0.59187815   -985.50878   0.87859045 
   62000    301.01109   -1066.1498    6.1864893   0.82961524    495.68522   0.88280871 
   64000    294.28153   -1065.4012    6.0481809    0.7197107    4896.2385   0.88342394 
   66000    324.76123   -1065.5386    6.6746106   0.98953957    773.13568   0.88517293 
   68000     309.1959   -1065.3741    6.3547063   0.75405152     181.3847   0.88130055 
   70000     308.3425   -1065.9795    6.3371671     1.060811     -2860.44   0.88489804 
   72000    290.91276   -1069.3919    5.9789448   0.68633913    1173.1611   0.88563251 
   74000    298.40272   -1068.8612    6.1328811   0.63060072    1896.6941   0.88635828 
   76000    309.99891   -1069.1911    6.3712101   0.74014162   -4864.8768   0.88278784 
   78000    307.69967   -1069.9372    6.3239553   0.80556503    932.54535    0.8884829 
   80000    274.96974    -1070.357    5.6512779   0.48620342   -1388.9622   0.88479165 
   82000    303.40256    -1072.098    6.2356396   0.95598531    -622.2738   0.88332195 
   84000    300.75742   -1073.0519    6.1812758   0.94162147   -491.42773   0.88647098 
   86000    295.43609    -1071.802    6.0719098    1.3681853    2562.3737   0.88901987 
   88000    262.57232   -1073.2306    5.3964816    1.1355622   -4387.7902   0.88586858 
   90000    300.30014   -1072.4363    6.1718775    1.0424157    2118.8071   0.88418353 
   92000    312.35245    -1072.275     6.419581   0.94473203    396.53846   0.88493606 
   94000    352.81193   -1073.0512    7.2511189    0.9716049   -2630.9511   0.88619019 
   96000    343.30693   -1073.2066    7.0557688    0.9908037   -7436.4134   0.88002371 
   98000    327.51407   -1073.1666    6.7311882   0.81870283   -1853.1471     0.883301 
  100000    327.23832   -1073.3841    6.7255207   0.90168367   -2163.3153    0.8864628 
  102000    312.15238   -1073.3445     6.415469    0.6909204    6203.4535   0.89002941 
  104000      274.939   -1072.4805    5.6506461   0.94571308    1694.3632    0.8864723 
  106000    314.22474   -1073.2573    6.4580609   0.78738191   -675.45726   0.88588543 
  108000    305.31875   -1073.0708    6.2750218    1.2524679   -3977.6453   0.88389084 
  110000    321.15345   -1073.1687    6.6004623    1.1929817    840.17427   0.88640965 
  112000     304.1632   -1072.8205    6.2512726    1.0182005    1845.7837   0.88850861 
  114000     322.1683   -1073.6836    6.6213198    0.8545733   -1515.7035   0.88342006 
  116000    276.19069   -1073.1104    5.6763714    1.2587328    703.13255   0.88289114 
  118000     247.5796   -1072.5806    5.0883458   0.92663521    3208.2541    0.8860858 
  120000    303.76213   -1072.8855    6.2430296   0.95924548    1589.1567   0.88880486 
  122000    273.17548   -1072.6312    5.6144015    1.1911729   -4312.9608   0.88689798 
  124000    299.13469   -1072.9076    6.1479247    1.1117498   -952.35768   0.88508649 
  126000    286.53288   -1073.6934    5.8889278   0.96301965    3571.1876   0.88801867 
  128000    292.74646   -1072.7071    6.0166316    1.0249786    4052.3787   0.88771836 
  130000    304.27658    -1072.806    6.2536027   0.97435532   -761.89788   0.88816256 
  132000    328.45329   -1072.9514    6.7504912    1.2221787    -1820.229    0.8852913 
  134000    289.52384   -1073.0926    5.9503991    1.2691155   -2223.6107   0.88629706 
  136000     285.6201   -1073.2087    5.8701679    1.1175399   -10.419751   0.88394821 
  138000    280.97889   -1072.6848    5.7747802       1.1598    2548.1114   0.88599894 
  140000    330.17518   -1073.0315    6.7858803   0.93515415    7677.9695   0.88870944 
  142000    278.34307   -1072.5404    5.7206079    1.0050368   -916.84436   0.88506546 
  144000    305.71216   -1073.0255    6.2831072    1.1021338    -2078.042    0.8828043 
  146000    331.55816   -1073.6074    6.8143036   0.77408825     1323.024   0.88560587 
  148000    273.30449   -1073.4375     5.617053    1.2732041    530.43592   0.88696466 
  150000    306.72649   -1072.9729    6.3039542     1.076654    4176.4222   0.89048525 
  152000    271.31511   -1073.1608    5.5761667   0.92383305    2004.7635   0.88361948 
  154000    299.84057   -1074.1599    6.1624322    1.1104122    2137.6939   0.88408528 
  156000    291.23686   -1072.6715    5.9856056   0.98774111    8161.1641   0.88698969 
  158000     283.9537   -1074.1392    5.8359195    1.2127651   -2253.3831   0.88735712 
  160000    355.33639   -1073.3105    7.3030024    1.4109602   -5891.9908   0.88400083 
  162000     277.5943    -1073.145    5.7052189    1.0099303   -1027.1761   0.88260487 
  164000    287.51063   -1073.6029    5.9090229    1.1315351   -2165.3843   0.88567779 
  166000    289.63076   -1074.2887    5.9525966    1.1817919   -2861.8963   0.88196048 
  168000    296.65808   -1074.1352    6.0970245    1.1028409   -2276.0568   0.88691474 
  170000     336.0683   -1073.1258    6.9069977   0.88595653    3280.9356   0.88551496 
  172000     327.8247    -1073.378    6.7375723   0.95687708   -150.88994    0.8828445 
  174000    278.81143   -1073.9359    5.7302337    1.2641414     213.7122   0.88569129 
  176000    321.09426   -1073.2454    6.5992457    1.2368243   -1157.7858   0.88523815 
  178000    301.79997   -1073.9061    6.2027026    1.2609835    1431.4763    0.8873828 
  180000     244.6488   -1073.0934    5.0281109    1.8290988   -2471.2931   0.88616779 
  182000    304.08273   -1073.3169    6.2496187    1.5354863    367.91297   0.88394205 
  184000    311.48484   -1073.2168    6.4017494    1.5558599    439.22819   0.88589268 
  186000    265.76607   -1073.2222    5.4621207    1.3300271    2124.7101   0.88318337 
  188000    327.12617   -1073.7087    6.7232159    1.3465064    3387.9482   0.88757709 
  190000    290.10874   -1073.7095    5.9624201    1.2533313    344.18443   0.88441599 
  192000    331.33823   -1073.4029    6.8097835    1.6283711   -3787.3779   0.88478801 
  194000    293.42506   -1072.9612    6.0305783    1.1685059    2486.0407   0.88749946 
  196000    277.61671    -1073.765    5.7056794    1.3130905   -520.96563   0.88610165 
  198000    317.33703    -1072.928    6.5220259    1.4670069     1260.984   0.88435506 
  200000    308.53764   -1073.7506    6.3411776    1.2122249    2004.1294   0.88642683 
  202000    303.82315   -1073.0521    6.2442837    1.5782319   -3420.1833   0.88443447 
  204000    321.10493    -1073.947    6.5994652    1.1935173   -1667.3696   0.88539969 
  206000    307.64523   -1073.3401    6.3228364    1.2232968    251.77453   0.88677437 
  208000    309.66875   -1073.4995    6.3644246    1.2480008    7549.0566   0.89333812 
  210000    299.00943   -1073.9775    6.1453505    1.5032925    -1762.413   0.88729293 
  212000    299.24472   -1073.7946    6.1501862    1.5034196   -6049.9867   0.88284302 
  214000    301.13428   -1072.7966    6.1890211    1.0898233   -1447.2768   0.88161578 
  216000    283.80872    -1073.544    5.8329398    1.4483828   -2654.3158   0.88413816 
  218000    298.99396   -1073.8138    6.1450324     1.257888   -2156.5527   0.88450951 
  220000    273.58641   -1073.8778    5.6228472     1.349589    2168.9239   0.88601959 
  222000    277.24912   -1074.0026    5.6981246    1.3703895    2966.7692   0.89035183 
  224000    290.84853   -1074.1548    5.9776245    1.4396722   -2378.6394   0.88812674 
  226000    309.37252    -1073.448    6.3583363    1.3591765   -2056.7536   0.88234552 
  228000     321.6445   -1074.0156    6.6105545    1.3877396   -2233.1301   0.88480605 
  230000    295.02218     -1074.09     6.063403    1.0974827    288.06354    0.8872165 
  232000     307.3844   -1073.5931    6.3174758    1.3215328     2185.925   0.88732746 
  234000    309.69145   -1073.3605    6.3648912    1.3886123   -2133.6528   0.88728642 
  236000    293.61105   -1072.9642     6.034401    1.2285574    -3341.289   0.88538595 
  238000    305.81559   -1073.8518     6.285233    1.2622848   -3826.4967   0.88608182 
  240000    304.72369    -1073.905    6.2627918    1.2478107   -1275.9948   0.88653499 
  242000    267.95788   -1073.4792    5.5071677    1.0972253    702.82866   0.88683969 
  244000    271.96699   -1074.0568    5.5895644    1.0632043    4778.1277   0.89065146 
  246000    275.73098   -1073.5585    5.6669233    1.1405877   -1472.5273   0.88586052 
  248000    275.57928   -1073.2409    5.6638055    1.1729355    -594.3438   0.88104393 
  250000    268.71086   -1073.1961    5.5226432    1.4681607   -2935.6826   0.88593901 
  252000    289.54701   -1073.3485    5.9508753    1.2300427   -836.79033   0.88565242 
  254000    321.61318   -1072.8561    6.6099109    1.8682674   -1027.7495   0.89178173 
  256000    271.37416    -1073.651    5.5773803    1.2677128    934.28769   0.88373517 
  258000    306.74562    -1074.231    6.3043473    1.4177906    4990.2826   0.88892488 
  260000    299.46973   -1072.8968    6.1548107    1.3751599    2678.3046   0.88998375 
  262000    294.56736   -1074.1194    6.0540553    1.5673211    -4836.921   0.88833326 
  264000    330.83117   -1073.4607    6.7993623    1.6997883   -720.51163   0.88731171 
  266000    310.04518    -1074.149     6.372161     1.167016    1912.4181    0.8843439 
  268000    283.35102   -1074.0933    5.8235329   0.96598611    1033.0697   0.88638371 
  270000    340.95357   -1073.5487    7.0074016    1.2927415    5715.9958   0.88925783 
  272000    290.20439   -1073.5586     5.964386    1.0843303    4757.5345   0.88801359 
  274000     297.9614   -1073.3956    6.1238109     1.266871    193.16447   0.88750103 
  276000    292.87476   -1073.2951    6.0192684    1.5568695   -5382.7017   0.88231163 
  278000    291.82561   -1073.2251     5.997706    1.5259617   -1510.1335   0.88459617 
  280000    289.51023   -1073.3814    5.9501195    1.4107592    2122.6017   0.88641191 
  282000    290.44487   -1073.3441    5.9693285    1.2590278    1075.7646   0.88515266 
  284000    306.07116   -1073.3701    6.2904856    1.0718397   -42.535518   0.88778761 
  286000    277.10331   -1073.5968    5.6951279    1.2066313    7816.0297   0.89068586 
  288000    309.80305   -1074.3291    6.3671848    1.1609641   -1419.1792   0.88702692 
  290000    282.51864   -1073.8987    5.8064256    1.2267518   -2926.6568   0.88751886 
  292000    306.82513     -1073.57    6.3059814    1.5020449   -491.07091   0.88686767 
  294000    309.77754   -1073.0356    6.3666605    1.1792399    3104.2569   0.88728008 
  296000    279.53065   -1073.3584    5.7450155     1.484798    630.86316   0.88633924 
  298000    309.11713   -1073.3479    6.3530875    1.1107204    2937.8583   0.88492644 
  300000    313.08479    -1073.724    6.4346323    1.4423538     331.9065   0.88774974 
  302000    292.43138   -1072.9749    6.0101558    1.4630103    -5203.186   0.88259012 
  304000    301.63342   -1074.0399    6.1992796    1.1102889   -402.08816   0.88592964 
  306000    294.61087   -1073.8093    6.0549496    1.2118728    654.93198   0.88462128 
  308000    241.57704   -1073.2076    4.9649791    1.2279779    2575.9348   0.88674885 
  310000    300.57497   -1073.3671     6.177526    1.3414719    77.103787   0.88884011 
  312000    260.28044   -1073.6639    5.3493782    1.6703031   -777.55537   0.88637297 
  314000    331.46661   -1073.4806    6.8124222    1.2993859   -3042.9708   0.89037817 
  316000    326.61268   -1073.4743    6.7126624    1.2716841   -3693.3156   0.88377479 
  318000    307.14908   -1073.9334    6.3126394    1.3759701   -375.06024   0.88880254 
  320000    279.79595   -1073.1609    5.7504679    1.6357359   -5625.3104   0.88753202 
  322000    279.59061   -1073.8045    5.7462478    1.3170242    1147.4459    0.8895042 
  324000      295.939   -1073.4515    6.0822458    1.0920077    3138.1375   0.88588811 
  326000     303.8409   -1073.0963    6.2446484    1.5159247    2387.4979   0.88927532 
  328000    302.61564   -1072.9943    6.2194664    1.4341443   -4716.5347   0.88684298 
  330000    310.88386   -1073.7785    6.3893979    1.3145169    1758.5512   0.88548928 
  332000    281.21809   -1074.1729    5.7796963    1.1053871    6652.9259   0.88908674 
  334000    281.04868   -1073.9212    5.7762145    1.3168266   -2838.8586   0.88725005 
  336000    291.26462   -1073.3998    5.9861761    1.1187224    1270.7299   0.88732792 
  338000    317.52001   -1073.5989    6.5257865    1.3929856    1797.9377   0.88649584 
  340000    307.55657   -1073.4901    6.3210142    1.5404178    432.15911   0.88399619 
  342000     296.2634   -1073.5806     6.088913    1.2085923   -316.38794   0.88349023 
  344000    289.10237   -1073.6992     5.941737    1.1712992    3394.0149   0.88566897 
  346000    329.17721   -1073.7602    6.7653696    1.3340562   -1601.9553   0.88492573 
  348000    277.53621   -1074.2351     5.704025    1.2188816   -2743.2603   0.88399932 
  350000    300.59937   -1073.6149    6.1780275    1.3504141    579.96465   0.88652885 
  352000     269.1359   -1073.0485    5.5313788     1.697676    161.74308   0.88794061 
  354000    265.76092   -1074.2232    5.4620149    1.4363034   -1677.5122   0.88730632 
  356000    302.06824   -1073.3378    6.2082161     1.520187    535.93151   0.88432739 
  358000    294.14795   -1073.6258    6.0454355    1.2764656    4630.5674   0.88520759 
  360000    330.26152   -1073.4839    6.7876546    2.1371039   -8088.4714   0.88135513 
  362000    300.46528   -1073.3872    6.1752714    1.2435419    1664.4054   0.88781049 
  364000    324.02516   -1073.9035    6.6594827    1.3755039   -2600.9389   0.88687114 
  366000    319.62054   -1073.5674    6.5689574    1.3186602     10.83359   0.88242852 
  368000    339.86799   -1073.7401    6.9850904    1.1429109    5706.9455   0.88774729 
  370000    328.02021   -1073.7788    6.7415904    1.4644634   -1617.6769   0.88506014 
  372000    294.15406   -1073.9399     6.045561     1.014851   -2754.3026   0.88350009 
  374000    268.57924   -1073.8774    5.5199381    1.3374683   -2409.6604   0.88608609 
  376000     270.0047   -1073.1568    5.5492346    1.2281055    4863.6501   0.88907497 
  378000    276.30921   -1073.9072    5.6788072    1.6111879   -2400.6849   0.88654219 
  380000    302.41995   -1073.7653    6.2154446    1.1186839    1878.0363   0.88377607 
  382000    308.81521   -1073.3135    6.3468822    1.3619252   -2931.1908   0.88726315 
  384000    294.00752   -1072.8909    6.0425493    1.4699452    87.927741   0.88419155 
  386000    316.72359   -1072.7145    6.5094182    1.3778411    2256.4946   0.88472927 
  388000    291.27958   -1073.2816    5.9864836    1.6521044   -4699.7058   0.88649887 
  390000    292.73935   -1073.3181    6.0164854    1.3774021   -1245.3454   0.88916862 
  392000    284.37908    -1072.911    5.8446622    1.2850787    2524.7185   0.88694472 
  394000    298.35603   -1073.2508    6.1319215    1.4599899   -1078.9547   0.88450956 
  396000    278.24724   -1073.1438    5.7186383    1.2649983   -1275.2983    0.8836009 
  398000     338.2761   -1073.4597    6.9523733   0.94626148     4212.467   0.88806384 
  400000    296.06115   -1073.6358    6.0847563    1.1105626    2552.0866   0.88695316 
  402000    313.94615   -1072.8587    6.4523352     1.962772   -8103.9987   0.88239274 
  404000    315.29329   -1073.8943    6.4800222    1.2916401   -715.46201   0.88644454 
  406000    280.18757   -1073.0668    5.7585166    1.4189422    5076.3427   0.88770253 
  408000    326.87254   -1073.4139     6.718003    1.3288364     1655.886   0.88755917 
  410000    303.61648   -1073.8666    6.2400361    1.1875552   -3231.0705    0.8823477 
  412000    281.03601   -1072.6192     5.775954    1.7177324    1459.8786   0.88935355 
  414000    273.63095   -1074.1017    5.6237627    1.6478354   -267.19928   0.88958592 
  416000    325.61486   -1072.8585    6.6921548    1.9728716   -3282.6146     0.884347 
  418000    312.91031   -1074.0921    6.4310464    1.0117278    4897.7527   0.88956759 
  420000    275.71264   -1073.6619    5.6665464    1.1716682    -2483.335   0.88541584 
  422000      343.723   -1073.9358    7.0643199    1.2953195    3890.5344   0.88847987 
  424000    275.49883    -1074.634     5.662152   0.79783002   -398.32627   0.88484195 
  426000     352.0393   -1073.2975    7.2352395    1.4985617   -4049.0434    0.8847884 
  428000    275.40665   -1073.7833    5.6602574    1.4431436     3456.698   0.89098277 
  430000    301.30366   -1073.9062    6.1925023    1.1850049     4047.218   0.88627079 
  432000    302.53445   -1073.8082    6.2177979    1.2902431   -2850.7891   0.88582825 
  434000    299.54709   -1073.1575    6.1564005    1.0918923    3021.3033    0.8862831 
  436000    309.20347   -1073.6383     6.354862    1.2942563   -1314.0735   0.88440486 
  438000    291.69005   -1073.9494    5.9949199    1.3627201   -865.85455   0.88418861 
  440000    289.56337   -1073.3813    5.9512115    1.0636994    5502.7912   0.88587373 
  442000    262.19247   -1072.5515    5.3886748    1.4174466   -3407.5047    0.8815957 
  444000    343.41559   -1073.0828    7.0580018    1.4659545    2336.2776   0.88750322 
  446000    296.71546   -1073.5987    6.0982038    1.5330819    3280.1074   0.89134844 
  448000    309.21719   -1073.4752     6.355144    1.3709005   -969.08712   0.88571449 
  450000    283.51767   -1074.1274    5.8269581    1.4140485   -117.31049   0.88738487 
  452000    309.25281   -1072.9339    6.3558759     1.368794    5623.9255   0.88901681 
  454000    317.39305   -1073.3838    6.5231772    1.6889934   -1435.3901   0.88895846 
  456000     294.7112   -1073.2765    6.0570117    1.9631126   -4893.0662   0.88394477 
  458000    275.53626    -1073.712    5.6629213    1.2747637    2079.0323   0.88890439 
  460000    302.55399   -1073.2834    6.2181994    1.5572013   -2506.4251   0.88417131 
  462000    344.52895   -1073.4484     7.080884    1.6799642   -4695.3519   0.88631139 
  464000    287.93657   -1073.8101    5.9177769    1.1330814    3414.1627    0.8891522 
  466000    282.42849   -1072.6268    5.8045728    1.4556402   -1630.7494   0.88590261 
  468000    280.75215   -1073.8287    5.7701202    1.2838569   -2940.5561   0.88508298 
  470000    304.79594   -1073.8308    6.2642769   0.82127478    7213.3159   0.89018323 
  472000    313.97671   -1073.4885    6.4529634    1.7338985   -1335.2274   0.88603736 
  474000    345.94186   -1074.1889    7.1099226    1.3576417   -642.23448   0.88727901 
  476000     306.1038   -1073.5079    6.2911564    1.2548598    6814.9143   0.88780303 
  478000    270.91967   -1073.1664    5.5680395    1.7176769   -2566.1633   0.88650054 
  480000    305.73922   -1074.0188    6.2836635    1.2095883    1111.0658   0.88578272 
  482000    296.39744   -1073.9737    6.0916678    1.2933589    2384.6818   0.88496057 
  484000    299.88978   -1073.4484    6.1634435    2.0281396   -5602.1588   0.88524351 
  486000    295.56682   -1073.5507    6.0745965      1.49268    5002.1912    0.8858144 
  488000    320.91756   -1073.5911    6.5956141    1.1903944    4210.7924   0.88449723 
  490000    303.63815   -1073.3762    6.2404815    1.9111085   -1362.3626   0.88620155 
  492000    308.84876   -1073.5887    6.3475718    1.6145205    1703.0185   0.88640198 
  494000    294.53776   -1073.2724     6.053447    1.4514751    1499.1876   0.88971581 
  496000    279.97685     -1073.04    5.7541859    1.6539806   -3095.9918   0.88135355 
  498000    302.87601   -1073.8264    6.2248178    1.1754508    2329.8957   0.88726908 
  500000    306.12111   -1073.2402    6.2915122    1.5822985   -2673.1463   0.88447443 
  502000    280.08476   -1073.9054    5.7564037    1.4831296   -2022.9534   0.88571618 
  504000    280.43461   -1073.6181    5.7635938    1.5118882    694.11601   0.88531871 
  506000    297.34956   -1073.5878     6.111236    1.3397703    1834.9181   0.88792636 
  508000    299.97338   -1073.2447    6.1651618    1.7290663   -3494.4522   0.88767615 
  510000    303.45016   -1072.9558    6.2366179    1.5014118   -460.95021   0.88254798 
  512000    287.11253   -1073.4582     5.900841    1.1512871    3694.0787   0.88565713 
  514000    308.61818   -1073.3822    6.3428328    1.2586765   -437.11148   0.88765864 
  516000    286.93203   -1073.4914    5.8971313    1.4617211   -2060.3615   0.88446922 
  518000    310.79683   -1073.6675    6.3876094    1.3174878   -359.43442   0.88651144 
  520000    286.88679   -1073.0233    5.8962015    1.6386325    4938.6752   0.88808244 
  522000    274.21631    -1073.243    5.6357931    1.3749151    14.680525   0.88739405 
  524000    287.35302   -1073.4754    5.9057836    1.4070387   -2599.4944   0.88560002 
  526000    320.00551   -1073.3058    6.5768695    1.4083907    1691.2313   0.88537123 
  528000    303.46398   -1073.5668    6.2369019    1.1264031    746.99903   0.88511036 
  530000    292.69086   -1073.3985    6.0154889    1.1701592    -1915.541    0.8834161 
  532000      268.798   -1073.5731    5.5244341    1.3210132   -299.91061   0.88638663 
  534000    296.83534   -1073.7633    6.1006677    1.5286942    1175.9041   0.88711081 
  536000     304.5307   -1073.4891    6.2588255    1.3833593   -1037.9422   0.88466252 
  538000    294.35653   -1073.2053    6.0497222    1.2293727    1714.1084   0.88717339 
  540000    315.52615   -1073.2923     6.484808    1.3924023    6643.4581   0.88852141 
  542000    296.24295   -1074.0271    6.0884927    1.3206564   -2284.5803   0.88412727 
  544000    289.18753   -1074.1144     5.943487    1.2139124    25.741875   0.88488467 
  546000    285.43325   -1073.6532    5.8663277    1.6267141    2072.9808   0.88767321 
  548000    305.01618   -1073.2894    6.2688033    1.1447007     376.6531   0.88441948 
  550000    313.73692   -1073.6951    6.4480352    1.3320379   -3326.1099   0.88526718 
  552000    304.20945   -1073.1179    6.2522231      1.36521    3120.7792   0.88730043 
  554000    282.67025   -1073.5637    5.8095415    1.2854824   -4170.2588   0.88290522 
  556000    285.84829   -1073.8346    5.8748577    1.2995851    1706.8391   0.88699609 
  558000    283.94313   -1073.5365    5.8357023     1.258264   -4926.6365   0.88234506 
  560000    336.51366   -1073.3611    6.9161509    1.2450737    -3281.904   0.88246716 
  562000     298.7431   -1073.6307    6.1398766     1.780262    -3038.342   0.88512823 
  564000    271.03486    -1073.506    5.5704069     1.164093    1640.4954   0.88613655 
  566000    278.99259   -1074.0977    5.7339571   0.90700863   -421.89749   0.88580428 
  568000    268.51401   -1073.1708    5.5185973    1.7291396   -4563.0814   0.88758532 
  570000    289.87476   -1073.5961    5.9576112     1.167514     721.9028   0.88706012 
  572000    293.62492   -1074.1503     6.034686    1.1224079   -106.97445   0.88752727 
  574000    296.60832   -1072.9232    6.0960018    1.3828948   -6277.1515   0.88472633 
  576000    290.35545   -1074.0982    5.9674905    1.2793903   -2609.7949   0.88449805 
  578000    279.27552   -1073.6833    5.7397718    1.4355313   -2119.0317   0.88566933 
  580000    314.29194   -1073.7537    6.4594421    1.1215521    4772.3052   0.88475287 
  582000    299.81078   -1072.9871    6.1618199     1.393448    5508.7681    0.8884144 
  584000    327.68556    -1073.058    6.7347125    1.3586992    4684.9164   0.88805355 
  586000    277.02853   -1073.6477    5.6935909    1.0876976   -1561.5122   0.88498237 
  588000    291.46113   -1073.1907     5.990215    1.6050078   -2963.0954   0.88671982 
  590000    287.22696   -1072.3496    5.9031927    1.3935323   -2003.5676   0.88464932 
  592000    307.44709    -1072.753    6.3187643    1.4878511   -4339.5444   0.88428328 
  594000    323.93776   -1074.0269    6.6576864    1.1487217    3985.4563    0.8879802 
  596000    308.90482   -1074.5199     6.348724   0.99243401    3770.8146   0.88859693 
  598000    302.78101   -1073.9128    6.2228651    1.2151561    3418.4238    0.8898999 
  600000    316.45564   -1073.0645    6.5039113    1.2890209   -1135.9762   0.88513086 
  602000    301.91992   -1072.8392    6.2051679    1.5424062   -3361.2182   0.88569112 
  604000    292.05851   -1072.2852    6.0024925    1.6113174   -3801.7803   0.88517152 
  606000    305.45114   -1074.0926    6.2777428    1.0955576    2794.8238   0.88771192 
  608000    304.27181   -1073.4977    6.2535048    1.0121685    2394.5978   0.88623122 
  610000    289.99643   -1073.9321    5.9601119    1.2387749    4777.8133   0.88963344 
  612000    307.45816   -1073.4148    6.3189917    1.2084752    894.40502   0.88646169 
  614000    306.24203   -1074.3101    6.2939974    1.0524442   -50.260297   0.88792044 
  616000    317.28526    -1074.539    6.5209618    1.0262634    1987.3844   0.88737552 
  618000    314.64199    -1073.796    6.4666364    1.4746768   -1295.6614   0.88505827 
  620000    330.29608   -1073.0145    6.7883649    1.5802543   -5601.1615    0.8821159 
  622000    321.42147   -1074.2413    6.6059707     1.244817    -2299.198   0.88701081 
  624000    310.17139   -1073.1065    6.3747549    1.1397654    1134.7769   0.88491001 
  626000    293.28361   -1074.1629    6.0276713    1.5060556    1472.6085   0.88881131 
  628000     304.6897   -1073.5687    6.2620934    1.0136172    3878.6445   0.88549091 
  630000    285.55714   -1073.5581    5.8688741    1.4672469   -1358.5088   0.88478296 
  632000    279.80574   -1073.3793    5.7506692    1.6705503    -7053.828   0.88412845 
  634000     308.3017   -1073.3533    6.3363285    1.3790869   -723.18137   0.88550633 
  636000    298.83603   -1074.0452    6.1417865   0.93714864   -336.41937   0.88852956 
  638000    287.25687   -1074.0495    5.9038076    1.3033124    4977.7447   0.89025006 
  640000    276.48879   -1073.3216    5.6824979    1.1793087    4355.5282   0.88892638 
  642000    287.84775   -1072.9149    5.9159516   0.98607267    4384.8213   0.89220002 
  644000    293.51255   -1072.9884    6.0323765    1.6243603   -1497.0152   0.88513103 
  646000    285.29029   -1073.4026    5.8633896    1.4417384   -3820.3735   0.88486052 
  648000    306.59623   -1073.5084    6.3012771    1.5645233   -6512.7561   0.88678745 
  650000    293.84252    -1073.571    6.0391581    1.5080181   -2917.1749   0.88390494 
  652000    279.48581    -1073.577    5.7440938    1.2783258   -2350.3894   0.88591662 
  654000     309.5225    -1072.625    6.3614187    1.4072462    2721.7899    0.8882973 
  656000    303.64182   -1072.9353    6.2405569    1.4597414    4414.0011   0.88971739 
  658000    296.76786   -1072.9379    6.0992808    1.3358494    4097.0549    0.8871358 
  660000    279.74638   -1073.9497    5.7494493     1.373271   -5110.0586   0.88682274 
  662000    320.84625   -1073.4976    6.5941486     1.439254    -2793.442    0.8831949 
  664000    292.02142   -1073.4467    6.0017303    1.5479159   -1064.0155    0.8845555 
  666000    301.51479   -1073.6188    6.1968414    1.0981336    65.672368   0.88098756 
  668000    295.45555    -1073.913    6.0723097    1.2853848    1511.7539   0.88407398 
  670000    310.66406   -1073.2791    6.3848807     1.430532    1771.0415   0.88667641 
  672000    319.53305   -1073.5637    6.5671593    1.0397857    5436.6472   0.88985473 
  674000    307.58932   -1074.1424    6.3216874    1.3160082    1803.6655    0.8872881 
  676000    309.37669   -1073.7708    6.3584221    1.4591865    682.16988   0.88666813 
  678000    311.04732   -1073.3949    6.3927574    1.7801258   -5281.6722   0.88845116 
  680000     292.0519   -1073.9041    6.0023567    1.5749925   -1222.3278   0.88590646 
  682000    288.75212   -1074.1011    5.9345383    1.1340484    2755.4822   0.88667435 
  684000    332.15603   -1073.6312    6.8265913    1.2099831    5012.8313   0.88801812 
  686000    297.55627   -1073.3002    6.1154845     1.407822    3051.2177   0.88755403 
  688000    263.83904   -1073.1262    5.4225157    1.4231364    1153.7803   0.88520917 
  690000    332.69137   -1072.8325    6.8375938    1.4906209    446.67541   0.88513935 
  692000    296.41244   -1073.9191     6.091976    1.6476724   -2907.9796   0.88335244 
  694000    305.95484    -1073.823    6.2880949    1.2681769    699.14203   0.88786118 
  696000     313.9901    -1073.723    6.4532384    1.5783812     2088.044   0.88560571 
  698000    308.71347   -1073.7089    6.3447913      1.41543    5001.5265   0.88796143 
  700000    283.17123   -1073.6317     5.819838     1.231923    5653.0104   0.88636904 
  702000    291.31366   -1073.9099    5.9871841    1.4076917    946.65356   0.88432774 
  704000    287.60607   -1073.1916    5.9109844    1.6081972   -2513.2767   0.88269824 
  706000    300.23502   -1073.9268    6.1705391     1.611833   -2341.3398    0.8843522 
  708000    315.26245   -1074.5362    6.4793884    1.3063372     1132.932   0.88573799 
  710000    268.55048   -1073.0637    5.5193469     1.368895    2461.1919   0.88763033 
  712000    295.25842   -1072.0214    6.0682582    1.3785857    2153.3275   0.88958847 
  714000    295.92352   -1073.6993    6.0819277    1.4025854    4641.3005   0.88648634 
  716000    277.78688   -1074.0944    5.7091769    1.1966849   -1517.5408   0.88500305 
  718000    264.30168   -1073.2537    5.4320242    1.5322041   -4979.9526   0.88130307 
  720000    284.21401   -1073.3958    5.8412695    1.2150966   -2022.8342    0.8812423 
  722000    299.40442   -1073.5277    6.1534684    1.3962066   -993.63898   0.88713998 
  724000    285.14809   -1073.8294    5.8604671    1.2718225    4355.2402   0.88958998 
  726000    313.30478   -1073.8073    6.4391536    1.3386151    878.86189   0.88783562 
  728000    322.52761   -1072.9497    6.6287045    1.6091276    5179.2973    0.8876091 
  730000    284.80132   -1074.1628    5.8533401    1.2987669    286.00627     0.886656 
  732000    273.37929   -1073.9246    5.6185904    1.5302764    2098.6836     0.889051 
  734000    274.61219   -1074.0568    5.6439295    1.9759533   -3086.6841   0.88734949 
  736000    307.07541   -1073.8088    6.3111252    1.1766378   -1337.1902   0.88318658 
  738000    290.02263   -1074.0474    5.9606503    1.5213131   -1654.2369   0.88790149 
  740000    273.72828   -1073.5038    5.6257631    1.7471179    6941.2308     0.890767 
  742000    304.31676   -1073.5405    6.2544286    1.2606369    2401.3632   0.88560179 
  744000    304.16753   -1073.7125    6.2513616    1.0734793    5989.0022   0.88861948 
  746000    265.89977    -1073.923    5.4648687    1.1457928   -2009.9337   0.88524601 
  748000    291.14393   -1073.7488    5.9836958    1.3922552   -2239.6199   0.88741059 
  750000    329.28992   -1073.4404     6.767686     1.375899   -137.15217   0.88427818 
  752000    296.55682   -1073.7086    6.0949434    1.0631726   -830.69536   0.88417782 
  754000    315.55638    -1073.748    6.4854293    1.4180169    2148.7971   0.88743872 
  756000    330.33032   -1073.6115    6.7890687    1.3174907    2631.3407   0.88860112 
  758000    301.47403   -1073.4041    6.1960036      1.72772    42.322901   0.88266725 
  760000    302.99193    -1073.542    6.2272002    1.5983145    2287.4507   0.88758212 
  762000    300.52387   -1074.4974    6.1764757    1.2608436   -1445.9657   0.88857423 
  764000    331.65602   -1073.0259    6.8163148    1.8252412   -2320.5198   0.88390681 
  766000    290.84621   -1073.8409    5.9775769    1.3564932    2629.3506   0.88496422 
  768000    289.99091   -1073.4696    5.9599984    1.6296556    1124.6302   0.88599511 
  770000    298.24053   -1073.5591    6.1295477    1.4979755   -1184.2215    0.8859246 
  772000    310.42156   -1074.6488    6.3798965    1.5369363   -3270.8686   0.88478285 
  774000    311.56305   -1073.5907    6.4033569     1.865083    616.81333   0.88436021 
  776000    282.09894   -1073.2598    5.7977999    1.4416668    5555.3226   0.88654071 
  778000    349.33141   -1073.9365    7.1795859    1.3320675    3044.0727   0.88817931 
  780000    307.58966   -1073.6264    6.3216943    1.5093084    3234.2404   0.88715864 
  782000      272.264   -1073.9246    5.5956686    1.5734495    948.58661   0.88950298 
  784000     285.5964    -1073.806    5.8696809    1.1856795    1373.3294   0.88409224 
  786000    267.63451   -1073.5937    5.5005216    1.3464892    1652.5314    0.8880768 
  788000    323.14642    -1073.716    6.6414226    1.2553828   -358.92116   0.88384542 
  790000    310.45804   -1073.7104    6.3806464    1.6566556   -1157.7744    0.8854018 
  792000    264.26649   -1073.3879    5.4313008    1.7041763   -2835.8387   0.88295067 
  794000      288.865   -1073.2801    5.9368583    1.3027881    1804.9956   0.88316031 
  796000     286.1792   -1073.0797    5.8816589    1.4451595    3068.0848   0.88714233 
  798000    280.40503    -1073.348    5.7629861    1.4015727    117.51456   0.88425857 
  800000     289.8367   -1073.2641     5.956829    1.3997082    5386.9976   0.88966793 
Loop time of 4955.52 on 1 procs for 800000 steps with 160 atoms

Performance: 1.395 ns/day, 17.207 hours/ns, 161.436 timesteps/s
100.0% CPU use with 1 MPI tasks x no OpenMP threads

MPI task timing breakdown:
Section |  min time  |  avg time  |  max time  |%varavg| %total
---------------------------------------------------------------
Pair    | 4219.2     | 4219.2     | 4219.2     |   0.0 | 85.14
Bond    | 8.8885     | 8.8885     | 8.8885     |   0.0 |  0.18
Kspace  | 477.06     | 477.06     | 477.06     |   0.0 |  9.63
Neigh   | 4.2637     | 4.2637     | 4.2637     |   0.0 |  0.09
Comm    | 94.367     | 94.367     | 94.367     |   0.0 |  1.90
Output  | 0.11192    | 0.11192    | 0.11192    |   0.0 |  0.00
Modify  | 145.28     | 145.28     | 145.28     |   0.0 |  2.93
Other   |            | 6.34       |            |       |  0.13

Nlocal:    160 ave 160 max 160 min
Histogram: 1 0 0 0 0 0 0 0 0 0
Nghost:    7294 ave 7294 max 7294 min
Histogram: 1 0 0 0 0 0 0 0 0 0
Neighs:    117843 ave 117843 max 117843 min
Histogram: 1 0 0 0 0 0 0 0 0 0

Total # of neighbors = 117843
Ave neighs/atom = 736.519
Ave special neighs/atom = 1.5
Neighbor list builds = 677
Dangerous builds = 0
unfix 1
unfix 333
fix 1 all nvt temp $T $T ${tdamp}
fix 1 all nvt temp 298 $T ${tdamp}
fix 1 all nvt temp 298 298 ${tdamp}
fix 1 all nvt temp 298 298 0.001

reset_timestep 0
variable     pxy equal pxy
variable     pxz equal pxz
variable     pyz equal pyz
fix          SS all ave/correlate $s $p $d              v_pxy v_pxz v_pyz type auto file S0St.dat ave running
fix          SS all ave/correlate 5 $p $d              v_pxy v_pxz v_pyz type auto file S0St.dat ave running
fix          SS all ave/correlate 5 400 $d              v_pxy v_pxz v_pyz type auto file S0St.dat ave running
fix          SS all ave/correlate 5 400 2000              v_pxy v_pxz v_pyz type auto file S0St.dat ave running
variable     scale equal ${convert}/(${kB}*$T)*$V*$s*${dt}
variable     scale equal 1e-32/(${kB}*$T)*$V*$s*${dt}
variable     scale equal 1e-32/(1.3806504e-23*$T)*$V*$s*${dt}
variable     scale equal 1e-32/(1.3806504e-23*298)*$V*$s*${dt}
variable     scale equal 1e-32/(1.3806504e-23*298)*14767.5143749423*$s*${dt}
variable     scale equal 1e-32/(1.3806504e-23*298)*14767.5143749423*5*${dt}
variable     scale equal 1e-32/(1.3806504e-23*298)*14767.5143749423*5*0.0001
variable     v11 equal trap(f_SS[3])*${scale}
variable     v11 equal trap(f_SS[3])*1.79464031465091e-11
variable     v22 equal trap(f_SS[4])*${scale}
variable     v22 equal trap(f_SS[4])*1.79464031465091e-11
variable     v33 equal trap(f_SS[5])*${scale}
variable     v33 equal trap(f_SS[5])*1.79464031465091e-11
variable     v equal (v_v11+v_v22+v_v33)/3.0
fix          333 all print $d "${ILstep} ${ILtime} ${ILdens} ${ILtemp} ${ILpr} ${ILpe} ${v}" file visco.dat screen no
fix          333 all print 2000 "${ILstep} ${ILtime} ${ILdens} ${ILtemp} ${ILpr} ${ILpe} ${v}" file visco.dat screen no
thermo_style custom step temp pe press v_pxy v_pxz v_pyz v_v11 v_v22 v_v33
run          8000000
PPPM initialization ...
  using 12-bit tables for long-range coulomb (/home/conda/feedstock_root/build_artifacts/lammps_1526417570236/work/src/kspace.cpp:321)
  G vector (1/distance) = 0.0862804
  grid = 4 4 4
  stencil order = 5
  estimated absolute RMS force accuracy = 0.000317158
  estimated relative force accuracy = 2.20254e-05
  using double precision FFTs
  3d grid and FFT values/proc = 729 64
Per MPI rank memory allocation (min/avg/max) = 9.672 | 9.672 | 9.672 Mbytes
Step Temp PotEng Press v_pxy v_pxz v_pyz v_v11 v_v22 v_v33 
       0     289.8367    -1073.262    5386.5089   -7097.3519    215.62437    -3019.588 0.00045200173 4.1719885e-07 8.1816862e-05 
    2000    298.27435   -1073.4647    5990.5335   -6049.5506    4187.1776   -5340.4103   0.43840112 0.0037003836  0.017980009 
    4000    312.58124   -1074.2194     2985.747   -8087.3944    603.11028   -1980.0763    0.3492798 0.0035906443  0.016000313 
    6000    319.69764   -1073.4287    5554.3152   -4959.3677    2847.6892    1075.2623   0.33184096 0.0085746677  0.013807636 
    8000    302.70119   -1074.3946     964.3081   -10514.524   -3135.3699    1064.3096   0.33567449 0.0088653742  0.011891205 
   10000    311.86966   -1073.7951    2276.3734   -6919.6013   -444.39994    -745.6198   0.34500545 0.0070166336  0.010285326 
   12000    303.50633   -1073.8917    2513.0335   -8319.7689   -60.517876   -2730.2784   0.35485918 0.0057362381  0.010624248 
   14000    303.01716    -1073.473   -2012.6355    -6864.957    1050.5984    -1524.747   0.37849583 0.0048310517  0.010346319 
   16000    319.97523   -1073.7875    2787.2339   -5866.7185    -2038.326    1221.5087   0.39237931 0.0041750652  0.011071127 
   18000    296.87787   -1073.4498    2520.7134   -9775.8761     945.1854   -473.07242   0.39575513 0.0038875721   0.01075993 
   20000    328.69152   -1072.8883   -992.00435   -8266.7222    3385.7418    1131.8853    0.3897265   0.00377123  0.010187836 
   22000    331.08557   -1073.4048    2427.8182   -6144.8294    669.35602   -313.77704   0.38391709 0.0039722947 0.0094452896 
   24000    321.05968    -1073.577     1168.448   -6535.2455     3610.307    -684.1124   0.38414816 0.0037341504 0.0090601222 
   26000    296.62873   -1073.8429    1915.1563    -8620.151    2499.8944   -533.38716   0.38905826 0.0034999398 0.0090395671 
   28000    289.04843   -1073.3427    2736.3674   -7991.3838    1676.3972    1076.5313    0.3929335 0.0033978232 0.0092447491 
   30000    315.90327   -1074.1648    4188.4348   -5866.6448    937.60768   -2299.4322   0.39713227 0.0031814161 0.0091263352 
   32000    292.53574   -1073.6031    3360.6221   -8344.3489    553.29246   -1647.9359   0.39980971 0.0029246102 0.0092603221 
   34000    298.99324   -1073.7633    2854.4274   -8908.4159     3349.188    382.65303   0.40409166 0.0027979277 0.0097565728 
   36000    292.12994   -1073.6968    -1060.749   -10730.051   -720.93063   -4621.2499    0.4055024 0.0026692384   0.00938411 
   38000    289.73154   -1073.8139    2996.1426   -6666.2666    234.33184   -668.56417   0.40580452 0.0025506375 0.0094295425 
   40000    313.71806   -1073.6984    721.66547   -6919.4342    -1429.776   -2255.6389   0.40436027  0.002450647  0.010045372 
   42000    294.52577   -1073.8661    2401.9608   -6188.3273    981.82768   -723.06339   0.40500826 0.0024548481 0.0099254766 
   44000    308.80302   -1073.8091    3634.4143   -6039.6396   -3926.9434   -441.91491   0.40390808 0.0024000009 0.0097432455 
   46000    322.87252   -1074.3454    5573.5617   -8339.3524   -1767.1312   -4160.9634   0.40376232 0.0024339639 0.0094137149 
   48000    314.11656   -1073.8249    2084.3689   -6044.5245   -783.43209   -1182.9826   0.40452387 0.0023179462 0.0098961638 
   50000    322.79709   -1073.9893    1304.7235   -6697.6052    1535.0322   -2598.5378   0.40334808 0.0022247345  0.009682879 
   52000     314.1992   -1073.4468    5456.8914   -7510.4675   -3086.5946   -3744.1935   0.40233921 0.0021773593 0.0098066621 
   54000    308.24636   -1073.0183     957.7124   -7695.0137    872.32893     -3644.59   0.40403965 0.0020684167 0.0098190452 
   56000    295.84569   -1073.7008   -1000.1332   -6821.7257    3510.6383   -461.24088   0.40499559 0.0020003317 0.0098467455 
   58000    286.91786   -1074.1447    7138.5469   -8255.1956   -720.31091    1278.3559   0.40414226 0.0020034335  0.009818112 
   60000    316.18196    -1073.379    4339.1019   -7508.2663    833.01286   -715.34202   0.40384969 0.0020286073 0.0096491353 
   62000    288.38955   -1073.4714    4740.9523   -6821.8984   -2063.1626    1442.0797   0.40287153 0.0019773388 0.0097175988 
   64000    296.17353   -1073.7749    2293.3155   -6156.1327    -1679.212   -2155.0884   0.40381446 0.0019224424 0.0097023319 
   66000    310.50736   -1074.1248   -1297.9741   -7539.6168    3146.1323   -1585.1336   0.40596854 0.0018877749 0.0095116366 
   68000    307.93765   -1074.3953    2381.7405   -7554.2253   -3290.4382   -1146.4539   0.40474806 0.0018529622  0.010042628 
   70000    326.05367   -1073.4847    2893.7134    -5731.226    3523.0413   -2896.6816   0.40725644 0.0018618663 0.0098888611 
   72000    301.09824   -1074.1469    3936.0456   -8270.1965   -4846.6633    -220.6946   0.40760429 0.0018552393 0.0096933536 
   74000    285.72449   -1074.0252   -1212.9426   -6579.5949    328.27221   -2263.0588   0.40453058  0.001805794  0.010083114 
   76000    301.63396   -1073.1959    1600.7141   -9383.6545    2047.8942   -4186.8313    0.4035917 0.0018361774    0.0102142 
   78000    283.15434   -1073.3199    3364.2088   -5432.9268   -549.20567   -3744.8625   0.40392883 0.0017834787  0.010043975 
   80000    253.39214   -1073.9256   -316.45192   -7093.9065    461.82898   -1849.3692   0.40377952 0.0017405428  0.010131468 
   82000    292.70395   -1073.8681    1099.0554   -10604.339    1811.6112     974.4387    0.4049787 0.0017346754  0.010208069 
   84000    286.63078   -1073.9065    4488.9763   -5508.0818   -3974.0877   -3279.2696   0.40588769 0.0016894335  0.010077574 
   86000    267.12966   -1074.0092    5291.2623   -12116.133    1878.3381   -3392.0882   0.40631415 0.0016803572  0.010024549 
   88000    304.37871   -1073.3096    3216.2816   -9904.9147   -1364.6701   -1410.7614   0.40786107 0.0016564092  0.009959065 
   90000    288.41997   -1073.3697    5993.5812   -7927.2015    1434.4059   -2373.8006   0.40895123 0.0016000214  0.010040906 
   92000    315.89448   -1074.2633    3275.3244   -6517.0119   -1109.9891   -3142.4649   0.40805731 0.0015810682  0.010264914 
   94000    302.01157   -1073.8068    2014.5877   -6919.2075     2431.942    974.49786   0.40746945 0.0015341669  0.010219479 
   96000    294.54664   -1074.6459    82.070397   -6444.9637    1410.6034   -2387.6647   0.40569988 0.0015092813  0.010138568 
   98000    312.08689   -1073.8428    4574.4763   -6419.4186   -845.34364    270.81601   0.40480972  0.001562787   0.01026768 
  100000    312.76708   -1074.0333   -1163.3474     -9313.93      4296.32   -1255.0699   0.40556664  0.001591619  0.010352024 
  102000    299.01386   -1073.9219    3103.7777   -5336.3614   -737.98965   -1010.2139   0.40645867 0.0015978055   0.01024655 
  104000    278.24234   -1073.6901     3204.796   -6963.2802    543.60505   -2428.7026   0.40781631 0.0016088775  0.010273113 
  106000    311.00643   -1073.3874    369.28687   -7716.0317    19.219728   -1824.2478   0.40781324 0.0015993669  0.010336123 
  108000    334.16161   -1073.6777    4901.5783   -5846.3778    2.3661604     471.6273   0.40827709 0.0015801054  0.010233737 
  110000    282.52607   -1073.7511    3598.8346   -8182.7952   -2019.4063   -1929.4415   0.40680452 0.0016972697  0.010100539 
  112000    280.77623   -1073.8575    3772.8502   -7158.0131   -2427.0136    2056.0506   0.40572812 0.0016634919  0.010019378 
  114000     300.0671   -1073.5623    5273.0339   -8350.0289   -660.49843    421.58002   0.40558416 0.0016731994  0.010092604 
  116000    297.86502   -1073.7726    2219.1421   -7394.3584    1361.7786   -2025.5486   0.40604193 0.0016577942  0.010308901 
  118000    288.63634   -1074.2021    1058.8677   -4401.3297   -1721.3096   -1069.6764   0.40701586 0.0016472731  0.010267589 
  120000    296.21091   -1073.9554    3878.7968   -8656.6749   -825.28216   -1023.8569   0.40786562 0.0016202634  0.010157604 
  122000    326.56375   -1072.7531    5376.8953    -6896.967   -342.28669    3180.6999    0.4074636 0.0016806699  0.010028344 
  124000    282.63271   -1073.4032   -1301.3816   -5971.6191   -1096.7809   -2376.2836    0.4071868 0.0016553253 0.0098733094 
  126000    272.02798   -1073.0145    3037.0519   -7559.1554   -1001.9577    -2315.715   0.40566697 0.0016654063  0.010081083 
  128000     257.9306   -1074.0663    2452.1537   -7370.4909    327.00486   -2695.0577   0.40525908 0.0016533148   0.01000294 
  130000     290.7661   -1073.3715    528.24143   -8508.1364    1151.7415   -2079.6075   0.40541263 0.0016165333  0.010037779 
  132000    308.81491   -1073.9051    2268.5998   -10655.441    583.59838   -3689.1835   0.40565901  0.001686809 0.0099807327 
  134000    316.03484    -1073.502    4751.7676   -8582.0189   -1163.9379    266.42239   0.40558803  0.001697502  0.010037683 
  136000    294.76334   -1073.7745   -465.50267   -5321.5202    4001.6542   -592.23331   0.40562382 0.0016994104 0.0098947961 
  138000    305.86611   -1073.3408    5308.3731   -8505.2739   -2771.3096   -3620.4381   0.40617233 0.0016952893  0.009807475 
  140000    308.95298   -1073.7837    2040.2669   -6681.1332    1067.5937    -61.41553   0.40573047 0.0016668283 0.0098291986 
  142000    269.67925   -1073.3274   -2728.3735   -9497.7517   -343.06895    1801.8615   0.40568687 0.0016461259 0.0097971454 
  144000    324.07917   -1073.5276    1716.0277   -5897.4724    1738.4209   -1843.2626   0.40620579 0.0016517926 0.0097053773 
  146000    269.77954   -1073.7278    433.35439   -7427.3048    2441.0878   -702.61331   0.40589537 0.0017664072 0.0098007467 
  148000    298.14548   -1074.0437     1988.798   -6080.6601   -1234.9239    -2761.024   0.40583738 0.0017968175 0.0097512446 
  150000    301.59896   -1074.1114   -165.39666   -10290.423    3391.1585   -2891.6677   0.40605672 0.0017611571 0.0098740059 
  152000    268.07996   -1073.1005    -66.53256   -4194.6238    407.44696    416.71268   0.40543437 0.0017920824 0.0099183471 
  154000    283.95073   -1073.5427    732.79944   -8454.5659    1399.4303    700.10018   0.40486192 0.0018292411 0.0098564002 
  156000    272.74855    -1074.388    1348.2631   -8608.6701    3375.9592   -1630.9721   0.40539904 0.0017812298 0.0099719345 
  158000    306.35906   -1074.0449    1513.6866    -7111.916   -3267.9865   -2356.8366   0.40598857 0.0017573636  0.010006768 
  160000    286.60711    -1073.739    2662.6084   -8463.7748    687.07668   -2836.1344     0.405936  0.001732201 0.0099807191 
  162000    300.40713   -1073.4883   -4032.2361   -7964.1669    1313.4649   -3421.1513   0.40656107 0.0017335819 0.0099214777 
  164000    300.00677   -1073.1356      753.276   -9061.8068   -501.58825   -1632.0382   0.40737819 0.0017079617 0.0098416583 
  166000    291.10365   -1073.3281    1250.6056   -8636.8863    2938.6531   -961.76535   0.40617947 0.0017803346 0.0098044752 
  168000    298.82402   -1073.7829    1617.6645   -5442.2077    4570.3299   -900.82825   0.40514627 0.0020174712 0.0097486573 
  170000    307.19359   -1073.2564    3043.4373   -9239.7814   -3277.2093    1970.1318   0.40405458 0.0021267555 0.0097278482 
  172000     304.9504    -1072.451    2575.4426    -8489.525    2214.0575    497.15262     0.403696 0.0021428705 0.0096741118 
  174000    284.94813   -1073.6575    125.03761   -8383.8502    485.16578   -3054.1965   0.40423593 0.0022040708 0.0096327241 
  176000    312.95827   -1073.9178     4482.077   -8055.9004   -719.88366   -1399.6752   0.40364348 0.0021831309 0.0095709681 
  178000    277.08461   -1073.8236     3472.146    -5929.431   -25.620951   -2292.8144   0.40413707 0.0021592782  0.009537251 
  180000     281.3341    -1074.095    1089.1765   -10371.299   -3442.6801   -1323.2835   0.40503105 0.0021743605 0.0094835029 
  182000     278.9772   -1073.9794    2944.7402   -8194.6691    1024.9859   -123.49626   0.40492232 0.0021351473 0.0094941412 
  184000    296.35321   -1073.8144     4364.463   -7795.4211   -1511.6173   -1721.6615   0.40505384 0.0021158731 0.0094793467 
  186000    269.31792   -1073.9238    2493.4848   -9132.7993    272.36399    996.66464   0.40533987 0.0021248433 0.0095697388 
  188000    305.45847   -1073.1828    1881.2367   -6902.1829    1775.1368    1508.7552   0.40462589 0.0021861147 0.0096265807 
  190000    280.74896   -1073.8359    5053.4881   -7711.2008   -1140.3251   -2614.2242   0.40346858 0.0022451192  0.009623452 
  192000    313.31013   -1073.6693    3200.2215   -4577.0948    1848.6721   -2166.6085   0.40319315 0.0023311929 0.0095318054 
  194000    292.49743   -1073.6773    2739.0859   -7893.6087   -15.987344   -3246.1486   0.40255557 0.0023212296 0.0095830234 
  196000    295.76908   -1073.8699    2055.5668   -8090.9553   -902.43662   -2198.7779   0.40327771 0.0023041464 0.0095890869 
  198000     281.9531   -1073.5635    3359.8764   -8245.9343    196.08902    1306.1329   0.40483618 0.0023119936  0.009597185 
  200000    322.42187   -1073.7214    1295.2283   -8276.0739   -626.09069    -2060.519   0.40454676 0.0023044507 0.0096051659 
  202000    255.93876   -1073.6011     4697.795   -9223.9262    -3056.992    169.64882   0.40457322 0.0023652687  0.009600421 
  204000    338.37974   -1072.9799    1055.1216   -7031.6423    194.83344   -3732.0054   0.40464851  0.002324169  0.009531041 
  206000    305.00398   -1073.5371    3266.4107   -6551.5624    136.44902   -204.99268    0.4049665 0.0023830213 0.0095335668 
  208000    289.32179    -1073.317    858.13902   -9298.4497    2933.4299   -4773.5401   0.40491702 0.0023396444 0.0096405315 
  210000    309.54291    -1073.089    3763.0953   -11490.264   -488.62248     -4102.18   0.40545643 0.0023473722 0.0097359911 
  212000    322.91837   -1074.4311    1937.2108    -8079.649     1917.735   -2702.6627   0.40588601 0.0023313718 0.0097695972 
  214000    249.42476   -1073.8454    3781.4156   -8801.7312   -1003.0388   -507.22858   0.40561082  0.002336863 0.0098456524 
  216000    273.61041   -1073.3185   -749.48229   -8518.9942    149.98293   -1029.3916   0.40586005 0.0023828684 0.0097400054 
  218000    300.41082   -1073.9527    599.49459   -7518.9539    3876.8945    1709.9193   0.40611153 0.0023718863 0.0096727391 
  220000     299.2474   -1073.7541     2845.841   -3667.7088   -2601.4846   -3278.0546   0.40538155 0.0023941353 0.0097226638 
  222000    338.40973   -1073.6134    3520.3026   -8311.3794     90.32084   -186.86784   0.40474973 0.0023828303 0.0097598836 
  224000    309.46932   -1073.5231    3593.0365   -8528.2182   -325.87564    292.99899   0.40486197 0.0023668604 0.0097919836 
  226000     322.8839   -1073.2713    1161.8537   -7991.4209   -2199.0284   -3052.4517   0.40471636 0.0023428764 0.0097835766 
  228000    305.24771   -1073.8355    1713.1339   -8045.1731     458.7416    -212.9555   0.40491457 0.0023256766 0.0098811599 
  230000    312.94536   -1072.5973     4305.371   -12491.507     2011.697   -1303.4589   0.40587597 0.0023180663 0.0099112883 
  232000    298.02441   -1073.8065   -1334.4076   -6509.7204     698.4035   -1226.4767   0.40675477 0.0023038373 0.0098774862 
  234000    282.71175   -1074.0049    2405.9419   -7396.4802    1652.0515   -2101.9645   0.40712952 0.0022803389 0.0099659583 
  236000    313.71632   -1073.9562    1735.9744   -8171.4444   -3154.9933   -2623.3612   0.40707414 0.0022729844  0.010010401 
  238000    278.63025   -1073.4132    5972.3658   -10856.035    -1849.076   -1686.0586   0.40724084 0.0022537358  0.010026406 
  240000    334.45222   -1073.3329    4929.6897   -7662.1538   -587.39843   -1860.5703   0.40700642 0.0023102639 0.0099861959 
  242000    286.26883     -1074.31    4304.6277   -7436.8808    1174.4152    -2109.897   0.40603128 0.0024350486 0.0099399563 
  244000    281.09591    -1074.046    2184.1478   -5155.0521    2874.9207   -953.89561   0.40485544  0.002488822 0.0098821166 
  246000    295.79853    -1073.412   -143.91897   -9091.4781    2566.7361    -1453.119   0.40461277 0.0024785091 0.0098670411 
  248000    308.72038   -1073.7052    -1120.171    -7304.166   -393.49607    233.65882   0.40475672 0.0024535748 0.0098908852 
  250000    290.38564     -1073.21   -1987.5678   -5991.9911    4100.2902   -2761.6365   0.40575952 0.0024412257 0.0099313823 
  252000    311.12899   -1073.5813    334.38255   -9661.0199   -1479.4723    457.71958   0.40635312 0.0024327701 0.0099650738 
  254000    293.43519   -1073.9572    3509.1784   -4888.4407   -1301.3098   -980.33855   0.40686216 0.0024115341 0.0099035595 
  256000    287.56805   -1074.0308     3887.116    -5556.299      1752.69   -1335.7207   0.40621104  0.002400679 0.0098663225 
  258000    301.72875   -1073.0311     4872.282   -9199.3746   -8.1649511     -623.347   0.40569544 0.0024300203  0.009864236 
  260000    284.36501   -1074.1123      1761.69   -8900.0288     224.2673   -2664.3079   0.40616116 0.0024577195 0.0098496964 
  262000    283.60061    -1073.626    772.94156   -6838.7296     1659.056   -2263.6093   0.40593841 0.0024456117 0.0098130929 
  264000    280.65806   -1073.8566   -1334.5373   -8244.8581    3846.7519    156.53612   0.40567812 0.0024399149 0.0099178506 
  266000    306.78497   -1073.8893    3786.5941   -8642.9423   -1343.2476   -194.37419   0.40589037 0.0024412004  0.009904388 
  268000    294.63847   -1074.4664    1685.0115   -4453.9469   -1208.0937   -88.762014   0.40617128 0.0024258805 0.0098688954 
  270000    292.16307   -1073.8245    3855.9194   -7760.9007    1807.1653   -264.04654   0.40631535 0.0024033829 0.0098156344 
  272000    297.17168   -1073.5229    2015.5968   -5978.6063     398.5208    90.118301   0.40696714 0.0023894007 0.0098510488 
  274000    277.48878   -1073.5288      3167.76   -6226.3918    1732.2946    1897.9728   0.40729955 0.0023846452 0.0097963365 
  276000    300.87303   -1073.5297   -708.68607   -6158.0795    5719.9384    1512.2023   0.40697381 0.0023847169 0.0097813912 
  278000    283.72919   -1073.0178    2742.6609   -7752.9847    1728.9414    -4162.036   0.40723092 0.0023678922 0.0097929249 
  280000    316.13691   -1074.0163    2950.4471   -5822.3849    3619.5131    1303.7041   0.40699787 0.0023694869 0.0097384355 
  282000    260.11583   -1073.7605    1141.8609    -3542.937   -895.87724   -1505.4521   0.40672719 0.0023595131 0.0097527634 
  284000    297.66245   -1073.8712    1386.4951   -7014.0853    3244.0757   -724.35608   0.40644444 0.0023414093 0.0097389073 
  286000    319.68604   -1073.3964    4313.5056   -8825.2059    305.25461   -1679.4983   0.40652783 0.0023727997 0.0097083938 
  288000    286.09326   -1073.3145    3633.9213   -7810.1287    1161.8387   -3746.6395   0.40646951 0.0023515141 0.0097466819 
  290000     294.5195   -1073.8604   -591.87312   -8687.6724     -3084.61   -929.87546   0.40675346 0.0023394009 0.0097361194 
  292000    285.50424   -1073.2878      4673.14   -5882.4864    2866.0303   -47.573405   0.40729353 0.0023173279 0.0096897949 
  294000    316.31357    -1073.294    417.62631   -8870.0246    -1492.788   -2123.8514   0.40684451 0.0023131202 0.0096829474 
  296000    324.67468    -1073.956    2445.7281   -7773.8788    1399.7598   -3262.5307    0.4065571 0.0023075413 0.0096351043 
  298000    290.20408   -1072.7325   -752.68388   -6760.0319    -6803.284   -2117.8774   0.40673489 0.0023009433 0.0096275709 
  300000     307.6928   -1073.5985    1508.0563   -7785.3497    270.85888   -1088.4482   0.40638635  0.002310911 0.0096415481 
  302000    268.22196   -1073.8727    1426.0595   -5865.5948   -3075.9056   -1028.5609   0.40599785 0.0022897751 0.0097052534 
  304000     315.6307   -1073.8481    2823.7559   -9004.9904    438.41462   -720.13805   0.40559695 0.0022796938 0.0096741383 
  306000    305.12725   -1073.0845    1962.3548   -8151.1149   -1197.6339     4405.739   0.40569342 0.0022691958 0.0096517281 
  308000    321.07029   -1073.5504   -24.293418   -8310.8438    2249.1391   -754.52227   0.40593949  0.002260298 0.0096241614 
  310000    315.30411     -1073.67    2892.0287   -7940.8451   -585.10394    -603.2943   0.40648775 0.0022574068 0.0095824836 
  312000    291.45743    -1073.566    4958.6255   -3506.0341   -90.552374    685.85149   0.40626397 0.0022434406 0.0095569958 
  314000    282.36123   -1073.5221    3757.1996   -7818.7173   -1043.7891    -4069.167   0.40565174 0.0022536734 0.0095626437 
  316000     322.9406   -1074.0298    5138.9201   -8667.6041     1166.539   -1666.2442   0.40498584 0.0023068016 0.0095396062 
  318000     268.7396   -1074.3766    2074.8843   -7406.8856    2149.1216    -4164.518   0.40480578 0.0022958767 0.0095050172 
  320000    265.81402   -1073.9777     2215.587   -5724.0045    45.759207   -1058.9555   0.40472557 0.0022794678 0.0094927291 
  322000    278.58819   -1074.0792    1128.1097   -8312.0896    2239.7759   -3128.9471   0.40471741 0.0022800148 0.0095196194 
  324000    294.31542   -1072.8294    3241.5578    -6673.555    2081.3451    1606.4313   0.40494024 0.0022776356 0.0095138274 
  326000    291.13693   -1073.2171    2587.7021   -3934.3446   -1731.4808    -802.2709   0.40512384 0.0022765004 0.0094841354 
  328000    276.86198   -1074.1636    307.60843   -8876.4694    95.655569   -3707.4002   0.40489091 0.0022754869  0.009489146 
  330000    285.27879   -1072.9386   -1243.9983   -7763.4622    1160.2606   -5221.4655   0.40504202  0.002271472 0.0094737647 
  332000    307.52516   -1073.6552    483.66491   -6603.5644    807.81847   -1004.2757   0.40474114 0.0022764129 0.0094745739 
  334000    263.79746   -1073.5877    709.46557   -10093.934    3326.6132   -1832.4241   0.40460145 0.0022735045  0.009455864 
  336000    297.02635   -1073.8539    145.94454   -8200.4171    451.98654    40.189538   0.40464949 0.0022987174 0.0094419773 
  338000    352.84915   -1073.3016    1057.6726   -8592.3661     793.2158    704.55652   0.40419169 0.0022813014 0.0094134182 
  340000    308.45947   -1073.2515    2046.6907   -6534.3095   -1777.7747   -866.10854   0.40437668 0.0022713801 0.0094023165 
  342000    286.89526   -1074.1096    3216.7708   -6165.2581    3112.7908   -1665.9295   0.40485218 0.0022571996 0.0093822128 
  344000    316.18167   -1073.6759    2308.3704   -8792.6563    4891.7787    420.01903   0.40491396 0.0022444359 0.0093744876 
  346000    285.92853   -1073.9303    2964.1312   -6391.3051    1418.2904   -2415.0231   0.40498222 0.0022483931 0.0093359357 
  348000    288.88727   -1073.4238    5572.5096   -7283.0947    265.81937    440.77346   0.40473935 0.0022384112 0.0093703301 
  350000    331.80084   -1073.4431     -918.748   -6950.9142   -712.03801   -805.69645   0.40489187 0.0022282575 0.0093893804 
  352000    287.78218   -1074.3207     2341.129   -7371.6153   -1685.8424    -1471.326   0.40466759 0.0022282116 0.0093855594 
  354000     294.4469    -1073.278     1343.459    -4660.287   -800.09599   -3508.5733   0.40508762 0.0022408048 0.0094094956 
  356000    297.69657   -1074.1152    2845.5293   -8136.5462   -604.30781   -2342.1973   0.40530279 0.0022560893 0.0093828251 
  358000    298.66732   -1073.5791    1438.5077   -9974.2363   -2049.8713   -4374.8637   0.40570693 0.0022542416 0.0093799428 
  360000     294.5792   -1073.3463    2251.3689   -7619.5156    -1459.788   -3161.3956   0.40562597 0.0022373484 0.0094066913 
  362000    354.20787   -1073.2959   -419.61525   -5164.6873    3860.0514   -1988.5998   0.40547445 0.0022723337 0.0094100656 
  364000    276.72746   -1073.8369    3151.3154   -7551.3611   -1925.8212   -1872.6885   0.40519483 0.0022609038 0.0094019371 
  366000    298.81136   -1073.7298   -1454.2306   -9170.0798    1347.3282   -2683.2481   0.40528423 0.0022488473 0.0093792085 
  368000    285.63162   -1073.8675    2927.0621   -7968.4168   -1770.9424    2200.7769   0.40581695 0.0022558381 0.0093654646 
  370000    275.91607   -1074.1219    1191.1409   -7046.6498   -2011.9017   -785.49961   0.40577472 0.0022437118  0.009404256 
  372000    310.09445   -1073.1769    4037.3747   -7886.6573    2129.0847    1958.5373   0.40592584 0.0022411261 0.0094224546 
  374000    301.49708   -1073.9134    3470.7097   -6383.2994    1706.5406    1249.8109   0.40583412 0.0022397094 0.0094488796 
  376000    297.74119    -1073.485    3404.4448    -9214.673    1018.6614    1317.0652   0.40550192  0.002230603 0.0094348734 
  378000    305.50193   -1073.5647    1676.9716   -8958.8897    5969.7209    616.63445   0.40535412 0.0022539117 0.0094305528 
  380000    290.83744   -1073.6362    1164.2159   -8246.9275    2681.3321   -2245.5179   0.40550521 0.0022378799 0.0093803023 
  382000    313.99217   -1073.3775    133.95584   -7032.8242    1483.9684   -51.316643   0.40543551 0.0022404666 0.0093903571 
  384000    311.96127   -1073.2303   -1022.8792   -4281.9503     1581.984   -1381.7046   0.40509842 0.0022459081 0.0093704071 
  386000    304.34065   -1073.3036   -2476.9297   -8159.1217   -140.60149   -1140.1091   0.40463902 0.0022521527 0.0093229933 
  388000    294.44525   -1072.7098    1324.2386    -6245.035    165.59487   -1942.4292   0.40409057 0.0022402751 0.0092972124 
  390000     320.4539   -1074.3348   -2775.0097   -8709.0321    2343.2413    -861.3218   0.40357686 0.0022625166 0.0092842879 
  392000    284.37551    -1073.725   -1756.3458   -4712.5942    355.61518    1671.2227   0.40349349 0.0022635125 0.0092498319 
  394000    254.40073   -1073.5216    459.63945   -7519.3473    811.11931   -2745.7748   0.40346581 0.0022834489  0.009245274 
  396000    268.62653   -1073.5108    3324.7968   -5019.5105   -720.09511   -2738.6957   0.40328938   0.00229276 0.0092802622 
  398000     302.4635   -1073.8907    3450.5613   -6134.6495    66.129738    -3161.806    0.4032878 0.0022773373 0.0092614986 
  400000    325.48072   -1073.0261    1886.8024   -8201.6158   -1998.7732   -2952.2779    0.4037242 0.0022651422 0.0093019415 
  402000    289.54526   -1073.6001    698.77127   -6811.8795    1856.0025    3529.2729    0.4037853 0.0022612168 0.0093516993 
  404000    295.44125    -1073.174    4177.0359   -7587.7233    830.65736    1116.8813   0.40405859 0.0022524676 0.0092974811 
  406000    318.42531   -1074.5604    3147.0777   -6636.4499    1185.4878    2194.1652   0.40417323 0.0022572456 0.0092901744 
  408000    323.01727   -1074.4296    1377.0633   -7823.2734   -2369.4366   -2086.7522   0.40396836 0.0022514164 0.0092763294 
  410000    307.96681   -1074.2498    2029.9919   -6197.2287    2019.5452   -925.40815   0.40347209  0.002257723 0.0093043224 
  412000    293.10582   -1074.0431     1118.153   -7647.5332    342.21121   -720.70623   0.40353415  0.002296737 0.0093075843 
  414000    312.48962   -1072.9962    3399.7697   -8115.4738     1433.271   -2318.2062   0.40337653 0.0023049683 0.0093288417 
  416000    288.62956    -1073.926    3895.7675   -8422.1028   -3467.7035    384.53633   0.40349626 0.0022947409 0.0094060787 
  418000    294.32874   -1073.1935    1045.1985   -7799.9879   -2656.9649   -1125.8554   0.40360763 0.0022865584 0.0093937641 
  420000    285.63528   -1073.2589    1704.2287   -7715.2331   -146.33962   -104.66286   0.40373539 0.0022735023 0.0094046957 
  422000    269.33251   -1073.2284   -1386.6532   -4967.0114   -168.68432   -3564.6524   0.40366238 0.0022647315 0.0094464112 
  424000    310.38373   -1073.7316    4812.5495   -8581.4492   -1064.6252    1041.5793   0.40367558 0.0022622616 0.0094238242 
  426000    325.87911    -1073.953    1424.0908   -6203.8265    1106.8955   -1970.4988   0.40407509 0.0022714198  0.009423221 
  428000    302.40135   -1073.8583    3458.4671    -6252.869   -1141.9596   -132.01765   0.40367266 0.0022678475 0.0094527043 
  430000    279.99517   -1072.8435    2415.1403   -7470.2797    1482.7802   -74.529843   0.40321981  0.002260727 0.0094664532 
  432000    296.01869   -1073.8314    238.41531   -7293.5106     1458.915    2705.4836   0.40312126 0.0023151816 0.0094590305 
  434000    285.37886   -1073.8558    1291.6013   -8455.1954    778.58764    362.18266   0.40291045 0.0022961879 0.0094630725 
  436000    301.62914   -1073.1917    3204.0934   -7205.0296   -2403.9211    348.90355   0.40301344 0.0022966984 0.0095074371 
  438000    303.17135   -1074.0518    1675.7707    -7978.202   -466.27847    -3063.596   0.40299041 0.0022900941  0.009531032 
  440000    291.67738   -1073.4545    3165.6708   -6902.2018   -162.18384   -1016.3228   0.40286346 0.0022811041 0.0095340664 
  442000    294.26952   -1073.6776     3653.342   -6674.8355    2225.3772   -507.07598    0.4029874 0.0022739993 0.0095196742 
  444000    292.88349   -1074.1711    1226.2446   -8041.4256   -2586.7513     711.7841   0.40325287 0.0022716126 0.0094865225 
  446000    313.09807   -1073.7041    1111.3438    -6395.586    -250.0298   -371.54856   0.40312923  0.002253639 0.0094907555 
  448000     281.5119   -1073.3167    3664.3585   -7818.5698    1912.0542   -1634.7657   0.40286074 0.0022656945 0.0095285414 
  450000    317.01365   -1073.3593    954.85221   -7466.1956   -891.73367    1234.1779   0.40304703  0.002299584 0.0095287275 
  452000    291.47543    -1073.524    745.41095    -9080.906    2094.5932   -86.571521   0.40316686 0.0022963964 0.0094981087 
  454000    285.06081   -1073.3845    1637.1048    -8510.156    2854.0646   -1295.2829   0.40281237 0.0022847421 0.0094939139 
  456000    308.66721   -1073.7247    49.951825    -8733.872    2366.2066   -3395.0014    0.4027843 0.0022817453 0.0094744474 
  458000    284.70354   -1073.5236    2801.3757   -8963.5717      2118.65    -1744.922   0.40308345 0.0022849321 0.0094465663 
  460000    330.21732    -1074.094    3235.7571   -8148.9531   -578.02875   -2056.6985   0.40335054 0.0022781935 0.0094168193 
  462000    250.49207   -1072.9918    845.74889   -7286.6056   -291.73814   -3026.5927   0.40331937 0.0023081832 0.0094100543 
  464000    274.96994   -1074.1871    3588.9688   -5608.3623    1453.6158   -3510.6094   0.40328331   0.00230958 0.0094369323 
  466000    292.80414     -1073.89    1418.1935   -8956.7952    2004.1381   -1170.3883   0.40329689 0.0023009103 0.0094652349 
  468000    313.34408   -1073.4571    1864.0719    -9586.194    2508.0236   -2188.3564   0.40364361 0.0022911638 0.0094923262 
  470000    278.75357   -1073.7708    1171.7598   -4573.0972    3080.2046    1783.3487   0.40379959 0.0022766174 0.0094998189 
  472000    323.48405   -1073.9654    1627.9277   -6203.7173    4081.7734   -1935.4335   0.40358878 0.0022739875 0.0094579078 
  474000     278.9426   -1073.0741    2039.4014   -7815.8687   -217.13131    1244.0377   0.40346563 0.0022754212 0.0095118515 
  476000    265.97284   -1074.1552   -2120.1989   -8500.6098   -494.98871    -2597.028   0.40357557 0.0022868749 0.0094890503 
  478000    341.69672   -1073.4461     1131.571   -7095.6049    4200.2902    895.76102    0.4038948 0.0022919977 0.0094783632 
  480000    302.64445   -1073.5043    7027.0143   -6233.1653   -711.04881   -1658.2593   0.40376555 0.0022901948 0.0094637492 
  482000    311.86396   -1074.1746    742.62329     -9295.87    559.26799   -1414.4855   0.40370382 0.0022797558 0.0094520699 
  484000    311.98263   -1073.4388    6177.3119   -10702.441    -1489.212    2138.9176    0.4039563 0.0022748916 0.0094279278 
  486000    300.83757   -1073.2734    3092.8951   -7825.2708    138.14022   -4249.9286   0.40405394 0.0022730105 0.0094294789 
  488000    282.51775    -1073.678     4399.284   -7228.7981    -322.1584    2093.5962   0.40405657 0.0022854678 0.0094720163 
  490000    295.41541   -1073.5543    1822.5131   -5593.7707   -3548.9411    103.31075   0.40390327 0.0022883847 0.0094592273 
  492000    327.48008   -1073.7277    3763.2853   -3408.6619    242.00821   -3347.4133   0.40377822 0.0022904252  0.009488996 
  494000    327.45129   -1073.4554     5171.581   -8673.5509   -2376.9956    703.80388   0.40383441 0.0022856907 0.0095532581 
  496000    331.18335   -1074.0897    993.26583   -6263.3796    713.36293   -763.31992   0.40426393 0.0022774705 0.0095615578 
  498000    290.42089   -1073.4759    868.96124   -7285.5309   -287.80781    1368.1731   0.40414671 0.0022671599 0.0095290567 
  500000    296.98108   -1073.6055    2367.7658   -7398.5461    2609.7983    1819.6322   0.40401006 0.0022810233 0.0095226135 
  502000    287.71265   -1073.5083   -281.74603   -5965.1901    475.41996   -3363.3025    0.4039102 0.0023092495 0.0094935835 
  504000    295.20336   -1073.9429    5727.1469   -8523.3094   -24.347797   -4636.3944    0.4038277 0.0023000575 0.0095126502 
  506000    300.98701   -1073.8924     56.65239   -7661.6708     43.96309   -1677.6529   0.40406126 0.0023019538 0.0095264874 
  508000    270.72751   -1073.6902    3396.9822   -9442.8924    650.59112   -604.60395   0.40422683 0.0023041666 0.0095119056 
  510000    281.16872   -1073.7751    3654.5981   -5728.2154     833.0714    497.90263   0.40407031 0.0022952326 0.0095178994 
  512000    264.40784   -1074.0917    2538.7185   -10212.691   -1948.4074   -1326.5166   0.40422605 0.0022895613 0.0095281811 
  514000    318.06924   -1073.5954    2678.6729   -8626.1563   -1402.7652    325.78308   0.40421889 0.0022847992 0.0095327136 
  516000     307.6297   -1074.5151    -710.0602   -9037.3503    3516.4592   -3102.1236   0.40425316 0.0022745661 0.0095806228 
  518000    306.73003   -1073.4037    903.00073   -6978.6104   -242.96862   -2546.4183   0.40452471 0.0022679662 0.0095814405 
  520000    265.20256   -1073.7073   -792.51109   -7442.8432    2035.5655    -312.7132   0.40440288 0.0022942478 0.0095640241 
  522000    280.73679   -1073.6273    6750.2547   -7664.2792   -1024.6669   -1101.7617   0.40454348 0.0023071571 0.0095445806 
  524000    280.07974   -1074.0413    4344.1167   -8046.2525    -2274.366   -1386.3906   0.40455459 0.0022987318 0.0095267248 
  526000    321.37844   -1073.1553    3529.4457   -7613.5447   -2732.6478   -282.22497   0.40460975 0.0022881321 0.0095854155 
  528000     304.4053   -1073.5048    3330.6101   -5281.3483    1653.1172   -1096.8002   0.40463356 0.0022936302  0.009583366 
  530000     301.3567   -1073.2298    741.56392    -5708.446    346.57888   -1522.4748   0.40455658  0.002303764  0.009590201 
  532000    303.47433   -1073.7407     3898.344   -7379.0513   -523.82012    345.91539   0.40436606 0.0023053425 0.0095975564 
  534000    298.59245    -1073.953    3720.3612   -6542.9311    1081.9109    1122.9403   0.40421934 0.0023188889 0.0095742015 
  536000    299.74039   -1073.3763    1410.2529   -6643.5642    1463.5522    1993.3188    0.4041026  0.002314368 0.0095993988 
  538000    291.63981   -1073.5363    2764.2062   -6926.1187    711.75803   -3786.4005   0.40408949 0.0023065829 0.0095807266 
  540000    370.55104   -1074.0659    2773.9704   -7978.0913     3643.338    3717.2147   0.40409863 0.0022942236 0.0095720874 
  542000    295.77109   -1073.5792    3039.2257   -8120.6243    1298.6889   -4841.8276   0.40397281  0.002330227 0.0095567933 
  544000    316.10367   -1073.8361    4436.2798   -6777.4286    2094.8058   -304.13503    0.4038901 0.0023179368 0.0095634454 
  546000    311.61088     -1073.51    3427.2348   -10716.759    160.49331    1404.5069   0.40419407 0.0023132364 0.0095645263 
  548000    306.95486   -1072.8323    2776.5239   -8360.8925   -700.72242    -4772.967   0.40439693 0.0023041781 0.0095630556 
  550000    287.33962    -1072.975    750.72876   -8508.6471     4483.914    651.71681   0.40427433 0.0022992597 0.0095501003 
  552000    303.50873   -1073.8351   -637.44229   -7462.9306    713.16124   -1494.5872   0.40393106 0.0023912397 0.0095210305 
  554000    301.00858   -1073.7454    616.93032   -5747.6635    1707.7159   -1292.4441   0.40349567 0.0024247674 0.0095000206 
  556000    291.17132    -1073.367    807.57287   -5830.5798   -961.33132    2026.2066   0.40309684  0.002460661 0.0094860957 
  558000    349.80558   -1073.4599    786.44046   -7457.5903    -217.2938   -1560.4977   0.40283771 0.0024815855 0.0094972028 
  560000    329.29975    -1073.995    4601.7211   -7294.2276   -1249.4822    281.57967   0.40274833  0.002472173 0.0094909994 
  562000    303.66949   -1073.8786    4028.0231   -6890.4886   -552.01174   -2065.2324   0.40289539  0.002458499 0.0094770845 
  564000    289.66052   -1073.6999     977.7636   -9060.0972    1014.3582     2005.101   0.40318192 0.0024527327 0.0094598208 
  566000    309.70825   -1073.6905    4953.1328   -7958.5269    787.26178    1469.9321   0.40334483  0.002460624 0.0094261415 
  568000    278.60895   -1073.2299   -46.575958   -6301.4563    163.85401   -3224.4861   0.40311719 0.0024506524 0.0094314873 
  570000    308.31449   -1074.6331    1316.7984   -6450.8484    1623.7148   -1488.2639   0.40260088 0.0024541742 0.0094264443 
  572000    282.09771   -1073.4479    2482.0408   -6281.4982   -874.48774    715.73143   0.40221814 0.0025275802 0.0094039712 
  574000    318.41449   -1073.1894   -561.73807   -6475.0067    2410.4142   -4011.7798   0.40173608 0.0026509158 0.0093761472 
  576000    307.15862   -1073.3359   -123.51615   -10974.936   -848.71711    2457.9394   0.40140605 0.0027146546 0.0093806656 
  578000    296.62384   -1073.2371    1969.0333   -11722.767   -1852.9371   -3310.4962   0.40124965 0.0027017904  0.009372518 
  580000    277.36802   -1073.1549   -456.45802   -6854.7318    1514.1416   -487.56934   0.40135021  0.002692714 0.0093427343 
  582000    299.83982   -1073.6868   -1732.0913    -8512.488   -966.39898   -980.82266   0.40144282 0.0026848613 0.0093492466 
  584000    267.76022   -1073.4707    3050.0753   -9777.7045   -796.81346    700.93312   0.40162702  0.002676405 0.0093547487 
  586000     300.0974   -1074.2502   -1444.7977   -7388.5049    64.623972   -1092.7979   0.40165487 0.0026804025 0.0093498992 
  588000     311.1283   -1073.6094    2534.6218   -7078.3033    3529.4842    2415.3878   0.40135902 0.0027048649 0.0093578956 
  590000    284.49208     -1073.42    3455.8452    -7105.313    2151.7221   -823.41273   0.40092427 0.0027572108 0.0093418604 
  592000    284.50664   -1074.3972    5675.5194   -6329.7024    1819.3723   -2865.7583   0.40110736 0.0027715294 0.0093375679 
  594000    317.25793   -1073.6283    895.89472   -6168.6338    -1144.171    550.41512   0.40099848 0.0027730819 0.0093296432 
  596000    286.89425   -1073.8246    1728.4108   -4649.2346    4837.6843    -2675.563   0.40116307 0.0027707502 0.0093113353 
  598000    251.11552   -1073.7652    2224.5652   -3712.7153    3087.6883   -3404.8599   0.40124178 0.0027678163 0.0092850602 
  600000    292.24052   -1074.1993    498.36101   -6347.6349   -1263.7675   -2656.6407   0.40120469 0.0027522175 0.0092863406 
  602000    290.76574   -1073.7116    510.76106   -5707.3446    1769.9734   -3128.4169   0.40087187  0.002752694 0.0092843745 
  604000    273.37788   -1073.6175   -228.38014   -6311.5355    1687.3454   -1876.9155   0.40060823 0.0028174917  0.009280376 
  606000     306.7952   -1073.9765    3798.2301    -7385.525    1135.9467   -1309.8151   0.40017643 0.0028738388  0.009251446 
  608000     311.4539   -1073.4276    3840.5762   -7284.5928    98.686898   -2640.8978   0.39986191 0.0029171245 0.0092596685 
  610000    312.61246   -1073.7157    2571.8148   -6399.1954    -1230.252   -443.69948   0.39988484 0.0029081755 0.0092551649 
  612000     287.6895   -1074.2923   -1149.8326   -5796.5403   -1082.7956   -2735.1431    0.4003562 0.0029068658 0.0092727378 
  614000    302.96327   -1074.3063     3978.635    -9258.394    702.77377   -1732.6558   0.40063528 0.0028940189 0.0092815995 
  616000    290.26899   -1073.9932    1248.1629   -5834.1196    1097.8065   -1574.6897   0.40074646  0.002894892 0.0092624116 
  618000    285.95363   -1073.0861    1738.0619   -10306.727       2416.2    148.62954   0.40059919 0.0029012788 0.0092603439 
  620000    310.96456   -1072.7177    -1823.109    -5772.865   -2966.5079   -1816.3805   0.40097099 0.0028992971 0.0092779835 
  622000    283.62784   -1074.3436    5204.2793    -9436.325   -1235.6621   -796.41203   0.40102897 0.0029023725  0.009287007 
  624000    300.91039   -1073.3465     964.2431   -6738.1784    3846.7264   -851.40346   0.40112286 0.0029029357  0.009299137 
  626000    288.58949    -1073.254    2778.3768   -7810.2555    1354.2553   -1684.3413   0.40116965 0.0029098439  0.009301167 
  628000    295.15708   -1074.4909    5421.0933   -8953.8661    1429.0727   -2588.8252   0.40115955 0.0029000417 0.0093193108 
  630000     300.8463   -1073.6155    1147.3324   -8366.1083   -14.240487   -1451.3538   0.40152256  0.002895074 0.0093251019 
  632000    299.06493   -1073.0251    1583.5482   -6660.4319    924.84315    1243.0359    0.4019029  0.002886905 0.0093045055 
  634000    288.63346   -1073.8438    3561.4374   -7846.2906   -3250.7404    805.23722   0.40199372 0.0028845375 0.0093044535 
  636000    332.79169   -1073.3865    1707.9508   -4462.5953    249.85807   -219.40744   0.40169321 0.0029138904 0.0093252515 
  638000    301.83978   -1073.8556     4224.205   -6857.7256    93.181024   -1549.9845   0.40113408 0.0029554638 0.0093119763 
  640000    291.26114   -1074.1853     1971.817   -5807.5835    2325.8394    397.74003   0.40104729 0.0029512823 0.0092865955 
  642000    325.01932    -1073.993     1925.535   -6777.2566    760.84058    -2657.834   0.40097686 0.0029458409 0.0092969498 
  644000    341.12827   -1073.3252    4618.4095   -6999.2732      340.387   -63.828825   0.40112492 0.0029369334 0.0093386178 
  646000    278.59753   -1073.3284   -258.96495   -7072.5522    2139.8473   -1360.4387   0.40142327 0.0029277538 0.0093524232 
  648000    276.92239   -1073.3776    5257.0506    -5167.905    1570.0252   -2926.7679   0.40166094  0.002917125 0.0093247857 
  650000    310.49402   -1074.0267    3671.4513   -8857.1454   -69.531797   -182.86683   0.40159272 0.0029099366 0.0093247625 
  652000    298.91692   -1073.6475    2630.2332   -6846.6951   -2508.3841    -1417.324    0.4018219 0.0029063166 0.0093866066 
  654000    316.54103   -1073.4773    4167.0502   -6264.4806    1752.8638   -1886.9733   0.40189075 0.0029047568 0.0094031659 
  656000    293.89234   -1073.3484     1715.655   -6028.7921   -1028.5963   -1315.7761   0.40196488 0.0028947398 0.0093967858 
  658000    280.23502    -1073.788    1172.3793   -8827.8348    4841.3212    1010.4384   0.40182288  0.002893761 0.0094025221 
  660000      307.729   -1073.6509    676.43002   -9441.0284    1235.8795    1263.0665   0.40182271 0.0029170804 0.0094104195 
  662000    290.90992   -1073.6188     3420.116    -7514.281    1133.5496   -2291.0655   0.40165512 0.0029242911 0.0093934127 
  664000    277.87406      -1073.9    618.97826   -7022.7768    -493.7424   -1898.5791   0.40157725  0.002922091 0.0093743152 
  666000    284.76188   -1073.5641    1374.1719    -8933.247   -341.22025   -1443.2872   0.40163304 0.0029133957 0.0093604272 
  668000    306.54235   -1073.8809    2983.7426   -7217.0583   -1754.2272   -2414.1277   0.40177878 0.0029063083 0.0093773279 
  670000    305.89527   -1073.5887    1412.9069   -9300.6617    2264.8066    -1122.848   0.40202325 0.0028973783 0.0094346734 
  672000    320.05962   -1073.6139    667.47433   -9425.3753    295.68307   -1897.7354   0.40236942 0.0028902706 0.0094376685 
  674000    258.94804   -1073.5765   -485.71045   -8389.1746   -707.33057   -42.332826   0.40251373 0.0028830217 0.0094338947 
  676000    309.39249   -1073.3466    3890.4247   -5799.1408   -1726.1052   -1238.7768   0.40242055 0.0028743656 0.0094354646 
  678000    296.87342   -1073.2357   -1997.3738   -6223.4263   -341.73168   -1296.3869   0.40232716 0.0028656511 0.0094273878 
  680000    287.53551   -1073.0737    3528.3465   -5648.5511   -3287.1302   -4724.7867   0.40219366 0.0028577483  0.009435966 
  682000    306.30224   -1073.6025    2900.2347   -8937.0929    484.49414   -2814.9135   0.40245835  0.002851266 0.0094496054 
  684000    250.94214   -1073.1208    1883.9557   -8704.8873   -483.95693    -3702.283   0.40266254  0.002840842 0.0094465917 
  686000     281.3816   -1073.8768    1361.9494    -7290.454    1107.1851   -542.30343   0.40289354 0.0028314588 0.0094564376 
  688000    343.76229   -1073.7407    3002.2808   -9314.9097    1070.5081    166.46153   0.40295767 0.0028311078 0.0094341484 
  690000    282.20893   -1073.1912   -1045.4332   -7197.3476    2803.0274    -3855.238   0.40270876 0.0028273143  0.009414344 
  692000    299.30865   -1073.0578    3696.5507   -9004.2454   -4599.4534   -3154.5947   0.40244022 0.0028339638 0.0094052631 
  694000    275.59251   -1073.3375   -1595.2397   -7484.4572    2251.3187   -784.88178   0.40205097 0.0028740227 0.0093934739 
  696000    268.15463   -1074.0629    3615.9199   -10437.508   -5.9500159    -388.3873   0.40180551 0.0028858529 0.0093673988 
  698000    297.67465   -1073.4814    2147.4937   -7414.0555    36.733591   -2535.4148   0.40176423 0.0028854216 0.0093608377 
  700000    307.90936   -1073.0889    2027.4579   -6340.4508     726.0751    1522.9328   0.40176654 0.0028778643 0.0093941313 
  702000    324.61676    -1073.323    1650.8145   -7274.5837   -1303.5788    11.233685   0.40181083 0.0028704483 0.0093802437 
  704000    278.82356   -1073.0771    974.06769   -9133.4433   -2520.3236   -1589.7512   0.40195489 0.0028728311 0.0093628859 
  706000     289.3217   -1073.3344    996.22591   -5739.8401    821.19752    200.66773   0.40210767 0.0028714513 0.0093499833 
  708000    257.58646   -1074.0461    4647.7227   -7593.1583   -2658.6995   -2529.7084   0.40215452 0.0028676592 0.0093372164 
  710000    256.94175    -1073.302    1954.8822    -6791.619    1453.1639    -4492.936   0.40258938 0.0028583305 0.0093562084 
  712000    261.76139   -1073.1864    5265.6051   -4967.5385   -1058.9956    206.31119   0.40262918 0.0028587142 0.0093856703 
  714000    281.30253   -1073.2052    2933.7789   -4560.6692     3695.615    2424.5037   0.40239256 0.0028721485 0.0093560414 
  716000    301.04935    -1073.448   -455.10813   -8340.0115    625.87666   -1982.1051   0.40220207 0.0028867314 0.0093505795 
  718000    306.44816   -1073.9188    2943.8639   -11386.458    604.02063    787.26714   0.40220765 0.0029026161 0.0093478503 
  720000    300.70612   -1073.1489    3320.1527   -8818.9978   -3543.8815   -2493.9207   0.40223608 0.0028939168 0.0093403561 
  722000    255.97281   -1073.4857   -3519.8247    -6489.522    3076.6746    1464.6603    0.4021774 0.0028933772 0.0093282323 
  724000    298.01691   -1073.3726    1852.0695   -7256.0872    1069.2203   -956.08583   0.40205661 0.0028949839 0.0093213238 
  726000    332.25717   -1072.8356    3776.2512   -11099.689   -2408.0797   -1201.9732   0.40182194 0.0028984271 0.0093067543 
  728000    328.74275   -1074.0301   -409.57979   -5735.7963   -400.43113    117.26891   0.40168239 0.0029123351 0.0093000215 
  730000    286.45318   -1074.2391    2694.4296   -12119.513    961.01358    1034.9498   0.40149328 0.0029206877 0.0092896649 
  732000    316.42408   -1073.6327   -751.93396   -7612.3179    1234.9452   -2915.3065   0.40155238 0.0029150088 0.0092870657 
  734000    269.82801   -1073.3798   -3213.5615   -10756.763    1194.0033   -46.802053   0.40159648 0.0029131586 0.0092834557 
  736000    369.69352   -1073.9574   -1443.9158   -5426.6855    2026.3449   -3694.8149   0.40147376 0.0029159555 0.0092759851 
  738000    288.26311   -1073.7364    390.07872   -7652.3435    2143.9995    -4020.974   0.40141278 0.0029076717 0.0092559537 
  740000    296.78338   -1073.9795     1576.463   -7638.7415    1899.7199   -2837.2837   0.40129157 0.0029052238 0.0092820452 
  742000    260.01981   -1073.9189    5210.7694   -11114.249    935.60004   -644.31057   0.40125653 0.0028995876 0.0093095072 
  744000    303.92098   -1073.8012    2603.1795   -6421.8011   -154.78081    448.47712    0.4012386 0.0028989061 0.0093265412 
  746000     285.9608    -1074.111    8116.7063   -9186.9764    1908.7305    977.11013   0.40133239 0.0028930899 0.0093093307 
  748000    304.96461   -1072.9457    1234.3614   -6195.3776     1172.843   -486.43914   0.40119343 0.0028922668 0.0093028263 
  750000    299.68035    -1073.486   -510.89791    -7588.031     1524.706    656.47647   0.40087539 0.0028894805 0.0092848764 
  752000    305.86353   -1073.0105    -2551.383    -2409.159    1019.9821   -406.87419   0.40041441 0.0029258043 0.0092606676 
  754000     321.8111   -1073.4919    457.80006    -5522.514    1166.1272    -1251.933   0.39989531 0.0030119663 0.0092371695 
  756000    304.02175   -1074.4578    1530.9689    -4540.641    42.903917   -83.423262   0.39934724 0.0030613748 0.0092317172 
  758000    308.45833   -1073.5929    3683.4732   -5784.1739    448.78879    1504.0044   0.39891669 0.0031044506 0.0092140473 
  760000    318.62055   -1073.7921    1512.9645   -3203.0042     1675.197   -1602.7414   0.39857851  0.003151035 0.0091965869 
  762000    312.94051    -1073.773    3178.2286   -6074.8044    1.4901894    1044.4968   0.39827128 0.0031773458 0.0091929737 
  764000    281.93177   -1073.4153   -1852.0917   -7108.7775    2128.0221   -2157.0078   0.39828769 0.0031790988 0.0091800725 
  766000    299.57609   -1073.6661    397.73249    -7938.551   -2275.0652    1112.5535   0.39838789 0.0031699667 0.0091711638 
  768000    303.69367   -1073.8935    545.45864   -6996.8499    203.40712    1221.1105   0.39841712 0.0031667127  0.009188248 
  770000    300.39747   -1074.2555    1427.2347   -7920.3735    2508.7931   -1767.8813   0.39850092 0.0031621828  0.009182971 
  772000    318.02906   -1072.6567    3036.4599   -6316.5053    1665.1982   -2438.6796   0.39845692 0.0031560539 0.0091835976 
  774000    302.40717   -1074.5609    2156.2072   -8095.3914    1651.0885   -1714.5413   0.39846462 0.0031617545   0.00916772 
  776000    284.11591   -1073.5075    3042.1551   -7425.5671    2920.3608   -165.77325    0.3984989 0.0031638829 0.0091645696 
  778000    320.99822   -1073.9935    3989.4862   -4934.6605   -223.17209    142.44928   0.39848323 0.0031625782 0.0091570861 
  780000    314.70795   -1073.6634     2710.667   -9447.2666    2082.4663     -1378.21   0.39847062  0.003156672 0.0091517282 
  782000    297.87689   -1073.6013     4729.754   -8290.9451   -853.18114    3320.0925   0.39861784 0.0031663204 0.0091443917 
  784000    300.23896   -1073.9598    4986.5388   -6448.6902   -694.81423   -2260.4072   0.39866385 0.0031562442 0.0091279609 
  786000    344.65897   -1073.3325    2488.1495   -6359.4065   -349.23381    1603.0229    0.3985833 0.0031481863 0.0091299707 
  788000    280.79523   -1073.6565   -851.80837   -5519.2554    1743.5606   -2513.0894   0.39846922 0.0031591548 0.0091166062 
  790000    321.41758   -1073.3232    763.55045   -6279.2527    217.10387   -3075.6255    0.3982781 0.0031676413 0.0091112496 
  792000    310.93941   -1073.7097   -2327.7832   -5114.5124    502.46369   -2477.3917   0.39811076 0.0031757748 0.0091190914 
  794000    303.36736   -1073.7905   -1746.3441   -5865.4496    4406.1126   -3366.0087   0.39784021 0.0032057277 0.0091156964 
  796000    278.10926   -1073.9582   -162.36926   -5566.8261    663.75354   -3998.5142    0.3976262 0.0032134251 0.0090996529 
  798000    277.88481   -1073.8966    4057.9503   -10702.699   -1608.1201   -1663.8838    0.3975275 0.0032176438 0.0090991646 
  800000    322.44186    -1073.614   -818.70306   -8234.6158     1696.965   -1484.0472   0.39765045 0.0032103042 0.0091044791 
  802000    300.20929   -1074.1384   -566.15957   -6679.5952    2857.0168   -168.04855   0.39778075 0.0032022687 0.0090789984 
  804000    298.86574   -1072.9026    6931.3842   -6944.9946   -1679.7475   -2044.5099   0.39774909 0.0031984613 0.0090896683 
  806000    291.41446   -1073.7098      997.258   -8775.3107   -777.88996    1732.3125   0.39772073  0.003221789 0.0090807572 
  808000     268.0327   -1073.8813    3260.9257    -7923.141   -1004.3276    1127.3371   0.39776098 0.0032141766 0.0090631915 
  810000    320.03803   -1074.0326    1730.5693   -6229.5326    808.84587   -2816.2636   0.39759242 0.0032069459 0.0090719258 
  812000    285.23948   -1073.9405    4612.1232    -6339.068    133.77951   -1006.8171   0.39740054 0.0032255098 0.0090824247 
  814000    320.67523   -1074.5529    1797.4506   -4409.7554   -1243.5536    527.66795   0.39731142  0.003232668 0.0090771514 
  816000     305.6189   -1073.7859   -3613.2562   -4170.3281    387.93366   -3671.4792   0.39704249  0.003246662   0.00907378 
  818000    272.77582   -1073.0621    221.89241   -8421.5146   -411.37684    1996.1515   0.39698643 0.0032451635 0.0090637158 
  820000    333.80339   -1073.7957    3025.1341   -7559.7907   -1715.5961   -943.11796   0.39715471 0.0032374005 0.0090519003 
  822000    299.65808   -1073.3567    882.15558   -7696.7988   -2407.9014   -3876.9114   0.39721855 0.0032289953  0.009076453 
  824000    328.13699   -1073.8742    1068.0339   -7037.6216    97.389165    156.10481   0.39732029 0.0032206353 0.0090885737 
  826000    280.39867   -1073.4698    3894.9491   -7344.5641    2442.2056   -3188.5541   0.39751008 0.0032145276  0.009072523 
  828000     283.5933   -1073.3652    6429.7076   -3086.0376   -1061.2183   -1088.2812   0.39740328 0.0032084863 0.0090741577 
  830000    294.57407   -1073.4252    2895.8945   -7959.4716    682.88731   -4079.6211    0.3973537 0.0032031698 0.0091198072 
  832000    268.70013     -1073.01    2374.3383   -5636.6358    653.59343    151.32189   0.39751475  0.003195643 0.0091403429 
  834000    284.55424   -1073.0441    1871.0056   -8659.6138    1545.1677   -3305.4156    0.3975754 0.0031948367 0.0091327078 
  836000    300.53715   -1073.9654    2641.6065    -7000.782   -691.27284   -3521.1287   0.39770026 0.0031877425 0.0091145572 
  838000    294.00692   -1073.7803   -425.02119   -6897.4561    2008.6088    353.59246   0.39760202 0.0031806178 0.0091393006 
  840000    254.19488   -1073.6196    3245.0601   -8352.0281   -137.07785   -810.04827   0.39755965 0.0031750415 0.0091768146 
  842000    261.67595   -1073.3304     3576.933   -6428.6093    158.26971   -3242.8144   0.39753046 0.0031712011 0.0091552556 
  844000    285.10587    -1073.577   -79.878445   -8105.2228    3738.0847    -2144.079   0.39781727    0.0031643 0.0091496729 
  846000     302.1746   -1073.5156    1717.3451   -8179.3291    -1088.415   -842.44978   0.39792838  0.003159231 0.0091641917 
  848000    280.21472   -1074.5781    1326.1452   -7340.5979    1161.9327   -2150.7102   0.39790318 0.0031543531 0.0091853143 
  850000    317.77188   -1073.5007    5615.0926   -6427.0731    2597.0651    610.64094   0.39791985 0.0031463541 0.0091699754 
  852000    262.99646   -1073.2019    3104.0307   -9462.6786    -1754.125   -1893.9647   0.39781616 0.0031474625 0.0091604108 
  854000    283.77023   -1073.0741    3726.9342   -5425.5137    4077.1568   -678.40732   0.39768854 0.0031474925 0.0091875576 
  856000    313.28727   -1073.9111    4113.9123   -10817.691    1655.2504   -1160.1068   0.39750478 0.0031679323 0.0091897225 
  858000    302.69951   -1072.9303   -2586.1241   -7520.0433    163.54568    569.66806   0.39743185 0.0031814214 0.0091823363 
  860000    271.17897   -1074.5389    2633.1067   -7102.8534   -1079.4125   -404.46673   0.39738804 0.0031820068 0.0091677309 
  862000    307.90775   -1073.4675    1916.0388   -6812.8231    1495.1237    -1174.488   0.39734089 0.0031707002 0.0091657797 
  864000     288.7417    -1073.381     4554.379   -4510.4818   -676.16163   -977.98067    0.3973149    0.0031641 0.0091556272 
  866000    283.65984   -1074.2023   -991.57419    -6604.061    2782.4569    479.67856   0.39729124 0.0031575549  0.009146214 
  868000      294.537   -1073.9125    3016.9957   -7550.5644    2009.3232   -2762.8201    0.3972897 0.0031586296 0.0091302223 
  870000    261.01067   -1073.4224    2645.1949   -3736.7399   -801.20294    1067.9088   0.39723733 0.0031718031 0.0091310176 
  872000    311.56013   -1074.0872     2829.451   -7049.7533   -3308.5494    -1893.749   0.39695416 0.0031731895 0.0091282815 
  874000    305.10516   -1073.4169     1811.143   -8800.3284    441.34005   -1450.9887   0.39686466 0.0031749476 0.0091213628 
  876000    291.15424    -1074.038    2180.9873   -7204.1499   -200.11154   -621.03423   0.39697397 0.0031750416 0.0091124703 
  878000    290.19596   -1072.9917   -55.183633   -7071.6636    826.40624    1687.9402   0.39711307 0.0031688754 0.0091154732 
  880000    307.97642   -1073.6746    1224.9298   -10671.529    502.48308   -2296.0919   0.39730045 0.0031653325 0.0091245264 
  882000    292.32737   -1073.4294   -550.80702   -5613.9005    1026.7837       1006.7   0.39745266 0.0031565789 0.0091193498 
  884000    315.34315   -1074.3961   -830.37557    -6513.655    4041.0459   -1457.8146   0.39732959 0.0031510976 0.0091164608 
  886000    308.45988   -1072.9931    1849.8644   -4543.8305    1016.9617   -2610.4274   0.39729054 0.0031560443 0.0091101503 
  888000      299.796   -1074.0731    639.59906   -7427.8397   -1709.1388   -3624.7467   0.39715169 0.0031521151 0.0091025926 
  890000    279.82056   -1073.7246    -676.3266   -7556.7321    3618.3569   -2917.9523   0.39699828 0.0031442112 0.0091084325 
  892000     278.6555   -1073.6426   -78.512106   -8478.2401    1574.8028   -2946.7197   0.39705694 0.0031514858 0.0090922993 
  894000    304.55296   -1073.5472    1967.4681    -10009.31   -1824.3072    -479.4232   0.39708916 0.0031492337 0.0090954128 
  896000    289.44036   -1073.6967    2824.9844   -8705.9643    1818.2528    208.99274   0.39695421 0.0031492771 0.0090962545 
  898000    309.49579   -1074.0047    1799.9422   -10482.808   -868.67684   -848.80605   0.39706486 0.0031398539   0.00909623 
  900000    321.72945   -1073.7921    2548.5634   -7552.0278    937.44538   -1488.1033   0.39704558 0.0031341397 0.0090882488 
  902000     291.9335   -1073.4804    3010.3766   -10325.339   -1132.6238   -1311.4106   0.39709469 0.0031284897 0.0091445754 
  904000    304.11731   -1073.3014    6260.8315   -6295.1588    1617.6084   -1271.8795   0.39717075 0.0031230043  0.009148841 
  906000    321.26757   -1073.8689    4540.7586   -8135.8211    -202.5143    351.26618   0.39709724 0.0031266066  0.009155123 
  908000    288.33784   -1073.5187    910.13678   -6024.6597    3018.3261     38.12633   0.39705803 0.0031218464 0.0091496316 
  910000    325.34665   -1073.7806    3451.5211   -7344.7118   -1690.7807    492.88894   0.39718994 0.0031166596 0.0091428812 
  912000    273.15963    -1073.261   -848.93886   -6984.5853   -689.91656   -1331.0981   0.39727779 0.0031108758 0.0091484375 
  914000    298.58775   -1073.6633   -1197.6327   -6854.2738   -837.06746   -1318.0188   0.39725627 0.0031040163 0.0091610926 
  916000    277.24154   -1073.5918    1905.6791    -9731.019    273.47233   -188.35505    0.3972444 0.0030973794 0.0091617713 
  918000    295.00784   -1073.4052     4847.504   -5694.7652   -1549.6939   -2399.7901   0.39724611 0.0030921669  0.009150124 
  920000    300.25911    -1073.721    4021.9224   -7811.4356   -170.27204   -2513.5852   0.39713578  0.003087947 0.0091506106 
  922000     277.1272   -1073.1026    1234.8903   -6113.4308    1805.5834    -715.3011   0.39706068 0.0030827263 0.0091591742 
  924000    281.48385   -1073.7152    2558.3023   -9713.6687   -250.97634    -3350.644   0.39708065 0.0030916018 0.0091777083 
  926000    277.45232   -1073.7902    2449.3526   -7940.5194   -2505.4679    -666.0813   0.39705583 0.0030843723  0.009173236 
  928000     329.4124   -1073.3039    5069.5457   -7132.2122    1247.7365   -2177.2018   0.39698169 0.0030802944 0.0091555527 
  930000     319.5137   -1073.5218    3055.2603   -4567.0877    954.23099   -255.30385   0.39683263 0.0030868984  0.009168303 
  932000    292.70131   -1074.4291     1425.461   -7535.8649   -650.74641   -1459.9968    0.3966667 0.0030963698 0.0091729238 
  934000    322.37964   -1073.1374   -1126.3481   -9222.5978    5720.7825   -1068.3863   0.39671791  0.003090137 0.0091926999 
  936000    312.09285   -1073.3494   -554.46753   -9486.3619     128.5883    288.82815   0.39697564 0.0030850346   0.00919329 
  938000    292.06353   -1073.4584    842.26075   -2499.5209    31.441168   -974.62954   0.39710042 0.0030764163  0.009215141 
  940000    316.40831   -1074.5351   -430.15973   -5774.1788     709.6142   -1481.2013   0.39700024 0.0030725242 0.0092336931 
  942000    310.54021   -1073.1142   -1411.9701   -8646.4128   -677.46834   -2475.6548   0.39691735 0.0030671966 0.0092214035 
  944000    306.50611   -1073.7435   -343.28582   -6693.6322   -1517.2826   -1290.5851   0.39689634 0.0030628679 0.0092178322 
  946000    290.78823   -1073.9764    1732.2421   -8692.4486   -2963.1806    396.04772   0.39686617 0.0030567268 0.0092273931 
  948000    303.68935   -1073.9191    1209.8138   -7245.8224   -2510.8366   -2512.9889   0.39688758 0.0030512408 0.0092253022 
  950000    284.51617   -1074.4467    3979.1427    -8685.422    475.07152   -1234.4691   0.39690042 0.0030469703 0.0092538561 
  952000    313.84026   -1072.8009     3255.672   -7084.4472   -3406.6236   -345.49017   0.39709326 0.0030520076 0.0092454667 
  954000    298.93032   -1074.9441    3569.9409   -10172.074       1220.9   -154.76396   0.39704658 0.0030500882 0.0092463931 
  956000    288.49381   -1074.0206    8287.0143   -9467.1099    345.67849   -1615.1379   0.39700503 0.0030456618  0.009277286 
  958000    285.90954    -1073.771    2689.7841   -8657.4402   -3074.8042   -3342.6361   0.39695456 0.0030405969 0.0092919666 
  960000    263.04678   -1073.3906    4407.1491    -4765.123    1273.4041   -638.58743   0.39707916 0.0030337027 0.0092723745 
  962000    282.00083    -1073.413    5300.6995   -8615.6744     2037.952   -4633.4694   0.39705005 0.0030516305 0.0092656408 
  964000    293.10286    -1074.009    1245.0426    -8075.131   -755.18282    702.35378   0.39720927 0.0030474812 0.0092996769 
  966000    260.76445   -1074.3076    245.34311   -9608.5589   -643.43269    -3349.194   0.39736838 0.0030448441 0.0093259362 
  968000    326.33336   -1073.6065     348.1402   -6184.7828    836.73643   -1574.1369   0.39742522 0.0030379489 0.0093385515 
  970000    282.56072   -1073.0729    3250.3099   -4564.9075     2506.291   -3073.3078   0.39721684 0.0030334382 0.0093497976 
  972000    279.76884   -1073.7615    1478.3829   -5551.9735    2198.3053   -4233.2443   0.39717728 0.0030286916 0.0093521556 
  974000    315.17748   -1072.7164    1177.1319   -7534.0652   -3824.4231   -2393.7205   0.39725882 0.0030233228 0.0093667448 
  976000    282.13481   -1073.8267    2537.0723   -10017.657   -4380.8066   -1780.2381    0.3973716 0.0030176067 0.0093576162 
  978000    335.11893   -1074.4091    3433.0122   -7517.0285   -2311.0461   -5869.5922   0.39754478 0.0030113107 0.0093541323 
  980000    296.24068   -1073.5383    5791.0877   -5383.2438    2420.2934   -964.98336   0.39748318 0.0030140871 0.0093665019 
  982000    305.23488   -1073.5084    1398.8518   -9475.6373    3805.2003   -1322.8428   0.39724928  0.003022073 0.0093761449 
  984000    355.25019   -1073.9444    244.95957   -8268.8128    550.59603    33.597368   0.39700816 0.0030184321 0.0093848234 
  986000    324.60888   -1072.9371    3378.5517    -6145.752   -2214.9164   -1624.4937   0.39716284 0.0030125088 0.0094028186 
  988000    315.71595   -1072.9307    1423.4401   -8533.6264    890.88787   -612.46399   0.39728752 0.0030074137  0.009393012 
  990000    279.37946   -1074.1528    3507.3312   -4555.4544    864.62867    2536.0365   0.39749203 0.0030027344 0.0093797599 
  992000    287.51679   -1074.1172   -630.78299   -7733.5363    2095.3376   -917.41592   0.39745029 0.0030058913 0.0093664086 
  994000    298.61183    -1073.354    4699.6901   -7565.4488   -937.58447    398.54205   0.39738589 0.0030005596 0.0093820472 
  996000    311.44319   -1073.9244    654.93331   -5581.1285   -980.08145   -2886.4239   0.39728122 0.0029995645 0.0094087376 
  998000    279.41255   -1074.0522    5333.5122   -4862.3398    3337.8592   -831.58592   0.39723569 0.0029939461 0.0094449368 
 1000000    275.55594   -1072.9377    2039.2105   -8033.3031   -3679.9677   -2056.8741   0.39743966 0.0029854254 0.0094470695 
 1002000    292.78252   -1073.3811    467.79282   -8853.5073   -775.28508   -1063.7024   0.39771456 0.0029808791 0.0094450055 
 1004000    301.00595   -1073.6859    3013.7827   -6047.2696   -1138.6578   -2623.9091   0.39777925 0.0029734725 0.0094582554 
 1006000    275.06762   -1074.7126    1289.3473   -6999.0535   -947.41496   -74.805844   0.39781988 0.0029686283 0.0094688414 
 1008000    304.44853   -1073.2027    9101.7393   -6601.4788    412.71238    657.16086   0.39785132 0.0029644407 0.0094596123 
 1010000    326.12575   -1073.8494    41.876786   -8295.2956    1906.7668   -2237.1071   0.39777512 0.0029607524 0.0094615082 
 1012000    306.03849   -1073.8923    5205.1966   -7584.1689    485.65163    1824.5244   0.39777917 0.0029540863 0.0094635979 
 1014000    317.64772   -1072.6141    2681.3347   -8843.6922    1068.7892   -2071.0137   0.39780279 0.0029477273 0.0094924681 
 1016000    285.77575   -1073.3673    4326.6546   -8565.1581    894.20366    2710.2912   0.39796573 0.0029435664 0.0094891704 
 1018000    294.43398    -1073.907    3353.5835   -7757.7575   -40.810691   -3122.9637    0.3979558  0.002937427 0.0094961431 
 1020000    295.39631   -1074.4534   -236.66576   -4632.8524    4679.3878    721.29347   0.39810942 0.0029371315 0.0094736412 
 1022000    301.34111   -1074.2718    1519.8571    -5681.735   -1241.4392   -2365.6669   0.39789186 0.0029314364 0.0094719679 
 1024000    281.86126   -1074.0512   -777.00432   -5262.7306    5506.3329   -4276.3868     0.397748 0.0029264093 0.0094925393 
 1026000     282.3265   -1073.5799   -516.21649   -9956.0429   -320.78769   -897.55028   0.39767248 0.0029211126 0.0094906967 
 1028000    323.23566   -1073.1929    3630.7222   -9224.9937    1354.5047   -1683.0768   0.39771709  0.002917884 0.0094902161 
 1030000    290.67013   -1073.5411    2454.2378   -6148.2559    1675.2023    483.38807   0.39771236 0.0029128556 0.0094840426 
 1032000    317.21647   -1073.8592    1990.9446   -10016.324    2539.9038    536.04804   0.39792248 0.0029070051 0.0094719352 
 1034000    320.70939    -1072.883    148.22659   -8034.8149    336.21662   -8.2342606   0.39804152 0.0029105516 0.0094730107 
 1036000    299.86881   -1073.7348    553.15515    -7691.915    82.304084   -1157.6432   0.39809629 0.0029036693 0.0095000397 
 1038000    335.54852   -1074.0333    4677.3737   -9350.2345    1902.9364         1076    0.3981454 0.0029003329 0.0095015013 
 1040000    333.35689   -1073.7412    3094.0703   -4994.2523    2960.8816   -2023.8363   0.39816384 0.0028939339 0.0094997096 
 1042000    296.34667   -1074.1253    3194.0091    -9272.582   -1070.3234   -3522.7186   0.39802619 0.0028871392  0.009530532 
 1044000    304.35415   -1073.7517   -1240.7631   -6836.7793    2899.2996   -996.67294   0.39806503 0.0028820537 0.0095247712 
 1046000    325.72106   -1074.3794    3928.1419   -5371.0711    765.44031   -1591.4909   0.39821428 0.0028853765 0.0095286965 
 1048000    283.73748   -1073.7885   -703.10394    -6034.545    4555.8641   -1423.9874   0.39810883 0.0028858704 0.0095198797 
 1050000    291.15703   -1072.9392   -398.57047   -2820.4934    4717.4024   -2369.5692   0.39797418 0.0028907106 0.0095110209 
 1052000    296.87355   -1073.6166    1169.2153   -6589.1132   -225.93795   -280.04531   0.39780595 0.0028926682 0.0095024181 
 1054000    328.54894   -1073.3154    2080.9876   -8720.2451   -3107.3254   -3295.3757   0.39774868 0.0028882958 0.0095244804 
 1056000     289.8033   -1073.4294   -2550.4711   -8263.0879     761.5849   -1009.6698   0.39782782 0.0028862551 0.0095413571 
 1058000    268.73863   -1073.7931    8520.4028   -5198.6665   -3344.5074    -177.3469    0.3980508 0.0028813299 0.0095506163 
 1060000    260.65603   -1073.9019   -28.476437   -3573.4603    2501.9803   -2987.0472   0.39807867 0.0028806419 0.0095568355 
 1062000     273.4326    -1073.163   -151.00741   -9469.0047    1296.1568   -132.28541   0.39799257 0.0028806932 0.0095451991 
 1064000     277.6818    -1073.569    2945.0992   -6308.8396    792.50382   -438.31647   0.39808062 0.0028857382  0.009540779 
 1066000    302.62009   -1073.8726    4666.5666   -7798.3475    2668.0794   -2517.3923   0.39804936 0.0028831106 0.0095677599 
 1068000    305.00118   -1073.6065    124.80724   -8325.4217    337.23543   -56.592729   0.39801135 0.0028800397 0.0095949037 
 1070000    323.10746   -1073.9845    4849.8631   -7489.7049   -1324.9881    -2547.108   0.39796826 0.0028755186 0.0096007732 
 1072000    295.28571   -1073.5189    -716.1371   -5662.3675    795.70152   -689.63597   0.39789373 0.0028731705 0.0096058129 
 1074000    295.09033   -1073.4841   -1103.0728   -7380.6837   -71.431042    348.42013    0.3977803 0.0028695547 0.0095998793 
 1076000    309.93148   -1074.1969    140.94494   -8306.5966    -1203.889    -3638.686   0.39791737 0.0028715364 0.0095845095 
 1078000    300.28821   -1074.2798    817.00518   -5754.6168    254.50527    657.60708   0.39792673 0.0028681268 0.0095948145 
 1080000    313.05289    -1073.311    445.15377   -8675.2326   -1478.2586    1756.0562   0.39789067 0.0028632603 0.0096003464 
 1082000    299.01547   -1073.4771    530.87097   -5536.8177    2690.0071   -3592.0894   0.39809709 0.0028574027 0.0096197251 
 1084000    323.80498   -1073.7722    2636.4607   -10591.893   -44.106253    1374.9967    0.3981614 0.0028519953 0.0096260844 
 1086000    326.68615   -1073.1992     1618.598   -4937.9825    3200.2734   -2398.8366   0.39812323 0.0028482299 0.0096322622 
 1088000    309.56371   -1073.5916    4643.5228    -8296.537    1078.4328    1600.1149   0.39816425  0.002844649 0.0096257803 
 1090000    280.88287   -1073.6784    3403.5569   -8968.1123    1994.5675   -1531.3915   0.39812812 0.0028570001 0.0096301569 
 1092000     264.5021   -1073.9367    4695.2013   -12327.731    -596.7033   -559.58292   0.39806188 0.0028514747 0.0096519409 
 1094000    292.49205   -1073.5558    2130.9675   -6012.6073    1988.5022   -3905.7917   0.39800753 0.0028473647 0.0096697191 
 1096000    310.52428   -1073.4969   -1395.8353   -9164.1267    1016.0915   -26.596291   0.39800208 0.0028424338 0.0096752852 
 1098000    270.32484   -1073.5222    2470.9699   -7937.6614    -702.6513   -1775.0692   0.39813522  0.002847299 0.0096839435 
 1100000    273.24113   -1073.4494    2349.5744   -9743.4704   -123.27945   -1402.4064   0.39828351 0.0028443971  0.009685395 
 1102000    325.06494   -1073.6508    801.60163   -9430.0598      1983.78   -711.98448   0.39862012 0.0028418984 0.0096949361 
 1104000    297.74956    -1074.196    2142.8676   -7100.7894    677.92074    2178.2462   0.39860267 0.0028438644  0.009691781 
 1106000    302.36537   -1074.4077    1672.1537   -6228.0519    143.82345   -1629.1253   0.39853503 0.0028494741 0.0096808464 
 1108000    318.32361   -1074.0081    2094.0268   -7486.4456   -472.47916   -408.00893   0.39849328 0.0028474417 0.0096821872 
 1110000    297.47097   -1074.7512     1772.209   -7982.8479   -294.80199   -850.73976   0.39854246 0.0028425705 0.0096749769 
 1112000    299.02271   -1073.8418    4214.1217   -7968.4199    2503.9428    1806.9686    0.3987386 0.0028367286  0.009658279 
 1114000    278.59664   -1074.2064    385.37684    -10998.51   -1711.1915   -224.58244   0.39899134 0.0028354774 0.0096402953 
 1116000     298.6713    -1074.655    6365.2624   -10092.651   -2387.9876   -114.35942   0.39926112 0.0028306322 0.0096330574 
 1118000    295.13091   -1074.0109    3985.8281   -4015.7105   -824.53366    27.895579    0.3993628 0.0028263109 0.0096333565 
 1120000    309.80167   -1073.7169    2852.6096   -7683.2954    1428.6077   -2083.6523   0.39952612 0.0028209393  0.009632374 
 1122000    283.48334   -1073.6503    7014.3576    -9139.541      -318.83    292.63082   0.39961649 0.0028129945  0.009634665 
 1124000    323.63128   -1074.1213    18.105661   -5189.9413     3739.488   -5918.5007   0.39985518 0.0028151847  0.009637029 
 1126000    294.84531   -1074.4206    1176.2042   -8200.8082    535.83772    197.59599   0.40006694 0.0028250052 0.0096279849 
 1128000    301.95086   -1074.4196   -86.780694   -6442.4096    402.12733   -1581.2379   0.40003895  0.002832109 0.0096123241 
 1130000     263.1263   -1074.5016      4424.52   -7146.5072    -1996.314    508.38194   0.40001094 0.0028298682 0.0095957153 
 1132000    267.79946   -1074.4434    1771.7879   -7977.5708   -1474.7327    2617.8607   0.40011126 0.0028297795 0.0095807819 
 1134000    315.57357   -1074.9438    5559.6412   -7731.5922   -4364.6655   -816.01767   0.40020757 0.0028226727 0.0095803779 
 1136000    297.59317   -1074.4886   -833.84032   -6188.1638    1869.4792   -171.10024   0.40039111 0.0028198338 0.0095797028 
 1138000    294.06242   -1074.3887    3180.1636   -7039.7395    993.98128   -472.74073   0.40049329 0.0028262494  0.009565709 
 1140000    270.36717   -1073.9841    2073.4143   -8496.2898     3206.572   -2391.9797   0.40044733 0.0028328161  0.009550611 
 1142000    266.04895   -1074.5343    -861.0002   -7803.4621    1378.9589    930.40527    0.4005136 0.0028457953 0.0095354609 
 1144000    302.35026   -1074.1447    1219.6926   -10820.532    1176.0352    1382.8028   0.40066763 0.0028444268 0.0095195689 
 1146000    329.25125   -1074.6584    2167.9823    -7333.116   -25.062778    534.63872   0.40067858  0.002839627 0.0095050111 
 1148000    302.96481   -1073.9161    7810.8351   -5152.6955   -1827.9993    707.12671   0.40076346 0.0028355174 0.0094967916 
 1150000    278.29101     -1074.06   -804.44481   -9157.8957    1738.5353   -2303.4528    0.4007485 0.0028341981 0.0094851944 
 1152000    308.48201   -1073.7745    7623.0357    -9069.856   -1526.7782    779.42698   0.40081508 0.0028381692 0.0094744061 
 1154000    306.40188   -1074.0127    1671.8154   -9757.1293   -33.332534   -1637.3483    0.4008976 0.0028322506 0.0094585732 
 1156000    308.57966   -1074.4703   -1887.6368    -8275.601    2286.3392    -4525.999   0.40103633 0.0028326346 0.0094414836 
 1158000    308.20933   -1073.2256    235.58576   -9196.8389    993.72868   -896.95723   0.40106366 0.0028380634 0.0094298257 
 1160000    297.29366   -1074.1849    4533.2026   -5264.3387    3171.6626   -2407.8213   0.40094696 0.0028298055 0.0094132937 
 1162000    286.96538   -1074.5172   -1981.9674   -7611.0354    3792.0847    -3358.573   0.40087956 0.0028257218 0.0094040985 
 1164000    285.64519   -1074.4314    4655.2463   -6346.7717     2680.277   -2433.1142    0.4010843 0.0028220891 0.0094152861 
 1166000    314.38912   -1074.7191    2100.3769   -7771.0233   -1964.5064   -1570.6648    0.4013027 0.0028181556 0.0094191565 
 1168000    284.73894   -1074.4317    1080.9489   -6772.9521    3104.4154   -1675.6804   0.40146321 0.0028138519 0.0094025597 
 1170000    299.76126   -1074.2378    4775.7203   -9476.6349   -1179.2417   -344.60052   0.40157874  0.002817728 0.0093855585 
 1172000    291.57891   -1074.4569    -130.2516    -9602.748    1630.8452   -1129.5877    0.4016695 0.0028120435 0.0093795305 
 1174000    321.60022   -1074.3303    1342.5996    -7393.393   -5018.6915   -2767.8454   0.40170145 0.0028056006 0.0093762743 
 1176000    320.07526   -1074.8422   -2198.2468   -7839.4567    851.17096   -346.96904   0.40180411 0.0028062849 0.0093670298 
 1178000    285.83127    -1074.545    1679.7245   -6502.9455   -621.26167   -816.74748   0.40189293 0.0027990848  0.009363578 
 1180000    351.60358   -1074.6568    2073.6995   -6243.3319    2268.8475   -1717.5518    0.4019237 0.0028016458 0.0093455795 
 1182000    299.96535   -1074.5065    6287.9122   -11826.486    659.50783    1638.1117   0.40201448 0.0027963152  0.009336598 
 1184000    316.12127   -1074.4334    3168.1586    -9602.642   -2489.6245    1138.7257   0.40215534 0.0027910208 0.0093216084 
 1186000    300.32509   -1073.9587    613.92547   -7512.4233   -135.32954   -405.62767   0.40236968 0.0027849995 0.0093116291 
 1188000     310.1524   -1074.4799     2412.001   -5961.4354   -184.57174   -200.60207   0.40244259 0.0027788249 0.0093109999 
 1190000    295.61024   -1074.7446    4610.8039   -5698.9334   -1039.9266    436.57038     0.402575 0.0027853979 0.0092948989 
 1192000    317.22859   -1074.4589    2772.8239   -6542.8609   -1408.1331    -2375.946   0.40268288   0.00278021  0.009282046 
 1194000    278.75927   -1074.3887    4752.4437   -9661.8262   -2411.4513    3287.3457   0.40272813  0.002788238 0.0092790688 
 1196000    289.94218   -1074.1374    2204.1243   -7543.3381    2086.5782    685.29475   0.40267837 0.0027870477 0.0092677305 
 1198000    330.75743    -1074.496    1892.5004   -6882.8352    2567.7242   -292.55865   0.40263971 0.0027852175 0.0092561895 
 1200000    304.60077   -1073.8168   -2018.7344   -10591.271   -323.07641   -1549.9545    0.4027787 0.0027856397 0.0092447686 
 1202000     303.9353   -1073.3542    4133.9645   -8894.2242   -1825.2106     -2891.25    0.4029429 0.0027804293 0.0092344216 
 1204000    291.05515   -1074.7868    2124.4565   -7583.5301    178.34604    -939.1892   0.40305729 0.0027793832 0.0092276286 
 1206000    323.39078   -1073.8834    414.30764   -7739.4202    878.00109    1434.6165   0.40310824 0.0027774238 0.0092155575 
 1208000    310.81219   -1074.5076    7669.6972     -8885.63   -31.520701   -1456.4706   0.40317105 0.0027740315 0.0092007435 
 1210000    319.38712   -1074.3913    3392.9682   -6604.6839     2130.021   -435.17316   0.40326974 0.0027701182 0.0091910312 
 1212000    305.42492   -1074.0537     4891.722    -10030.51   -719.48252    1329.9094   0.40332394 0.0027680719 0.0091869748 
 1214000    281.35148   -1074.0374   -30.732366   -6127.7435      4695.56    -2809.836   0.40338945 0.0027630034  0.009178734 
 1216000     284.2009    -1073.948    1635.0002   -7603.2951    1511.8434   -2270.0162   0.40351298 0.0027679832 0.0091677568 
 1218000    271.44783   -1074.5276      3882.81   -6191.0194   -1636.4864   -709.04054   0.40352552  0.002765872 0.0091713757 
 1220000    317.71703   -1074.1033      795.512   -8572.2049    2037.9096    1291.6586   0.40361291 0.0027666881  0.009162801 
 1222000    293.92181   -1074.5192    1315.9265   -7717.1863   -2786.4401    -410.6935   0.40381966 0.0027673705 0.0091513912 
 1224000    318.89827   -1074.5009   -1944.1978   -9779.0213    975.24368   -1314.1139   0.40395922 0.0027672745 0.0091474098 
 1226000    295.66304   -1073.8618    5232.0437   -7474.5794    2519.2609   -2295.2613   0.40406751 0.0027641924 0.0091348627 
 1228000    345.51734   -1074.5298    1331.6799   -5949.6576    814.48545   -1600.2713    0.4039789 0.0027828799  0.009122499 
 1230000     289.6085   -1074.1324    680.05975   -10581.258    2048.7207    97.352245   0.40387704 0.0027932002 0.0091083254 
 1232000      321.723   -1074.5109    2251.6126   -8226.8056   -644.65206   -1350.7271   0.40408095  0.002802562 0.0090969101 
 1234000    295.11783   -1074.7152    5464.9414   -6659.9048    762.65501   -3359.5092    0.4042789 0.0027965076  0.009093048 
 1236000    295.44362   -1074.3573   -533.15645    -8864.136    1047.2847     -3250.51   0.40442382 0.0027927177 0.0090780992 
 1238000    331.56971   -1073.9568    1826.9014   -8442.6428    1309.8815    -835.8723   0.40453935 0.0027889375 0.0090717796 
 1240000    279.70717   -1074.7959   -316.63991   -9587.8035    2135.1995   -2126.2993   0.40451156 0.0027914777 0.0090594757 
 1242000    299.85327   -1074.5149    4470.7726   -9645.3135    625.20143   -1571.3713   0.40455478 0.0027921806 0.0090471209 
 1244000    287.59567   -1074.0747    2238.5997   -7282.3208    1431.7462   -605.88388   0.40476623 0.0027897854 0.0090565801 
 1246000    285.71032    -1073.707    -767.3473   -9710.0478    777.16196   -572.12543   0.40483812 0.0027870408  0.009061545 
 1248000    274.90485   -1074.6992    5570.9749    -7108.462   -703.05793   -41.330708   0.40485819 0.0027830223 0.0090480312 
 1250000    310.77312   -1074.2748    326.80047   -8774.3457    481.96952   -966.68391   0.40491789 0.0027789232 0.0090335489 
 1252000    274.65903    -1074.711    567.67908   -10436.193     929.8123    -1397.385    0.4050247 0.0027766952 0.0090200062 
 1254000    295.57493    -1074.565    1944.5485   -11189.698    420.66687   -942.32367   0.40512454  0.002772728 0.0090155913 
 1256000    273.48598   -1073.9823    387.16541   -9440.1266    4146.0047   -2450.5107   0.40551283 0.0027668363 0.0090346313 
 1258000    316.77734   -1074.4709    1808.9575    -7243.092    2539.2743    366.75322   0.40563144 0.0027653406 0.0090326913 
 1260000       274.12   -1073.9887    4240.0024   -5734.6493    755.29345   -2039.1794   0.40556586 0.0027603725 0.0090206848 
 1262000    273.71741   -1074.4137   -2568.8966   -9336.5194     4213.672    42.761065   0.40553475    0.0027641 0.0090056064 
 1264000    317.87639   -1073.8502     4876.783   -8311.6796   -213.19656   -4825.5909   0.40565375  0.002759694 0.0090020071 
 1266000    299.23379   -1074.2546    2872.7195   -5944.6291    774.20092    -2699.374    0.4057683 0.0027579062 0.0089979182 
 1268000    309.97703   -1074.0571    4458.6565   -10190.026      3417.42    -923.8191   0.40597658 0.0027595884 0.0089962607 
 1270000     318.0923   -1074.4938    3716.5082   -3059.9724    1965.0573    976.35696   0.40611049 0.0027570027 0.0089928422 
 1272000     309.2956   -1074.4176    2969.8274   -6028.6863   -2299.3236   -1840.9029   0.40601666 0.0027687681 0.0089809059 
 1274000    310.78744    -1073.923    3054.5438   -4931.6488    1881.1342    1114.0326   0.40606166 0.0027727674  0.008966305 
 1276000    305.48543   -1073.4758    3474.4097   -8256.6576   -1817.3978   -611.34786   0.40609027 0.0027667932 0.0089526137 
 1278000    333.97792    -1074.761   -1476.2597   -8386.2697    1423.4578   -2383.4872   0.40608475 0.0027633055 0.0089505771 
 1280000    297.52749   -1074.3772   -53.105595   -6204.2991   -3112.4158   -934.40958   0.40609708  0.002758132 0.0089445854 
 1282000     278.1272   -1074.3523    2957.9964   -6695.8411    442.39139   -2354.5092   0.40614608  0.002755488 0.0089394214 
 1284000    297.91896    -1074.719   -2119.5069    -7479.231   -377.13087    128.63359   0.40617873  0.002765474 0.0089395539 
 1286000    312.97443   -1074.3406    3884.7037   -10822.765    1160.9899   -492.87716   0.40626868  0.002767402 0.0089274842 
 1288000    321.95722   -1073.7679    637.71492   -7292.2763   -1786.0646   -2501.1378   0.40644445  0.002763137 0.0089242137 
 1290000     289.4461   -1073.8004    6112.1238   -8400.1936   -22.763334   -132.52746   0.40661849 0.0027573842 0.0089094516 
 1292000      318.089    -1074.515    4342.2357   -8997.8713   -2558.8965   -3578.7944   0.40662501 0.0027582612 0.0089044388 
 1294000    302.92962   -1074.4158    610.13434   -7702.2642     84.45507    393.77496   0.40659378 0.0027508151 0.0088914313 
 1296000    327.48555   -1074.0721    4436.7815   -9530.7207   -1735.4326    -613.1606   0.40656604 0.0027460918 0.0088846895 
 1298000    333.94105   -1073.5003   -909.24844    -4184.264    1602.0204   -1562.6974   0.40666629 0.0027420952 0.0088886397 
 1300000     278.8097   -1073.8516     5738.099   -9305.8349   -2179.8465   -2881.5281   0.40668896 0.0027517953 0.0088831364 
 1302000    269.94303    -1074.637    1919.0407    -6293.014    1279.8154   -3085.9599    0.4066794 0.0027475023 0.0088830679 
 1304000    311.58921    -1073.937    2231.3083   -6239.7942    4718.4398   -927.50773   0.40667555 0.0027459271 0.0088735933 
 1306000    330.59609   -1074.6418   -153.52399   -10655.085    580.39885   -2426.3623   0.40681288 0.0027433456  0.008860983 
 1308000    316.54325    -1074.381   -1407.3967   -8071.0062    2884.5166   -1199.0044   0.40704725 0.0027387251 0.0088480443 
 1310000    263.04414    -1074.484    -1361.923   -9098.3569    1082.4167   -804.21196   0.40711663 0.0027368852 0.0088423872 
 1312000    283.09909   -1073.7516    969.35958    -9340.469    3653.2817    929.95765   0.40712188 0.0027392746 0.0088353507 
 1314000    268.76027   -1074.6327    2665.6006   -6872.4914   -128.63421   -629.94358   0.40718964 0.0027436122 0.0088237051 
 1316000    293.93749   -1074.1262     3180.763   -10101.416   -218.69792   -398.59666   0.40722988 0.0027430254 0.0088123771 
 1318000    314.14638   -1074.3164    2353.5628   -7813.2233   -734.57429   -2362.3514   0.40728158 0.0027436243 0.0088066701 
 1320000    286.54017   -1074.2078    937.92823   -9196.6244   -2236.9524   -1062.7842   0.40738673  0.002736075 0.0088020632 
 1322000    297.32944   -1074.0984    3259.5073   -6177.3185    3658.3096   -5230.1675   0.40740758 0.0027423536 0.0087964374 
 1324000    307.70509   -1074.8723    5204.8786   -7445.2995   -525.92521   -1694.2723    0.4074124 0.0027366917   0.00878311 
 1326000    291.53492    -1073.848    3975.7655   -10549.435    1418.0395   -840.96886   0.40764771 0.0027356022  0.008779007 
 1328000     313.2036   -1074.4749     2189.725   -6098.6392    1317.5765    2259.6747   0.40785696  0.002734345 0.0087728079 
 1330000    257.33526   -1073.8826    5234.2927   -9434.6618    1229.9445   -1411.7868   0.40780236 0.0027342267 0.0087603459 
 1332000    286.65159   -1074.3875    3500.4462   -8658.0105    -1781.239    895.52712   0.40776266  0.002741381 0.0087503139 
 1334000    298.10909   -1074.1539    711.67109   -8661.6322   -1967.4352   -797.52256   0.40784297 0.0027403222 0.0087363896 
 1336000    304.86641   -1074.3406   -308.15833   -6899.3676   -3068.8437    2850.7161    0.4079518 0.0027330534 0.0087356285 
 1338000     306.0645   -1073.8859    4422.5779   -9513.2647   -825.75136   -187.70972   0.40806155  0.002730318 0.0087278352 
 1340000    259.64412   -1074.2698    2253.5231    -6752.525    1791.1738   -1595.1894   0.40825572 0.0027288598 0.0087243836 
 1342000    309.21374   -1073.6958    587.24611   -7533.9719    3571.3063    974.34402   0.40828343 0.0027292966 0.0087167053 
 1344000    290.66792   -1074.4434    4200.8533   -8905.4827   -219.77353   -4314.3815   0.40831182 0.0027340285 0.0087055689 
 1346000    306.09195   -1074.0621    3316.3427   -5413.1485    -473.7578   -842.11578   0.40826974 0.0027360535   0.00870046 
 1348000    291.46291   -1073.8479    1938.4239   -9044.2213    3421.4876    -1792.613   0.40837433 0.0027320858 0.0086969427 
 1350000    286.77877   -1074.6135    5351.3655   -10276.462   -206.64434   -1312.1227   0.40849218 0.0027294012 0.0087053915 
 1352000     251.4999   -1074.2553    2134.7641   -8018.6297    963.80479    1948.0683   0.40867183 0.0027272966 0.0086912965 
 1354000    313.03071   -1074.0906     5680.757   -7997.2514    3291.7986   -382.95735   0.40871267 0.0027231336 0.0086833844 
 1356000    286.73051   -1074.0489    9416.7752   -5328.6058   -1853.0337    2501.2308   0.40874716 0.0027261947 0.0086752087 
 1358000    273.24671   -1074.1591   -1897.3931   -7453.2178    3232.5595   -1996.0613    0.4087907 0.0027221651  0.008662643 
 1360000    303.72231   -1074.1077   -76.136582   -10530.504     -56.5023   -974.77232   0.40886221 0.0027182991 0.0086517083 
 1362000    276.31278   -1074.3935     566.0733   -10288.013   -2477.5516     -1264.48     0.409134 0.0027165145 0.0086443514 
 1364000    313.30619   -1074.1623   -456.83977   -10852.563    2067.9534   -1959.8527    0.4092109 0.0027124596 0.0086431793 
 1366000     284.9552   -1074.4959   -382.05174   -8843.1182    2309.6013     4475.582   0.40925828 0.0027149936 0.0086398112 
 1368000    275.16698   -1074.5234     3385.486   -7706.1757    54.344021   -3732.8599   0.40929869 0.0027156081 0.0086259001 
 1370000    280.96459   -1074.0949    2266.7294   -8382.3039    2441.7255    871.43076   0.40932667 0.0027201061 0.0086193522 
 1372000    285.68414   -1074.8672    4221.3915    -10904.97   -193.90262    824.27442   0.40937061 0.0027244551 0.0086166351 
 1374000     296.6543   -1073.8943    4224.3487    -8351.857   -827.13653   -4805.0273   0.40943248 0.0027216103 0.0086048048 
 1376000    308.37877   -1074.6731    4017.3875   -7270.1539    223.86035    1923.9381   0.40945419 0.0027173722   0.00859719 
 1378000    318.25414   -1074.6432     5519.996    -9082.263   -1113.6798    864.16809   0.40952912 0.0027144319 0.0085880795 
 1380000    279.42702   -1074.5588     5478.037    -7836.115   -935.02925    10.384569   0.40969856 0.0027104959 0.0085861527 
 1382000    297.09271   -1074.2772    4583.2491   -9480.3456   -1790.5861   -2699.2059   0.40984329 0.0027068368  0.008591729 
 1384000    291.60261   -1074.8434    1827.0411   -7587.8487      2086.57   -3269.9171    0.4099621 0.0027122509 0.0085879052 
 1386000     322.8077   -1073.9652    2460.0004   -6768.3375    546.71005    57.199753   0.40993354 0.0027135292 0.0085758835 
 1388000    308.57212   -1074.5223   -17.520126   -7458.4205    1103.1685    1228.4466   0.40994657 0.0027107061   0.00856386 
 1390000    282.38881   -1074.5488    4617.2723   -8239.9178    1080.6339   -1495.1072   0.40992265 0.0027117415 0.0085528725 
 1392000      293.084    -1074.269    1604.3421   -7651.0215    2139.8815   -2047.9941   0.40995045 0.0027103126 0.0085455174 
 1394000    276.92369   -1073.8025    8726.4707   -3935.8196    4224.9835   -3700.5424    0.4100562 0.0027091541 0.0085417402 
 1396000    312.55243   -1074.2343    2019.5572     -7881.15   -3049.8189    1885.8845    0.4101942 0.0027059279 0.0085472681 
 1398000    323.48496   -1073.9467    2778.3151   -7960.4865    56.129832   -1723.5374   0.41039398 0.0027048189 0.0085369299 
 1400000    279.94629   -1074.4416    2683.4684   -11375.985   -2999.7914   -827.58524   0.41043536 0.0027010283 0.0085257046 
 1402000    282.91573   -1074.2451    2536.4661   -8638.9219      2461.88    -2062.035   0.41056347 0.0026977316 0.0085161372 
 1404000    310.40694    -1074.288   -1547.0792   -8838.1392    1036.3051    849.69209   0.41061426 0.0026957664 0.0085058789 
 1406000    303.41201   -1074.0753    4370.9766   -8169.5623   -1036.2997   -68.933309    0.4106677 0.0026900281  0.008513923 
 1408000    318.99466    -1073.763    1563.8075    -4888.411    2141.7499    -4226.624   0.41075947 0.0026912374 0.0084984591 
 1410000     281.5774   -1073.9885    4512.6127   -9920.2683    2605.1473    383.63316   0.41081606 0.0026972374 0.0084920623 
 1412000    303.18602   -1074.2763    117.24852   -10435.319    2396.8237    756.08561   0.41090843 0.0026939657 0.0084794511 
 1414000    301.37161   -1073.0899    5295.7005   -7531.7298    602.25598    1037.6246   0.41105114 0.0026906996 0.0084682268 
 1416000    349.81736   -1073.9368    2618.2301   -11078.965     558.0545     1015.814    0.4112749 0.0026934688 0.0084648549 
 1418000    280.81407    -1074.238    1899.2756   -10436.526   -1970.6318    1490.1294   0.41145829 0.0026959628 0.0084676688 
 1420000    292.59008   -1073.5887    851.00003   -3895.5903    3064.2591   -1657.7565   0.41160666  0.002692839 0.0084750711 
 1422000    321.89167   -1074.6649    1333.3981   -6290.6633    1228.1238    723.28368    0.4116349 0.0026917418   0.00847468 
 1424000    273.30512    -1073.756    4634.8118   -7414.5461    404.23635   -1340.6087   0.41161717 0.0026907167 0.0084662848 
 1426000    280.45006   -1074.1346    1731.6728   -5266.3421    1970.9362   -2653.4058   0.41158621 0.0026908991 0.0084546651 
 1428000    329.85888   -1074.0087    4031.5386   -8354.8793    990.00846   -4779.2683   0.41159294 0.0026907412 0.0084432018 
 1430000    256.34181   -1074.0809     3228.047   -5898.6889   -755.90711   -927.03344   0.41180633 0.0026875549 0.0084383701 
 1432000    317.22791   -1074.1917    3671.6932   -2606.8232    3396.8218   -2982.2303    0.4119456 0.0026864043 0.0084349557 
 1434000    291.34252   -1074.8978    3345.3904   -6792.6505    2097.0761    1059.0889    0.4119931 0.0026955527 0.0084338751 
 1436000    287.48829    -1073.667    5533.9542   -7660.1873   -2468.4812   -1039.4473   0.41201777 0.0027009452 0.0084292819 
 1438000    278.08297   -1074.3176    3615.2754   -8334.1015     2838.271   -277.49004    0.4120027 0.0027066072 0.0084193898 
 1440000    265.67654   -1074.7134    365.09367   -9284.8928   -1601.1565   -721.99683   0.41210985 0.0027101683 0.0084106441 
 1442000    291.57857   -1073.8022    3583.7794   -11681.271   -1306.3788   -799.10731   0.41215691 0.0027064444 0.0084037791 
 1444000    303.83569   -1074.2358    797.58019   -5545.7202   -554.28946   -4640.2275   0.41233139 0.0027041486 0.0084016767 
 1446000    292.44744   -1074.2736   -3181.9758   -9527.4401    2404.0091   -633.68677   0.41242423 0.0027021759  0.008405265 
 1448000    310.82299    -1074.042     3051.293   -7260.3972    2627.9753   -2733.4304   0.41255959 0.0027024533 0.0083936138 
 1450000    286.52823   -1074.0099     3475.474   -9603.4806    708.77499    1076.9029   0.41255724 0.0027091919 0.0083816963 
 1452000    321.72242   -1074.1762     4100.517   -8761.8462    2796.6653   -662.78941    0.4125003 0.0027154727 0.0083732795 
 1454000    262.49196   -1073.7386    5019.1628    -7747.896   -1296.8078    -538.8964   0.41249748 0.0027195815 0.0083716936 
 1456000    305.39519   -1074.1784    1884.8212   -8940.5239    1328.6508   -1952.5088   0.41249125 0.0027158667 0.0083628384 
 1458000    348.19322   -1074.3441    1365.0151   -8921.8536    1147.1448    2431.7893   0.41253313 0.0027121128 0.0083608152 
 1460000    325.09561   -1074.0726    1098.7282   -7662.1999     102.9554   -1270.7624    0.4126847 0.0027084522 0.0083479689 
 1462000    276.16605   -1073.5904    3233.7965   -7290.8701    193.61432   -4622.4657   0.41275134 0.0027054788 0.0083431518 
 1464000    259.61214   -1073.9468   -230.84144   -6725.9783    558.25386   -823.10694   0.41273423 0.0027045471   0.00834413 
 1466000    312.19126   -1073.9833    1424.3805   -9109.6538   -2784.2785   -143.80582   0.41266094 0.0027068471  0.008333551 
 1468000    301.76834   -1074.0812    5507.9209   -6207.8253   -314.16217   -134.05642   0.41267081 0.0027065149 0.0083223416 
 1470000    315.79155   -1074.9275    1499.5239   -6063.8988    1917.9651   -522.02198   0.41261689 0.0027023972 0.0083139377 
 1472000    265.49583   -1074.3154     5372.324   -9573.8469    1395.5457     1828.759   0.41267585 0.0026983813 0.0083117009 
 1474000    312.28493   -1073.7964    674.26651   -5463.0518   -214.01294   -86.997646   0.41280512 0.0026950488 0.0083085363 
 1476000     272.5519   -1074.3065    7329.3606   -8270.1773   -681.81878    575.96144   0.41302716 0.0026918297 0.0083050171 
 1478000    293.82944   -1074.1475       393.38   -7899.0848    4668.5622   -414.35411   0.41310975 0.0026938486 0.0082933467 
 1480000    262.96818   -1074.3647    4529.6048   -7472.5674   -2166.2818   -572.79112   0.41319254  0.002693897 0.0082854814 
 1482000    312.67032   -1074.3491    902.64692   -7734.7093   -749.79806    414.76038   0.41316409 0.0026917424 0.0082776722 
 1484000    302.46131    -1074.816   -1761.1451   -7680.8734    438.17802   -3754.4434    0.4131744 0.0026886487 0.0082917726 
 1486000    312.52266   -1074.5512   -729.27866   -9415.6949    2176.1226   -1861.4247   0.41320062 0.0026868025 0.0082862958 
 1488000    263.02606   -1074.6453    5718.7343   -9771.4898   -3303.8792    157.66539   0.41318349 0.0026858389 0.0082760111 
 1490000    284.75601   -1074.7316    2075.4973   -7955.6455    1542.7671    1443.9382   0.41332633 0.0026856258 0.0082662953 
 1492000    283.53395   -1074.2141    83.025262    -7474.491   -1581.8221    -713.9565   0.41334118 0.0026875486 0.0082656141 
 1494000    291.85144   -1074.7393    1064.5102   -10678.474    65.926308    505.56119   0.41337077 0.0026826074 0.0082622263 
 1496000    317.53939   -1073.7961    4757.0648   -8581.9957   -492.74391   -1884.7969   0.41343821 0.0026791049 0.0082514293 
 1498000     289.1183   -1073.3257   -1015.8806   -6363.6668    1894.1209     2873.772   0.41341396 0.0026757532  0.008243873 
 1500000    304.88759   -1073.4621     1155.982   -8184.9764   -1638.7376   -2022.7759   0.41340208 0.0026727261 0.0082430589 
 1502000    323.71479   -1074.0376   -2156.2621   -10481.036   -2268.3331    60.292628   0.41350077 0.0026683637 0.0082478881 
 1504000    290.88021   -1074.4844    3520.0704   -10729.757   -2584.7602    2988.1257   0.41365963  0.002665033 0.0082489055 
 1506000    265.15163   -1073.6666     345.3351   -8685.0612     309.4106   -476.83389   0.41366519 0.0026622859 0.0082378157 
 1508000    290.85733   -1074.3658    2899.3229   -8069.8687   -554.40028   -161.77452   0.41367516 0.0026771948  0.008228127 
 1510000    303.65404   -1073.9245    2862.4373   -7316.7105    3928.7972    957.04866   0.41371328 0.0026700623 0.0082178968 
 1512000    333.73174   -1074.9269    5008.2428   -6004.1089   -1292.2638   -2088.5306    0.4137845 0.0026652446 0.0082072059 
 1514000    282.86559   -1074.2124    1157.3113    -7402.099    2050.4657   -3302.7325    0.4138203 0.0026618212  0.008223063 
 1516000    305.30307    -1073.679    6336.8268   -8774.3967     65.89427   -1510.4162   0.41390593 0.0026586249 0.0082201839 
 1518000    283.02063   -1074.3706     2163.731   -6386.7789    1321.3507    676.40102   0.41398141 0.0026560807 0.0082224206 
 1520000    253.41596   -1074.2149    2478.5615   -6774.6415    2988.4967   -217.06967   0.41400006 0.0026536494 0.0082098074 
 1522000    273.21128    -1074.609    7315.6934   -9218.8156    138.92055     -296.929   0.41395246 0.0026688796 0.0082024003 
 1524000    269.33218   -1074.2881    2535.0224   -9845.1072   -1786.1276    445.78943   0.41416012 0.0026642496 0.0081894788 
 1526000     303.2619   -1074.2382    1328.1442   -6155.0664    110.19322   -674.46186    0.4142527 0.0026609144 0.0081810643 
 1528000    284.70642   -1073.2435    491.56312   -9519.8527   -679.05603    1222.0381   0.41428615 0.0026575196 0.0081702594 
 1530000     285.4092    -1073.639    1767.8462    -6798.319   -1659.9418    73.209531    0.4142983 0.0026564437   0.00816634 
 1532000    330.47208   -1074.6385    5074.6902   -7057.9171   -4486.0912   -3223.6769   0.41428425  0.002655071 0.0081542497 
 1534000    295.72391   -1073.7674    658.03494   -10757.332    1738.9629    93.850756    0.4142342 0.0026570241  0.008148485 
 1536000     285.3726   -1073.8452     5045.755   -9503.4847   -110.05315    1890.4346   0.41440462 0.0026568416 0.0081453268 
 1538000    299.41203   -1075.0644    2312.1902    -6141.098   -484.99931    113.87471   0.41453361 0.0026539011 0.0081344861 
 1540000    312.07969   -1074.2643    1833.1284   -8411.7378    3568.1873   -679.68143   0.41463867 0.0026528231 0.0081294176 
 1542000    289.14384    -1074.103    2026.2832   -6554.4637    2887.3081   -784.95447   0.41463067 0.0026511425  0.008116312 
 1544000    298.74199    -1074.713    2896.0982   -5474.7989   -1441.6682    1976.8344   0.41473031  0.002649962 0.0081059386 
 1546000    282.23618   -1074.1868    2357.7596    -7609.473    4722.8349    -2110.104    0.4147486 0.0026459884 0.0080951857 
 1548000    301.89947   -1074.1781     -2204.81   -8528.9591    2305.8744   -728.55418   0.41475155  0.002644159 0.0080959052 
 1550000    311.88089   -1073.9439    3401.2007   -10377.819    2670.8353    825.68268   0.41476146 0.0026460348 0.0080895263 
 1552000    291.38891   -1074.2891     3428.775   -3386.1583   -996.91303   -1760.0518   0.41476106 0.0026442532 0.0080788562 
 1554000    272.26873   -1074.3628    2934.0545   -8520.5632   -846.04036    1270.2735   0.41478659 0.0026429738 0.0080715898 
 1556000    337.00099   -1074.4011    1730.6687   -6918.5325    430.72104    -1170.878   0.41498285 0.0026392345 0.0080690604 
 1558000    324.70734   -1074.3139    2834.1824   -6591.1485    344.39801   -4131.2393   0.41510735 0.0026365229 0.0080739343 
 1560000    297.97799   -1074.5712    4663.9425   -5111.1392   -1597.4249    1205.2489   0.41514688 0.0026352282 0.0080690676 
 1562000    299.64984   -1074.3328    -75.32046    -7429.183    4881.3393   -1138.6956   0.41506541  0.002639209 0.0080597328 
 1564000    316.87679   -1075.1204    4253.3233   -6799.3509   -693.99942    -2390.846   0.41505719  0.002662083 0.0080492333 
 1566000    317.48695   -1074.0853    2943.0486   -9861.2365   -1294.5513    -350.3994   0.41498449 0.0026599485 0.0080406322 
 1568000    312.90687   -1073.7661    2532.4828   -8002.1604    3812.8302   -4180.9907   0.41507231  0.002657414 0.0080326429 
 1570000    293.82378   -1074.2302    6089.6601   -7257.3023   -2004.3685    93.088707   0.41534878 0.0026526249 0.0080242949 
 1572000    286.19061   -1074.4766    1028.9078   -8515.7247    3964.7643    2476.5986   0.41547171 0.0026494307 0.0080170439 
 1574000    302.09217      -1074.2    2156.4784   -8046.4923   -3376.6756     -760.464   0.41549951 0.0026535262 0.0080162899 
 1576000    297.41036   -1074.0641    4929.9091   -5537.0515    1999.7999    307.95695   0.41549277 0.0026532436 0.0080135481 
 1578000    304.39724   -1074.1175    703.15656   -10585.144    267.94712   -2239.5862   0.41545745 0.0026580158 0.0080057672 
 1580000    270.20433    -1073.653     1405.349   -5857.6769    1082.1072   -2749.7815   0.41553482 0.0026562405 0.0080021657 
 1582000    292.54626    -1074.151    1951.0451   -5301.1154    -2197.528    950.49234   0.41552284  0.002654576 0.0079943382 
 1584000    269.77542   -1074.9632    444.82892    -8747.549   -490.46714   -2511.7311   0.41547927 0.0026511132 0.0079837904 
 1586000    306.02003   -1073.9576    2276.0948    -11239.98    -2765.214    2139.6043   0.41555398 0.0026484762 0.0079914994 
 1588000     282.0652   -1074.0388    3833.3146   -5738.8621   -2005.3937    996.81254   0.41577389 0.0026452363 0.0079807664 
 1590000    284.00421   -1074.6434    6998.7851   -8504.6273    2246.4697   -544.93285   0.41588133 0.0026434012 0.0079752619 
 1592000    270.65593   -1074.3002    2556.2132   -7792.9623    1658.3877    313.70628   0.41586238 0.0026412396 0.0079702573 
 1594000    285.41692   -1074.2126    1629.5768   -4340.6174    326.97259   -4099.6687   0.41583711 0.0026427664 0.0079624588 
 1596000    318.91853   -1073.5546    3213.9887   -9107.6611   -1949.4391    -2172.469   0.41577387 0.0026426674 0.0079555289 
 1598000    350.22579   -1074.0828    1175.5645   -9558.9294   -806.04593   -1264.6683   0.41594194 0.0026404309 0.0079489345 
 1600000    296.49523   -1074.2904    1840.7047    -6445.009    356.64781    -229.8733   0.41613605  0.002635165  0.007952831 
 1602000    310.94967   -1075.0287    4786.9625   -8642.7066   -912.04824   -154.35436   0.41629331 0.0026309245  0.007944463 
 1604000    316.85538   -1074.1081    3402.2376   -8436.3735   -256.83444   -486.56779   0.41630027 0.0026327496 0.0079344451 
 1606000    275.00573   -1074.5353    1207.1473   -6059.3504    -2035.451   -2829.4787   0.41631323 0.0026399799 0.0079261002 
 1608000    323.17894   -1074.4683    4351.2353   -5141.5629   -744.22442   -3138.9117   0.41628977 0.0026366663 0.0079217394 
 1610000    293.47754   -1073.7528    4249.2898   -10028.707   -2013.0936     251.7429   0.41635534 0.0026327102  0.007924811 
 1612000    324.25468   -1073.9702    4019.3455   -5012.8709    1813.4064    1765.8168   0.41645598 0.0026351018 0.0079189811 
 1614000    264.22993   -1073.5778    1286.1365   -10946.119    473.05463   -582.58348   0.41638609 0.0026336918 0.0079111977 
 1616000    281.87401   -1074.4203    2379.2873   -6495.8337   -1655.8328   -4251.8247   0.41648201 0.0026302003 0.0079011315 
 1618000    306.17934   -1074.5212    2219.6063    -6653.727   -1725.6843   -2954.2146   0.41653983 0.0026243163 0.0079018929 
 1620000    327.09035   -1074.1487    602.72144   -10223.703   -998.08642   -134.92824   0.41660161 0.0026222344 0.0078997576 
 1622000    307.71826   -1074.4838    2856.6088    -7374.246   -922.54255    -1245.958   0.41671484 0.0026226522 0.0078931982 
 1624000    295.10522   -1074.6045   -74.223206   -10108.413    1395.0851    586.18156   0.41679958 0.0026189101 0.0078839764 
 1626000    301.76912   -1074.5607    4123.8187   -7434.4459    1081.3856    2541.0651   0.41688816 0.0026248157 0.0078872781 
 1628000    280.24289   -1074.2456    762.51241    -10367.36   -168.98251    1037.6718   0.41700499 0.0026215611 0.0078785043 
 1630000    296.51746   -1073.9435    265.72212    -5936.399    2049.2462    3203.9515   0.41708931 0.0026187635 0.0078678449 
 1632000    313.47793   -1074.0323   -2305.2018   -9796.9474   -1181.8765   -810.39591   0.41707375 0.0026173116 0.0078634297 
 1634000    285.88046   -1074.1467    2648.2556   -6906.5925    362.18003   -976.23719   0.41706205 0.0026172065 0.0078619904 
 1636000    300.87264    -1075.036     2298.203   -8415.8501    1660.6192   -2233.1676   0.41707117 0.0026177293 0.0078627949 
 1638000    311.67449   -1074.0056    4358.0896   -5873.7133     4410.932    2465.0905   0.41705955  0.002624091 0.0078660977 
 1640000    288.65567   -1074.6762    3367.4866   -5634.2385    828.62646    1339.1739   0.41707982 0.0026352702 0.0078566455 
 1642000    311.92171   -1074.5707    2355.4801   -7396.4733     1382.193    -2613.946   0.41721352 0.0026334976 0.0078477088 
 1644000    310.52532    -1073.832    2699.3951   -8536.8034    1493.3793   -1768.4732   0.41727893 0.0026372355 0.0078515158 
 1646000     272.6152   -1074.3594    1640.6885   -8110.7481    1327.4739   -495.35754    0.4173371 0.0026356095 0.0078546817 
 1648000    302.73817   -1074.1054   -285.41014   -6468.5045   -436.07844   -1932.1373   0.41737563  0.002632955 0.0078507051 
 1650000    270.25303   -1074.0765    1024.5197   -7360.1473    2094.5002    1139.5245   0.41732459 0.0026322592 0.0078463784 
 1652000    318.88989   -1073.6846    5709.6199   -5052.4395    -3395.716   -2027.8595   0.41737186 0.0026308534 0.0078362418 
 1654000    282.71015   -1074.6807     4051.522   -10147.355     1763.239   -814.75374   0.41739126 0.0026355871 0.0078297156 
 1656000    314.68877    -1074.944    2941.9939    -9767.455    810.66268   -497.21343   0.41736536 0.0026304043 0.0078220837 
 1658000    265.75254   -1073.7547    3777.5643   -9300.0047   -996.24287    -70.78687   0.41752307 0.0026276479 0.0078272652 
 1660000    329.09315   -1074.0649     2165.411   -8465.1149   -2493.7679   -3701.7489   0.41764702 0.0026248917  0.007825161 
 1662000    264.93221   -1074.3764    1652.9847    -7701.574    84.940143    2454.4883   0.41768664 0.0026229858 0.0078253743 
 1664000    318.98602   -1074.1904    1640.0339   -5386.7317    1680.9662   -4458.1271   0.41767675 0.0026290801 0.0078161823 
 1666000    300.49404    -1073.884    3092.9061   -7804.0924     1754.784    1284.2463   0.41765981 0.0026453853 0.0078083897 
 1668000    308.75921   -1074.3318     3237.947   -8546.9115   -971.25943    651.33253   0.41762305  0.002641633 0.0078035787 
 1670000    258.99997   -1074.3058   -406.29044   -8820.5796   -1407.6387   -2874.5999   0.41768586 0.0026387694  0.007805752 
 1672000    271.23036   -1073.6051     2777.879   -7060.2435   -1129.2272    147.01835   0.41780694 0.0026381307 0.0078040306 
 1674000    328.81299   -1074.1546    3834.9276   -8382.3371   -2067.8579   -918.61782   0.41781829 0.0026342957 0.0077959071 
 1676000    278.40077   -1074.0171    2667.5461   -8687.5778    1131.5407    896.98339   0.41787611 0.0026341347 0.0077864325 
 1678000    304.93277    -1074.323    375.29523   -6579.2866    3989.6949   -311.88987   0.41787517 0.0026501284 0.0077797411 
 1680000     318.0948   -1074.0472    7159.8488   -11326.942    897.74968   -207.49009   0.41790183 0.0026478744 0.0077795697 
 1682000    315.55203   -1074.5257    4263.9949   -8636.7065    1798.9126    998.93383   0.41804284 0.0026448165 0.0077765855 
 1684000    327.05807   -1074.0038    572.36681   -6114.0911    2295.5663   -1639.0248   0.41809528 0.0026417588 0.0077727415 
 1686000     283.3506   -1074.3327     793.9788   -8392.9654   -1107.1702   -2892.9816   0.41801946 0.0026399137 0.0077672864 
 1688000     304.5043   -1074.8451     2854.243   -9396.8716   -2054.9314    480.25205   0.41805217 0.0026410487 0.0077580461 
 1690000    291.61488   -1074.5318    652.01935   -10408.603    3468.8714    2379.2486   0.41815769 0.0026363298 0.0077500854 
 1692000    289.75851   -1074.6578    1850.5155   -7682.6808   -114.96577   -404.77488   0.41824248  0.002635268 0.0077461531 
 1694000    315.40081    -1073.951    2710.8553   -8140.0415    1229.8505   -544.69314   0.41835314 0.0026359284 0.0077439598 
 1696000    302.77265   -1074.4046    531.89372   -5824.3333   -1330.3506    -2738.646   0.41837263 0.0026362527  0.007735661 
 1698000    295.32315   -1073.6331    2632.4708   -7618.0014    427.51496    1572.2085   0.41830025 0.0026347992 0.0077274025 
 1700000    304.91371    -1074.797    5256.7235   -5978.2054   -1907.4114   -1834.4387   0.41834091 0.0026365785 0.0077254858 
 1702000    306.24646   -1074.1041    4428.8857   -7273.2983    4137.8423   -1173.4231   0.41841741 0.0026323631   0.00772019 
 1704000    324.33074    -1074.952    2486.6039   -6694.3367    1126.5396   -1607.6797    0.4184474 0.0026297246 0.0077126049 
 1706000    289.27335   -1074.1576    2890.1433    -7627.887    5130.8456    1612.2538   0.41849882 0.0026305545 0.0077125723 
 1708000    276.23674   -1073.5316    4704.2446   -8547.2945    951.54012    3388.4387   0.41853476 0.0026317417  0.007707722 
 1710000    280.82925   -1074.4894    4935.4217   -8544.4021    838.23853   -3349.8872   0.41859911 0.0026276289 0.0077011988 
 1712000    299.95124   -1074.4101    3412.4273   -9135.5415   -770.55827    -2390.181   0.41868526 0.0026239103 0.0076974067 
 1714000    312.58029   -1073.9539    1255.8069   -8698.6048    1291.3441   -216.91269   0.41878229 0.0026204173 0.0076933346 
 1716000    281.51282   -1075.1328    2913.2541   -5327.5813   -946.94824   -1553.6381   0.41887393 0.0026181147  0.007692912 
 1718000     306.6633    -1073.688    4152.1702   -7700.9249    354.71786    2775.5081   0.41888629 0.0026148745 0.0076848772 
 1720000    289.68876   -1074.0688    4049.5308   -6765.1091    323.48791   -1875.5141   0.41890302 0.0026288589 0.0076785796 
 1722000    304.51381   -1073.9467    2385.3337   -8969.6708   -1470.6819    3901.1928   0.41890054 0.0026357332 0.0076706324 
 1724000    265.13595   -1074.2776    4747.9552   -10315.266   -558.64136    2281.2901   0.41899424 0.0026302832 0.0076684347 
 1726000     276.2344   -1073.8718    461.79747   -9273.6131    1514.7658   -1043.7702   0.41902595 0.0026278321 0.0076665495 
 1728000    310.20127   -1073.8824    2978.6586   -8004.8415    -1702.799   -4607.3941   0.41911955 0.0026249663 0.0076581588 
 1730000    282.85656   -1074.0799    6011.3026   -6383.8183   -1583.5177   -1115.9648   0.41917646  0.002622746 0.0076544356 
 1732000    282.92783   -1074.5118    3157.4421   -8815.5557   -1231.9851    900.52179   0.41925989 0.0026195565 0.0076489282 
 1734000    301.08907   -1073.8558    4371.6015   -9092.2838    566.38772    3338.2109    0.4193406 0.0026183678 0.0076430829 
 1736000     291.3665   -1073.4163    4225.5217    -6763.054    2233.3225   -791.58392   0.41939707 0.0026157256 0.0076426929 
 1738000    295.20745   -1074.1759    5778.4156   -8724.4254   -1461.0931    1500.5409   0.41943373 0.0026191762 0.0076359949 
 1740000    293.61767   -1073.9178   -531.96125   -5548.1261   -265.60658   -642.69928   0.41943468 0.0026219772 0.0076297636 
 1742000    302.17172   -1073.9997     3830.564   -7373.1298   -630.17744   -1590.5555   0.41936855 0.0026244593 0.0076214193 
 1744000    318.16714   -1075.1213    3729.9139   -5403.9863   -54.817542   -3136.6944   0.41936828 0.0026238655 0.0076155118 
 1746000    296.47244   -1074.4162    3734.1287   -8802.1477   -997.57048   -3497.4628   0.41934415 0.0026272893 0.0076130882 
 1748000    294.96037   -1074.0842    4753.0325   -14746.402   -3049.6378    2309.5386   0.41946785 0.0026241581   0.00762346 
 1750000     250.7065   -1074.2538    2049.7283   -10761.025   -882.86972     1371.678   0.41965327 0.0026230289 0.0076160084 
 1752000    303.11456   -1074.3963    3673.8862   -6349.8504    3201.7351   -4682.1696   0.41976109 0.0026207802 0.0076094492 
 1754000    293.46986   -1075.0384    5384.3747   -5064.5876   -2567.6201   -3982.2968   0.41980307  0.002618617 0.0076128986 
 1756000    304.71745    -1073.347    2246.1972   -7510.3013    1747.8384    1242.8631   0.41980958 0.0026157616 0.0076063306 
 1758000    323.88444   -1073.9042    1696.7469   -6658.6895   -1003.6492    695.22978   0.41982136 0.0026189293 0.0075986628 
 1760000    340.36302   -1074.4548    3208.5514   -6947.8163    2353.2509   -282.85074    0.4198207 0.0026175808 0.0076007085 
 1762000    296.08127   -1073.9781    3528.9039   -7834.1189   -1277.7268   -613.01494   0.41986111 0.0026203422 0.0076052735 
 1764000    310.91946   -1074.5594    3428.4718   -5564.1854    926.11057   -899.06543   0.41992633 0.0026214398 0.0076065291 
 1766000    278.41666   -1074.2212    3674.1473   -6481.3804    469.27473   -839.03514   0.41999071 0.0026179327 0.0076047635 
 1768000    287.83132   -1074.2958    971.34665   -6282.0115    3519.0674    320.58726   0.42006716 0.0026154436 0.0075957336 
 1770000    298.76264   -1073.4342    5239.7375    -10189.64   -929.78338   -668.85005   0.42015941 0.0026139739 0.0075890069 
 1772000    268.61821   -1074.1518    2318.1933   -5035.9854    2016.1986    920.88062   0.42033301 0.0026106444 0.0075827304 
 1774000    328.82287    -1074.376    4369.3701   -4840.1985    1009.9386     282.3714   0.42044458 0.0026081763 0.0075784057 
 1776000    324.65289   -1074.3887    1405.1828     -11070.1   -123.98886   -598.40845   0.42055079 0.0026090265 0.0075754988 
 1778000    306.70771   -1074.0713    2781.3987    -2497.847   -1250.5959    1887.9721   0.42062817 0.0026083848 0.0075744315 
 1780000    302.07144   -1074.0836    1728.3184   -10661.722    1855.5554    583.98032   0.42056783 0.0026068276 0.0075681785 
 1782000    331.66509   -1074.5733    2488.6445   -8899.5874    2059.4168   -100.57629   0.42064724 0.0026098336 0.0075622124 
 1784000    337.72036   -1074.0856    5756.6445   -4048.5991   -612.56633   -1912.8217   0.42068794 0.0026154232 0.0075564613 
 1786000    304.93888   -1074.3202    4326.8725   -7249.9488    847.59219    265.46807    0.4207351 0.0026115037 0.0075529507 
 1788000    292.64215   -1074.6711    4807.3476   -8365.6041    1158.6618    890.89005   0.42076708 0.0026103816 0.0075503524 
 1790000    333.20309    -1073.907    3325.6138   -5759.4746   -1029.6215    91.100409   0.42080077 0.0026150781 0.0075494683 
 1792000    298.14047   -1074.8592    5143.1188   -8138.6445   -2749.0764    198.33751   0.42081415 0.0026115218 0.0075430566 
 1794000    306.98448   -1074.6216    5306.6232   -10699.174    3488.8151    1675.3128   0.42089574 0.0026080774  0.007544072 
 1796000    298.04978   -1074.2183    3979.2519   -5440.4454   -1182.4398   -2551.0587   0.42097905 0.0026104888 0.0075324975 
 1798000    314.37865   -1074.3422    1035.4968   -8897.7886    1520.6194     2891.846   0.42095185  0.002607461 0.0075320468 
 1800000    287.11918   -1074.4528    243.08141   -7784.2994   -346.40853   -1309.2527   0.42099941 0.0026111661  0.007529161 
 1802000     308.3911   -1074.3983    2735.0648   -8370.4993   -2941.3025   -1127.0399   0.42112745 0.0026094413 0.0075258188 
 1804000    312.98364   -1073.6769    1803.4281   -9740.1854    804.30986    1046.8288   0.42116746 0.0026083946 0.0075318414 
 1806000    310.17374   -1074.2465    3832.6076   -11008.676   -720.02705   -739.07896   0.42124619 0.0026063341 0.0075235595 
 1808000    321.73739   -1073.9678    1488.9963   -7128.6792   -3158.3768   -2533.0523   0.42129406 0.0026033498 0.0075152877 
 1810000    324.12492   -1074.3223    3806.3254   -8568.6065    904.27267     959.1041   0.42126186 0.0026008687 0.0075079074 
 1812000    307.50845   -1074.4619    4594.6877   -8451.4075    2264.1098   -4427.5118   0.42128937 0.0026016042 0.0075193165 
 1814000    307.98078   -1074.3498     448.0102   -5613.1322    3255.3984   -149.60482   0.42128264 0.0026008142 0.0075217075 
 1816000    333.93908   -1074.2877    1559.7223   -6621.2323    2568.7779   -1119.9467   0.42133122 0.0025993567 0.0075184684 
 1818000    313.49447   -1073.3098    2246.4901   -10224.263    3041.4573   -1871.2332   0.42143571 0.0026025663 0.0075129415 
 1820000     287.5537   -1074.4965    6407.5793   -8295.9341    875.93346   -712.16574   0.42145833 0.0026055443 0.0075072443 
 1822000     296.8333   -1074.2859   -2605.8375   -9242.8071    1896.9695   -1908.5942   0.42159042 0.0026076752 0.0075124747 
 1824000    356.33599   -1074.4539    8473.3745   -7323.8372   -323.38091   -1224.4688   0.42169209  0.002605205 0.0075100732 
 1826000    295.87695   -1074.6618    2057.2825   -6431.3654   -6.2789975   -2390.2578    0.4217354 0.0026030092 0.0075107726 
 1828000     328.0867    -1073.381    4484.8363   -9868.9189   -455.68237   -3148.3317   0.42161815 0.0026061567 0.0075080203 
 1830000    314.10737   -1074.3643    4262.7661   -7653.1591   -1551.4496    1105.8161   0.42158673 0.0026142216 0.0075065088 
 1832000    281.68519   -1074.3954    5203.7855   -8184.1269   -2300.0955   -4320.3949   0.42157882 0.0026127279 0.0074990611 
 1834000    295.26841   -1074.6392    2684.6796   -5386.4458     3035.948    1555.5073    0.4216125 0.0026105707 0.0074969574 
 1836000    303.21244    -1074.272    2324.3456   -9839.5638    3138.9589    21.104042   0.42169565 0.0026083629 0.0074874839 
 1838000    305.28576    -1073.937    1486.2916   -8564.8736    1287.8358   -3046.5031   0.42180643 0.0026067962 0.0074852615 
 1840000    336.41118   -1074.7785    4257.8647   -9158.5245   -2297.6861    1999.9636   0.42187027 0.0026039409  0.007487077 
 1842000    289.43463   -1073.1466    4838.3207   -7591.1915    -3135.084   -4138.5051   0.42197115 0.0026007248 0.0074875339 
 1844000    305.49516   -1074.4275    1192.4109   -8933.5026   -2757.1399    2185.3044   0.42209826 0.0025974353 0.0074965869 
 1846000     293.0054   -1074.1333    5462.1038   -7287.5184    2607.1488    106.99717   0.42220948 0.0025976253 0.0074969539 
 1848000    284.70883   -1074.3932     529.7389   -7398.1358    1504.5897    1667.8063   0.42234162 0.0025958219 0.0074939558 
 1850000    305.41807   -1074.7046    3931.1947   -6935.1813    310.24987    -740.2237   0.42237795 0.0025968725 0.0074919832 
 1852000    316.11167   -1073.9395    -408.9182   -7857.4518    1675.6172   -2470.0507   0.42241002 0.0025971163 0.0075015687 
 1854000    289.82588   -1074.3882   -1502.0581   -3496.6941     3055.033    112.52965   0.42237941  0.002599271 0.0075093954 
 1856000    293.23544   -1073.8904    3762.0027   -9278.4771   -721.06723   -465.79044   0.42231544  0.002608224 0.0075000681 
 1858000    283.72761   -1074.0887    4029.0847    -7904.701   -630.69692    1662.3666   0.42232405 0.0026092765 0.0074921128 
 1860000    313.97373   -1074.0173    3086.0345    -6089.965   -1822.9311    1077.0903   0.42237715 0.0026068233 0.0074848919 
 1862000    305.18991   -1073.5634    3096.6093    -8637.762   -625.82176    1012.3704   0.42252109 0.0026100916 0.0074792816 
 1864000    304.22235   -1073.6383    2797.6443   -11788.756   -16.345522   -610.25984   0.42269776 0.0026066368 0.0074958552 
 1866000    275.92904    -1074.377    2453.3864   -9533.6115    140.69385   -310.99201   0.42288605 0.0026058549 0.0074992186 
 1868000    309.49448   -1074.7222    3817.6425   -8597.6142   -736.59219   -1826.1137   0.42300378 0.0026048558 0.0075093539 
 1870000    279.05963   -1074.3905    2377.6008   -10028.635   -1348.3474   -1078.7356   0.42307404  0.002603703 0.0075142823 
 1872000     263.8397   -1074.6791    2653.7673   -8894.7882   -3245.8135   -2508.0519   0.42307402 0.0026047117 0.0075082961 
 1874000    327.27526    -1073.884    3036.4819   -8867.6423    1078.8612    593.03041   0.42310599 0.0026072263 0.0075007059 
 1876000    301.00183   -1074.9552    2802.3433    -6206.078    598.54537    662.16274   0.42317465 0.0026084108 0.0074942533 
 1878000    293.87319   -1073.9094   -317.61349   -5993.3092     2774.192   -1677.0745   0.42311932 0.0026100787 0.0074963408 
 1880000    300.91925   -1074.5162     1573.811   -8449.9536   -1939.9645      732.703   0.42309131 0.0026104697 0.0074961791 
 1882000     266.4521   -1074.2393    2789.7454   -8628.7721    -241.9044   -298.34403   0.42311114 0.0026072741  0.007488317 
 1884000    290.14705   -1074.0593    384.99113   -6197.5603   -222.10205    74.059791   0.42310237 0.0026075049 0.0074926442 
 1886000    305.04458   -1074.2697    4813.8114   -8696.0275   -2141.1704   -1044.7881   0.42311935 0.0026182615  0.007484661 
 1888000    305.36413   -1073.9426    4027.9488    -10487.79    586.50204    555.75379   0.42312771 0.0026174912 0.0074850537 
 1890000    272.92019   -1074.2658    4826.3999   -10404.067   -1515.1753   -742.59792   0.42321824 0.0026148565 0.0074772016 
 1892000    316.07436   -1074.2179    3062.7989   -8731.5709    2084.3649   -554.78658   0.42333013 0.0026127124 0.0074749135 
 1894000     287.8531   -1074.7425     5923.527   -4608.5587   -2556.1275    43.120873   0.42340011 0.0026142904 0.0074751662 
 1896000    283.38971   -1074.3584   -2286.0199   -7472.8885     2421.051   -3546.4515   0.42338257 0.0026116582 0.0074684655 
 1898000    280.86294   -1073.6516    2092.7012   -7186.6158   -512.64911   -88.518601   0.42343457 0.0026110991 0.0074676613 
 1900000    289.68186    -1074.677    4225.7344   -8430.5184    943.19545   -1352.7261   0.42346776 0.0026183083 0.0074624483 
 1902000     288.2057    -1074.975    2149.5411   -7854.0345   -1065.8894    2988.4647   0.42346414 0.0026234982 0.0074547177 
 1904000    252.81778   -1074.4012   -413.21178   -8441.2878     2428.235   -2076.8868   0.42341548  0.002622332 0.0074485101 
 1906000    303.67971   -1073.9014    3622.2509   -7059.4399   -997.96334   -1605.1064    0.4234635 0.0026226481 0.0074458247 
 1908000     301.8456   -1073.9355    768.14553   -11019.361   -671.70494    2673.5916   0.42351093 0.0026197056 0.0074433073 
 1910000    289.96528   -1074.4109    684.32415   -8516.7727   -164.35674   -1354.8771   0.42364693 0.0026188055 0.0074394372 
 1912000    291.37529   -1074.1897    5736.5952   -8530.8602   -1226.8698    1518.2713   0.42371582 0.0026217513  0.007434854 
 1914000    314.79375   -1074.7049    3997.3177   -6203.4668    1072.4142    1092.2294   0.42369006  0.002626065 0.0074346072 
 1916000     304.6727   -1073.7693    3581.6356   -9807.6308    926.20606   -2201.2395   0.42371544 0.0026256683 0.0074315717 
 1918000    317.65102   -1074.3712    1670.7955   -6745.9091   -1842.1211    1577.3936   0.42382634 0.0026231877 0.0074269147 
 1920000    273.18186   -1074.3431   -753.42496   -8988.3585   -2251.9492   -1575.2583   0.42380412 0.0026202351 0.0074200214 
 1922000     287.3282   -1074.0929   -153.32818     -7800.51    304.48394   -66.236722   0.42376036 0.0026176985 0.0074175811 
 1924000    311.58995   -1074.0655   -1898.3756   -4805.4384    -1336.342   -6076.0521   0.42379047  0.002621042 0.0074110201 
 1926000    285.81177   -1074.4535    4830.4482   -7498.3459   -1714.2941     2072.994   0.42382948 0.0026220588 0.0074118471 
 1928000    323.98181    -1074.386    2583.7485    -10344.77   -965.06731    4086.4215   0.42391253 0.0026195917 0.0074070838 
 1930000    339.03876   -1074.0726    -2136.568   -7816.0828    971.11869    211.41594   0.42397933 0.0026179823 0.0074001942 
 1932000    308.66864    -1073.817    2973.6203    -8273.596    1064.6335   -1818.9915   0.42399477 0.0026177191 0.0073962042 
 1934000    310.27392   -1074.5545     799.6225   -8324.9113    2392.6983   -317.71718   0.42406142 0.0026176231  0.007394917 
 1936000    283.41999   -1074.2995    3206.2854   -11447.989    1919.7096    2464.9902   0.42416025 0.0026148774 0.0073884176 
 1938000    299.78449   -1074.7427    1708.5353   -7934.0358    2408.3494   -1314.1205   0.42416803 0.0026139068 0.0073852792 
 1940000    287.15841   -1073.9619    3048.8334   -7564.7097     1011.487    1149.7197    0.4242042 0.0026133017 0.0073827498 
 1942000    311.54278   -1074.2191    70.856436   -8233.7141    3231.1284   -1185.1514   0.42415899 0.0026188662 0.0073769597 
 1944000    327.73568   -1073.8623    60.223401   -5980.8713    1359.9594   -3874.4886   0.42410655  0.002617615 0.0073723124 
 1946000    295.11682   -1074.5574    408.60061   -10049.339   -1408.5461   -2681.3959   0.42405112 0.0026196232 0.0073725832 
 1948000     285.4065   -1074.3483    2511.7656   -7683.9123   -6389.4479   -2045.7825   0.42414385 0.0026161836 0.0073724261 
 1950000    318.08156   -1073.6287    40.426341   -9110.8108     569.4224   -2729.0737   0.42425585 0.0026170719 0.0073656091 
 1952000    304.89901   -1074.1156    7393.6977   -7080.4638   -2380.3243    2226.1215   0.42433653 0.0026137461 0.0073605887 
 1954000    322.13312   -1074.8638    4251.5665   -8923.4486     640.8927   -1204.3499   0.42438253 0.0026115782 0.0073581677 
 1956000    309.66078   -1074.0052    402.16369   -8556.1988    2985.4924   -109.95844   0.42441179 0.0026133493 0.0073528365 
 1958000    316.72369   -1073.8846    3957.7379   -8993.4878   -800.12371    2856.1585   0.42446683 0.0026108544  0.007350604 
 1960000     327.7495   -1074.2207    6861.3391   -7585.0066     3345.364   -2359.3896    0.4244947 0.0026121045 0.0073424593 
 1962000    315.37965   -1074.0216    3305.1927   -6317.4408    786.08208   -750.65908   0.42450581 0.0026094171 0.0073361652 
 1964000    287.27995   -1074.8875    1029.5857   -9484.3873    504.80394   -2316.9612    0.4244828 0.0026074829 0.0073334393 
 1966000    273.83821   -1073.9149    3441.6431   -8401.6603    981.83599    414.31367   0.42459721 0.0026068202 0.0073312399 
 1968000    262.18767   -1073.7873    2463.0736   -8821.7546    1445.6305   -1011.9665     0.424706 0.0026057791 0.0073268749 
 1970000    307.91804   -1074.1479   -732.43724   -7123.3421    5142.2419    -150.7402   0.42474357  0.002614166 0.0073198736 
 1972000     245.2787   -1074.7303     3818.115   -6974.1423   -516.12738    512.59314   0.42469752 0.0026245389 0.0073158764 
 1974000      293.968   -1074.1957    4214.1806   -6447.8211    1524.3432    2982.3706   0.42466342 0.0026300429 0.0073126988 
 1976000    287.77013   -1074.1594   -107.64961    -10351.22   -2435.4338    3399.9683   0.42465762 0.0026282654 0.0073086493 
 1978000       280.99   -1073.9615    6295.7055   -6761.0993    3171.8527   -1366.3553   0.42469509 0.0026266527 0.0073032903 
 1980000    305.71959   -1074.3667    8001.5077   -5754.6403    113.75387    -1373.785   0.42476179 0.0026237278 0.0073041486 
 1982000    287.83002   -1074.8769    4684.7902   -9012.5458   -911.34275   -812.72066   0.42488733 0.0026235841   0.00729651 
 1984000    309.64413   -1074.3574    4056.2023   -6142.7392    472.97423   -2062.0836   0.42498285 0.0026219817 0.0072889331 
 1986000    281.18321   -1074.2439    581.85508   -6481.1918    1878.5327    580.21645   0.42496811 0.0026240242 0.0072880945 
 1988000    316.93284   -1074.2121     4536.586   -8522.1314    2344.1122   -1622.9735   0.42488292  0.002631115 0.0072811941 
 1990000    290.76411    -1074.904    1333.5992   -5087.8955     1958.462   -99.942832   0.42480251 0.0026299925 0.0072759743 
 1992000    304.44145   -1074.2468    589.16491   -6887.8064    983.43527   -1308.2361   0.42478704 0.0026301918 0.0072701976 
 1994000    341.77269   -1074.8288    -364.1506   -8287.0617     1989.855   -2498.6418   0.42482137 0.0026281923 0.0072639149 
 1996000    304.59061   -1073.9097    1065.2269   -6392.8162   -931.25802     233.3103   0.42491181 0.0026257227 0.0072637899 
 1998000    289.78696   -1074.2581    875.85569    -6849.132    2840.4022   -531.44584   0.42497477 0.0026237165 0.0072629732 
 2000000    301.87758   -1074.3039    -907.0293   -7909.4248   -941.41419   -735.43275   0.42494075 0.0026212212 0.0072560398 
 2002000    295.89788   -1074.1854    1275.2121   -5561.3876    1048.0976   -3012.8523   0.42489946 0.0026247377 0.0072514427 
 2004000    291.42646   -1074.3933    6743.2902   -6889.9386   -2066.4566    -376.2255   0.42485785 0.0026207734 0.0072593867 
 2006000    312.04043     -1074.95    2121.9196   -6182.6675    4432.9209    1830.4777   0.42490036 0.0026200173 0.0072535211 
 2008000    319.77614   -1073.9858     1568.077   -3054.4407    1374.5252   -4689.6472   0.42493158 0.0026213449 0.0072470647 
 2010000    290.14056   -1074.2675    3176.6653   -7389.7871    2696.1856    1989.7852   0.42494054 0.0026237816 0.0072410857 
 2012000    325.50658   -1074.5998   -2211.4406   -8461.2998    1867.4179   -4817.1544   0.42495421  0.002628895 0.0072353374 
 2014000    299.99668   -1074.5231    2782.4883   -10474.234    -1496.562   -1142.8155   0.42501096 0.0026273059 0.0072389676 
 2016000    308.16912   -1073.6302    3358.8531    -9767.152   -323.46761    -1231.557    0.4251711 0.0026234912 0.0072377094 
 2018000     329.7453   -1074.4197    4254.3211   -8168.7752    2642.3587    -2229.179   0.42526455 0.0026236789  0.007233476 
 2020000    307.22985   -1073.7919   -407.63914   -5606.4509    2124.6424   -1296.9559   0.42522143 0.0026234493 0.0072286502 
 2022000    307.11952   -1074.4279    3231.2761   -8969.3093   -1433.8626     464.8083   0.42506958  0.002636746 0.0072218719 
 2024000     292.6379   -1074.6328    -2.682124   -8475.1522   -5220.5025   -3173.6465   0.42501336 0.0026361596 0.0072148432 
 2026000    265.63208   -1074.0756   -5276.1873   -9507.6364     3231.725    360.66641    0.4250556 0.0026383565 0.0072088871 
 2028000    280.46153   -1073.9597    763.75524    -10882.47    -3322.552   -2795.6612   0.42516144 0.0026364786 0.0072098449 
 2030000    289.86883   -1075.0335   -834.15346   -6715.6907    4784.7111   -2326.3313   0.42525953 0.0026326752 0.0072144551 
 2032000    306.87725   -1073.4165   -911.93759   -5696.7204    1347.4827   -3679.3114   0.42522074 0.0026351126 0.0072120791 
 2034000    284.10751   -1074.6442    1180.6672   -6648.5989    2688.8406   -3627.2322   0.42519293 0.0026379512 0.0072061964 
 2036000    277.18708   -1074.4201    413.79014   -9015.8372   -942.64251   -2215.5988    0.4251495 0.0026395038 0.0072063593 
 2038000    290.14605   -1074.6317    3428.7662   -10098.176   -1143.5267   -2404.4421   0.42527096 0.0026368592 0.0072001086 
 2040000     310.5634   -1073.8453    980.22332   -10409.739   -3774.3885    667.13495   0.42531431 0.0026337998 0.0071942177 
 2042000    303.20872   -1073.9035   -1733.2904   -8799.9485    1521.1288   -1078.2934   0.42533301 0.0026325835 0.0071899743 
 2044000     293.6226   -1074.7437    4767.5578   -8415.8853   -3050.3002   -3504.9627   0.42539693 0.0026314049 0.0071887607 
 2046000    253.57964    -1074.139    3255.1168   -11619.305   -1543.2694    1404.6283   0.42546587 0.0026288638 0.0071865439 
 2048000    314.87748   -1073.9267    7012.9133   -10385.736    -1550.797   -4205.6572   0.42551047 0.0026266007 0.0071791628 
 2050000    266.01173   -1074.3051    802.84959   -8124.7769    611.76687   -1311.8593   0.42550034 0.0026387564 0.0071753087 
 2052000    312.84938   -1073.6768    2825.7398   -8397.2198   -113.75723   -2558.2172   0.42547747 0.0026385314 0.0071757177 
 2054000    304.22873   -1073.8274    1048.8306   -8254.0023   -656.54932   -766.88663   0.42545846 0.0026352768  0.007169585 
 2056000    287.91522   -1074.2367   -8.7288537   -9313.7589   -323.20333   -454.22856    0.4255266 0.0026362142 0.0071641133 
 2058000    245.27129   -1074.8766   -505.26145   -4546.9171    17.209618   -1303.1812   0.42561072  0.002633678 0.0071637887 
 2060000    318.39041   -1073.6828   -1108.5616   -9173.3928    1092.1894    1240.2784   0.42560271 0.0026336967 0.0071590572 
 2062000    295.92905   -1074.1493    1185.9152   -8874.9771   -777.91446    773.65859   0.42553453 0.0026370234 0.0071523115 
 2064000    301.57858   -1073.7509    1591.3636   -9407.6427   -3106.2434   -1060.6001   0.42548508 0.0026463549 0.0071496341 
 2066000    314.07545   -1074.4152    4747.1742   -8933.5747   -1538.5616    1688.7637   0.42551079  0.002651471 0.0071481595 
 2068000     304.6551    -1073.969    834.38206   -9960.9326    2792.7536    1350.3901   0.42567557 0.0026490795 0.0071502168 
 2070000    313.97417   -1074.5207    3494.7449   -8394.0263    1701.6849   -3697.3878   0.42572384 0.0026468814 0.0071478934 
 2072000    291.46069   -1073.5162    1399.3679    -5416.925    2927.3073   -1171.1574   0.42573962 0.0026443237 0.0071430105 
 2074000    293.31847   -1073.6731    1076.5025   -7351.3783      1824.61   -3274.6523   0.42577655 0.0026431365 0.0071369806 
 2076000    264.31716   -1074.5445    1489.4094   -5892.5036    77.831637   -2519.4192   0.42579834 0.0026440727 0.0071306594 
 2078000    372.95228   -1074.0272   -51.418369   -9249.5821    2595.5114   -272.97918    0.4257395 0.0026467325 0.0071357915 
 2080000    267.77785   -1074.5634    3646.7531   -4463.7553   -2079.1775    1523.8781   0.42568497 0.0026507012 0.0071300931 
 2082000    273.27488   -1074.0976    7139.0676   -6921.0697   -498.61924    -1755.735   0.42568644 0.0026572267 0.0071251142 
 2084000    277.04602   -1074.5009    935.34263   -4324.2488    680.44131   -1276.6802   0.42573322 0.0026572171  0.007118302 
 2086000     297.2877   -1074.5115    3562.4571   -7946.7065   -815.89718   -276.73145   0.42576363 0.0026549571 0.0071213735 
 2088000    320.41969   -1074.5709    4340.0724   -8850.0934   -907.08721    1235.9856   0.42587572 0.0026524721 0.0071234928 
 2090000    267.32064    -1074.116    1897.6393   -7000.3103   -3755.6309    3100.6902   0.42599813 0.0026506493 0.0071168455 
 2092000    279.12601   -1074.5014    2046.7655   -7332.3422    600.76828   -564.70996   0.42599448 0.0026484978 0.0071097376 
 2094000     302.9569   -1073.5837    1911.1346   -7146.5787      1360.75    -4014.752   0.42596148 0.0026561935 0.0071114444 
 2096000    309.26497   -1074.5205   -2543.3559   -4608.6903    1331.7336    1177.3171   0.42593184 0.0026609301 0.0071099117 
 2098000    305.19065   -1074.5465    3607.3876   -9205.9943    2837.9716    854.52428   0.42598475 0.0026597101 0.0071027197 
 2100000    290.68623   -1073.5686    7149.8546   -7600.6039    1311.3905    -593.5863   0.42600869 0.0026565789 0.0070960339 
 2102000    311.54375   -1073.9725    1289.0938    -7003.367   -566.95621   -753.76643   0.42606002  0.002654178  0.007094761 
 2104000     289.1802   -1073.7355    1124.2863   -4712.2213    809.08974   -731.16085   0.42615766 0.0026524088 0.0070952353 
 2106000    288.33266   -1074.0883    1289.8847   -9225.1452    633.15411   -1865.3569   0.42619304  0.002651742 0.0070892257 
 2108000    267.80119   -1074.1547    3846.2353   -5497.9732    3600.3017   -1277.4017   0.42626365 0.0026504638  0.007088593 
 2110000     285.3617    -1073.736    5010.5659   -4964.8522      1630.12    1484.4722     0.426239 0.0026480078 0.0070923854 
 2112000    264.63492   -1073.9995    3598.2466   -7771.0912    2806.8048   -74.634783   0.42632147 0.0026473454 0.0070891101 
 2114000    292.87045   -1074.8401    2905.3325   -9008.9064   -1163.1826    2344.0712   0.42630686 0.0026461671 0.0070842404 
 2116000    276.84697   -1073.9384    -1011.815    -10244.87   -1.2942916   -1901.7068   0.42633608 0.0026475116   0.00707916 
 2118000    298.51325   -1074.3867    2763.7194    -7862.122   -141.50095   -1701.9497    0.4263178 0.0026477901 0.0070736917 
 2120000     275.8996    -1074.469   -538.32833   -11492.217    475.50655    1023.0279   0.42634879 0.0026489883 0.0070678926 
 2122000     269.5548   -1073.8162    1706.3244   -9015.1954    1948.8527   -143.01208   0.42640784 0.0026485343 0.0070679215 
 2124000     313.0667   -1074.3627    5288.7712   -7437.5412    217.95566   -462.41869   0.42643703 0.0026478855 0.0070665884 
 2126000    299.27579   -1074.6662    4301.5891   -8238.8215    123.73587    1564.3809   0.42642632 0.0026465979 0.0070630167 
 2128000    269.41696   -1073.8885    315.18168   -7278.4217    486.99133   -769.66502   0.42639607 0.0026465816 0.0070672125 
 2130000    307.25125   -1073.8776    2466.7757   -9501.7428   -526.12368    994.32752   0.42640331 0.0026525842 0.0070750894 
 2132000    334.15738      -1074.2    5944.9718    -10938.21    -1337.771    3193.6405   0.42646315 0.0026532929  0.007072244 
 2134000    317.91234   -1073.7654    3766.8219   -11847.162    -3928.148    506.70484   0.42652952    0.0026509 0.0070663159 
 2136000    345.72897   -1073.9298    4332.3464   -7414.5483    62.816058   -1083.1297   0.42662795 0.0026507444  0.007063335 
 2138000    309.68962   -1073.6122    -527.7196   -9883.6598   -3455.9759    1660.1715   0.42668027 0.0026489427 0.0070571828 
 2140000    324.32228   -1073.9034   -516.74285   -9987.3376   -212.53075   -187.00289   0.42673317 0.0026476673 0.0070541897 
 2142000    288.11771   -1074.1801    1837.0465   -8839.8909   -12.632811   -1740.1751   0.42677815 0.0026471559 0.0070502559 
 2144000    306.91651   -1074.1999    3058.3617   -8064.3151   -2892.6249   -721.60104   0.42676283  0.002645321 0.0070446524 
 2146000    286.48079   -1073.1525    4465.6972   -9451.5077     611.1996     166.1489   0.42673495 0.0026475306 0.0070401596 
 2148000    273.06864   -1074.3538    5722.5039   -7896.1079   -1585.5269   -132.39329   0.42682694 0.0026448962 0.0070380979 
 2150000    310.33231   -1073.9506    4101.6025   -7538.6261    1027.5834   -517.07749    0.4269176  0.002642418 0.0070323597 
 2152000    289.91829   -1073.7488    2337.5852   -10502.552    1236.8708   -541.39818   0.42699796 0.0026399899 0.0070284829 
 2154000    295.64682    -1073.852    3024.5382   -10153.203    2390.4259   -225.63986   0.42713046 0.0026410469  0.007021875 
 2156000    282.21368    -1074.336    288.90636    -9277.751   -1959.0036   -2214.6107    0.4271671 0.0026442241 0.0070153981 
 2158000    301.23754   -1074.3801    2768.6976   -7679.7874   -1601.0481   -1407.8944   0.42716404 0.0026441483 0.0070121201 
 2160000     267.4174   -1073.3847    1986.8159   -8646.6787     -387.321   -4007.7501   0.42715216 0.0026424019 0.0070109714 
 2162000    268.70517   -1074.6136    2190.9425   -9209.6037    2523.5117    -440.1343   0.42719046 0.0026393583 0.0070110894 
 2164000    305.33221   -1074.0503    1065.2594   -7591.5184    1951.2643   -959.73847   0.42720516  0.002638033 0.0070078036 
 2166000    290.01172   -1074.5946    430.94412   -6536.7031    1011.9588    -1094.216   0.42726994 0.0026386347 0.0070046794 
 2168000    285.25913   -1073.5446    2830.0789   -6187.5954   -946.95587   -701.40305   0.42738218 0.0026364361 0.0069988742 
 2170000    313.58373   -1074.9105   -396.85877   -6602.2677    2826.5064   -1848.0688   0.42741436 0.0026341571 0.0069935973 
 2172000     296.3942   -1074.2702    7733.4638   -8092.3789   -1094.0441   -2617.3795   0.42744912 0.0026326672 0.0069879352 
 2174000    293.58165    -1074.364    3320.3072   -6543.8119   -1256.9493    2306.1352   0.42747169 0.0026312428 0.0069836899 
 2176000    316.17433   -1073.5862    7237.2223    -8742.948   -424.60932   -5371.8769   0.42749079 0.0026296727  0.006985601 
 2178000    295.90664   -1073.9758    5497.9303   -6835.8545   -1387.0582    3731.4753   0.42754534 0.0026304712 0.0069853152 
 2180000    299.68675    -1074.286    4169.2056   -5907.7364     853.6093    1273.5451    0.4275453 0.0026293653 0.0069802434 
 2182000    301.67731     -1073.33    5278.2042   -7231.1308     2051.789    -469.8153   0.42751918 0.0026317661  0.006975749 
 2184000    293.30952   -1074.1781    4915.0327   -7835.1562    3047.7176     1435.641   0.42754278 0.0026306261 0.0069769921 
 2186000    316.69451   -1074.5395    5663.3678   -7083.0173   -1116.2209    -2343.957   0.42757408 0.0026279645 0.0069764519 
 2188000     308.2696   -1074.2959    4514.0855   -9393.2841   -1212.1149    1130.0135    0.4276982  0.002626246 0.0069707977 
 2190000    299.84748   -1074.5332    4658.7508   -8322.8813     3180.059    2189.2177    0.4277752 0.0026242111 0.0069673455 
 2192000    272.76451    -1074.307    4815.7253   -6698.1695   -738.29864   -1923.0451   0.42777583 0.0026303375 0.0069604519 
 2194000    282.45676   -1074.7343     179.2156    -9311.701    596.29292     190.0033   0.42779496 0.0026277673 0.0069564665 
 2196000    286.03262   -1074.9681    103.74134   -7455.5857    779.97942   -1268.8855   0.42782402 0.0026344658 0.0069520674 
 2198000    312.60663   -1074.4915    2451.3513   -7304.4414   -520.02366   -200.46748   0.42791583 0.0026354981 0.0069452699 
 2200000    289.12406   -1074.6187   -2600.5571   -8874.5376    1616.4444    754.50773   0.42791945 0.0026328507 0.0069487132 
 2202000    302.07294    -1074.646    2172.9155    -9360.256   -981.46366   -2800.2034   0.42790558 0.0026362586 0.0069462817 
 2204000     321.6411   -1074.0442    1381.7727   -5910.0285   -956.57221   -37.892241   0.42782555  0.002635281 0.0069402694 
 2206000    291.77625   -1073.7689    604.47179   -8120.9504     215.8794   -4062.2136     0.427748  0.002635116 0.0069339705 
 2208000    275.53462   -1073.4679   -4208.6468   -7778.3545     1974.746   -3136.9487   0.42764383 0.0026423375  0.006938597 
 2210000    301.55145   -1074.2825     1744.285   -7743.3313   -796.63832   -1424.7112   0.42759804 0.0026417393 0.0069366158 
 2212000    302.67019   -1074.3609     2388.801   -6909.9126    1931.7002   -2854.6649   0.42762384 0.0026398749 0.0069338066 
 2214000    303.80656   -1073.4439    4940.8116    -8435.723    79.372556   -143.45883   0.42766054 0.0026372382 0.0069326089 
 2216000    284.74362   -1073.6993    4601.6179   -6922.2838    1101.3886    1008.7926   0.42763824 0.0026379055 0.0069329425 
 2218000    265.19206   -1073.7595    5495.2433    -11426.42    614.92419   -1582.7694   0.42757915 0.0026373897 0.0069272932 
 2220000    307.52001   -1074.0027     1299.304   -5610.3007   -1597.1867   -1504.7315    0.4275804 0.0026426248  0.006921413 
 2222000    282.46579   -1074.0696    3059.1271   -4466.1241    231.13384    601.20072   0.42750933 0.0026406384 0.0069165597 
 2224000    297.29443   -1073.6283     1037.601   -5484.1582   -2131.6359   -2689.6029   0.42748347 0.0026440981 0.0069107587 
 2226000    287.04248   -1074.9086    733.37047   -10968.192    2312.5129   -1520.9111   0.42749918 0.0026396684 0.0069106048 
 2228000    292.46526   -1074.0702   -185.59798   -6470.6616   -1659.6884     472.5764   0.42761504 0.0026368979 0.0069183531 
 2230000     257.4702   -1074.4963    3379.8258   -9762.0355   -866.97794   -687.77486   0.42765215 0.0026351058 0.0069189861 
 2232000    287.95033   -1073.9297   -183.78252   -5398.3588   -2890.9193    889.50658    0.4276568 0.0026332912  0.006913128 
 2234000    300.24539    -1073.961    5834.1612   -4425.2455   -767.92907    -3637.564    0.4276223 0.0026305778 0.0069107879 
 2236000    310.92264   -1073.4669   -924.65014   -9463.2337    1527.9779   -3383.5008   0.42763305 0.0026299396 0.0069155078 
 2238000    297.01966   -1074.0707     2670.049   -7966.8419    49.179445     -206.611   0.42767583 0.0026329839 0.0069204858 
 2240000    302.59675   -1073.8474    7773.3781   -10887.306   -2267.2311    1185.9321   0.42765812 0.0026299583 0.0069176489 
 2242000    291.70108   -1074.8064   -410.19964   -10475.478   -3582.3527    1875.1321    0.4276907 0.0026281887 0.0069106086 
 2244000    290.41146   -1074.8752    1384.4262   -7576.1242    194.94195   -1913.5854   0.42772052 0.0026292187 0.0069070333 
 2246000    312.92452   -1074.2033    6186.8496   -8686.6067    2744.9901   -1022.7119   0.42773483 0.0026240503 0.0069014952 
 2248000    305.05671   -1074.2036    1915.4131   -5658.0153   -285.69723   -4523.7407   0.42782656 0.0026229352 0.0069019739 
 2250000     322.2417   -1073.8914    692.90913   -6482.5907    439.09835   -2655.3378   0.42775321 0.0026244194 0.0068963851 
 2252000    310.07265   -1073.7612    3808.2545   -7290.9562    380.07252   -2463.3393   0.42765455 0.0026277372  0.006898258 
 2254000    297.40511   -1074.0312   -1066.7393   -11387.211    2796.8844    886.49981   0.42769881 0.0026274315 0.0068988796 
 2256000    312.14033   -1073.8292    4578.7784   -8356.3148   -2435.8266   -2027.1605    0.4278038 0.0026275385 0.0068924423 
 2258000    290.65323   -1074.6567    3553.2035   -10260.903    4822.9607    93.526398   0.42791541 0.0026248108  0.006891533 
 2260000    286.78088   -1073.8332    306.49891    -5413.408    126.43284    492.75525   0.42801371 0.0026215371 0.0068891261 
 2262000    266.60129   -1074.6134    3800.9292   -1907.2544    -275.5369   -1190.1102   0.42802116 0.0026187576 0.0068913438 
 2264000    299.45232   -1073.4352   -1104.8053   -10044.277     1798.979    -1009.483   0.42795159 0.0026179459  0.006888599 
 2266000    289.58623   -1074.4749    872.09066   -5476.0237   -1734.4668   -2133.4297   0.42792566  0.002621083 0.0068828491 
 2268000    292.86516   -1073.5469    1409.6537   -8708.6383    1381.8672   -2018.5775   0.42787209 0.0026201164 0.0068782332 
 2270000    321.11546    -1074.066    2542.2839   -10099.016    2857.5744   -1255.3471    0.4279596 0.0026175283 0.0068773527 
 2272000    307.40443    -1073.489    4670.3504   -7966.9792    155.62767   -98.061202   0.42809356  0.002616451 0.0068792325 
 2274000    292.28166   -1074.2646    4996.6126   -7330.2951    3536.4095   -1680.6094   0.42807444 0.0026142523 0.0068738358 
 2276000    305.25402   -1074.3466    2677.1685   -9931.7336    1408.3484    1668.1052   0.42815855 0.0026133348 0.0068673212 
 2278000    300.69477   -1074.8685    4880.2766   -7805.5456    3780.1684   -322.35203   0.42818563 0.0026110689 0.0068622005 
 2280000    293.62465   -1073.8894    5953.6455   -8350.7937    -187.8164   -1087.3432   0.42818711 0.0026094077 0.0068670484 
 2282000    302.71599    -1073.737    3723.5879   -9152.9778    2132.2533    2815.3502   0.42822928 0.0026085534 0.0068657466 
 2284000    306.50847   -1074.1377    1989.3543   -8278.2061   -2416.3741   -1261.6574   0.42830794 0.0026067566 0.0068612866 
 2286000    277.84457   -1073.9407    1446.9749   -8522.4354    1573.7815   -4292.1047   0.42830741 0.0026044812 0.0068626301 
 2288000    291.55635   -1074.1394    16.910893   -8026.3968   -2812.4571   -1526.2343    0.4283849 0.0026029807 0.0068668077 
 2290000    295.97237   -1073.9462    4181.5584   -7414.8441   -38.186788   -1367.4456   0.42846155  0.002601525 0.0068641336 
 2292000    272.15572   -1074.9058    3165.2312   -6369.2233    579.87381   -469.58551   0.42855916 0.0025993253 0.0068615336 
 2294000      291.562   -1074.4859    5727.4127    -8849.773    851.33768    105.89651   0.42862715 0.0025989503 0.0068585862 
 2296000    308.72751   -1073.6282    4856.0328   -4958.8076    85.632634   -451.39295   0.42863073 0.0026064166 0.0068535352 
 2298000    281.63601    -1074.226    234.48038   -3367.6131    3809.5694   -1983.6157    0.4285545 0.0026017751 0.0068512601 
 2300000    313.07545   -1073.6039    4715.6155   -8165.8877    2079.4096     -1648.75   0.42849791 0.0026198215 0.0068468078 
 2302000    281.09795   -1074.8009    4418.3704   -5496.6565    107.48179   -124.88072   0.42842217 0.0026200061 0.0068434178 
 2304000    289.67768   -1073.5794   -2403.3877   -8362.3639    115.28875   -1814.7166   0.42839758 0.0026209099 0.0068421775 
 2306000    272.23468   -1074.6759    1098.6144   -7589.9607    1784.3518   -816.28309   0.42847314 0.0026235284 0.0068357297 
 2308000    284.01083   -1074.2351    2017.8228    -9714.757   -541.30986     375.5499   0.42851408 0.0026208621 0.0068347304 
 2310000    290.26053   -1074.2098    2126.6357    -7261.791    2510.7678   -540.95623   0.42857939 0.0026189424 0.0068284983 
 2312000    292.24738   -1074.4396     3115.813   -8865.1385   -1688.1338   -1249.8485   0.42863509 0.0026166882 0.0068231883 
 2314000    325.33109   -1074.0907    1315.2153   -4824.6007    1687.8661    1649.4123   0.42865605 0.0026143619   0.00681995 
 2316000    289.24677   -1073.3597    2345.6664   -8089.9527    30.806135    2236.4513   0.42866226 0.0026179184 0.0068186492 
 2318000    315.52155   -1074.3171    3141.5889   -9895.5835    790.64526    1332.0823   0.42867801 0.0026166326 0.0068144263 
 2320000    310.90782   -1074.2872    2628.6643   -7424.1962   -418.53584    -466.1081   0.42871393 0.0026172584 0.0068096067 
 2322000    302.16135   -1074.6213    1431.5901   -6933.9587    1213.9201    -513.9946   0.42874316 0.0026154912 0.0068064619 
 2324000    348.54562    -1074.192    4021.5832   -6961.5997    3575.9556    128.64146   0.42876879 0.0026132649 0.0068026159 
 2326000    277.81915   -1073.6325    1593.1827   -5889.1797    879.54451   -2752.8104   0.42881545  0.002614334 0.0067962115 
 2328000    339.27399   -1073.0617     1084.907   -10480.063    2032.1593   -3086.5266   0.42879453 0.0026186461 0.0067922861 
 2330000    283.43539   -1074.1614    2901.9229   -7799.9306    913.84363    -1602.652   0.42886976 0.0026175404 0.0067869129 
 2332000    269.03359   -1073.9603    4938.1648   -7291.5099   -803.03292   -1813.2421   0.42892829 0.0026177647 0.0067857033 
 2334000    288.62413    -1073.929    1887.2677   -4087.9368     2810.902   -2610.0786   0.42894155 0.0026189592  0.006786828 
 2336000    271.84127   -1073.9521    5458.6319   -9115.2632   -1349.3006   -2101.9978   0.42888743 0.0026184244 0.0067806674 
 2338000    288.35989   -1074.1513    4271.2843   -6003.8903    4797.1673   -255.34799   0.42890087 0.0026179634 0.0067752767 
 2340000    291.86204   -1074.4048    407.51443   -9329.7273   -1109.6471    576.30407    0.4289287 0.0026199151 0.0067744008 
 2342000    303.89735   -1074.0026    1643.3454   -8601.9409    2081.0767    3070.7979   0.42899889 0.0026180997 0.0067709353 
 2344000    282.58356   -1073.8482    1445.3162   -8557.6031   -1682.3078   -3070.5645   0.42909839 0.0026174755  0.006768548 
 2346000    256.25917   -1074.5073    1664.8934   -8636.2307    1116.6553    989.45176    0.4291309 0.0026150433 0.0067789629 
 2348000    295.36207    -1073.751    4036.6532   -7747.3899   -2771.9966   -64.873559   0.42913934 0.0026132613  0.006784386 
 2350000    323.40523   -1074.2548    3767.2341   -8543.4815   -1784.0792    1714.4938   0.42913194   0.00261091 0.0067804632 
 2352000    318.16232   -1074.0623    3832.9304   -11522.585    1427.2003    1119.0012   0.42913376 0.0026107314 0.0067784968 
 2354000    285.44503   -1073.7347    2727.7644   -11529.107   -3605.1147    2385.2578   0.42915486 0.0026211489 0.0067782464 
 2356000    319.66883   -1074.4793    1988.7046     -9566.12   -4793.4233    1713.5715   0.42924608 0.0026273098 0.0067729615 
 2358000    281.90375   -1074.6698    1010.5654   -8697.4809    653.71214    2339.7279   0.42928636 0.0026261517 0.0067705265 
 2360000    293.80393   -1074.3635    2793.0815   -6279.7611   -422.41376   -880.58773   0.42928583 0.0026236237 0.0067806846 
 2362000    262.59609   -1074.6457    3482.6631    -7929.862    949.72812   -2092.4498   0.42925435 0.0026215499 0.0067771826 
 2364000    317.53792   -1073.6279    3107.2252   -6983.9922   -1273.4377      1326.26   0.42924618 0.0026197434 0.0067722909 
 2366000    290.68025   -1074.3287    1894.9632   -8793.5819    3442.9379   -377.03654   0.42928137 0.0026179171 0.0067719423 
 2368000    290.19914   -1073.5995    1171.4248   -6136.1065    1318.8378   -2985.7419   0.42941359 0.0026166534 0.0067718914 
 2370000    294.63019   -1073.8689   -2450.8547   -7508.6514   -2278.3562   -1549.4668   0.42941508 0.0026227917 0.0067754184 
 2372000     336.7709   -1074.4028     1765.152   -5827.8416   -634.13464   -1914.3812   0.42941924 0.0026204537 0.0067702519 
 2374000    311.55173   -1073.6651    2415.3903   -9489.7332   -1241.1436   -999.23101     0.429364 0.0026184773 0.0067650943 
 2376000    321.17852   -1074.9572    1199.2735   -7029.3898    1097.4719   -1629.0557   0.42936684 0.0026181159 0.0067594346 
 2378000    305.23228   -1074.2583    3170.8432   -10397.052    1654.9846   -1705.3919   0.42935206 0.0026152613 0.0067575456 
 2380000    275.86176   -1075.0585    2127.5658   -6645.4236    826.55122   -1362.9648   0.42941857 0.0026149297 0.0067543353 
 2382000    281.85796   -1074.1782    1693.1851   -9404.2205    1884.7295   -1882.7903   0.42948768 0.0026163628 0.0067522877 
 2384000    321.64386   -1074.3831    1495.0334   -6097.1846   -911.34284   -1248.7875   0.42948924 0.0026166753 0.0067515229 
 2386000    266.63836   -1074.3932    1757.2492   -6076.3341    3338.3588    477.43398   0.42944494 0.0026179585  0.006746885 
 2388000    290.59835   -1074.5867    284.92235   -11002.441    132.99028   -1963.3895   0.42951437 0.0026136442 0.0067434058 
 2390000    317.75115   -1074.1768    5781.7093    -9706.464   -229.77882   -2577.9315   0.42957669 0.0026127405 0.0067486683 
 2392000    300.09419   -1074.4634    3972.6304   -9440.8933   -163.14059    956.96642   0.42963733 0.0026128463  0.006752252 
 2394000    293.76818   -1074.1449    2891.3831   -8801.7858    3180.7251   -1300.2597   0.42971327 0.0026114654 0.0067461097 
 2396000    293.56463   -1074.2473    1050.7697   -5714.4093    728.29419   -2238.1791   0.42968556 0.0026192449 0.0067410405 
 2398000    330.76177   -1073.7026    1974.9847    -6976.479    94.775082   -1824.0228   0.42961954 0.0026179905 0.0067367526 
 2400000    341.83715   -1074.5756    1087.9417   -8956.7251    2203.9956    2183.3665   0.42962583 0.0026161789 0.0067314434 
 2402000    288.40256   -1074.4613    2093.4138   -8288.1933     809.9643   -1115.9094   0.42962973 0.0026165326 0.0067310209 
 2404000    314.31711   -1074.2205      -78.626   -8780.3054    1827.8559   -3375.3424   0.42958278 0.0026164968  0.006727961 
 2406000    283.20151   -1073.9028    4013.5043   -4785.0249     1186.332   -1435.8487   0.42955311 0.0026206712 0.0067263973 
 2408000    281.25511   -1073.8353     1795.985    -8806.441    630.38942   -40.217284   0.42957808 0.0026209787  0.006723621 
 2410000     284.6271   -1073.5743    766.12821   -6908.2943     854.5022    164.93864   0.42962278 0.0026207002 0.0067177853 
 2412000    344.54095   -1073.5438    4781.8175    -9735.914    416.71225    483.98972   0.42966441  0.002618255 0.0067126065 
 2414000    338.13643    -1073.357    3960.9878   -8816.6919    506.00918   -1525.0146   0.42965956 0.0026158195 0.0067119681 
 2416000    316.95934   -1074.8782    2480.0426   -9576.2643   -3171.1491   -310.59156   0.42964766 0.0026136039 0.0067109991 
 2418000    279.98416   -1074.2489    4689.7711   -6270.0567    1753.6021   -1517.4598   0.42968818 0.0026114593 0.0067067435 
 2420000    287.66151   -1073.8515    2334.6909   -7564.1433   -1477.2902    1839.2265    0.4297219 0.0026120531 0.0067025052 
 2422000    340.63576   -1073.8472    2036.4707   -6024.4601    2006.0953   -478.78559    0.4297928  0.002612071  0.006698889 
 2424000    314.35081   -1074.2567    815.02149   -10009.867    3515.8911    927.66587   0.42978188  0.002610526  0.006696074 
 2426000    297.37838   -1073.5493    528.97433   -8382.7713    727.86656   -545.28003   0.42980385 0.0026117496 0.0066914279 
 2428000     306.9104    -1074.227   -2694.9312   -10206.651   -2237.0176    361.50089    0.4297718 0.0026088492 0.0066900499 
 2430000    304.00396   -1074.5501   -1274.2813   -10064.897    1978.1558   -2132.7758   0.42980168 0.0026076494 0.0066875388 
 2432000    290.60583   -1074.9258    665.98212   -6978.2399   -2183.6656   -2029.4344    0.4298936 0.0026055698 0.0066854827 
 2434000     293.2552   -1074.1916    514.35208   -7530.3479    3754.3093   -523.47202   0.42990478  0.002608925 0.0066805136 
 2436000    291.04791   -1074.6659    3086.2282   -5631.9469    191.43124   -2751.1344   0.42989082 0.0026181412 0.0066771875 
 2438000    341.25011   -1074.4332    4919.5239   -9590.8662   -2166.5844   -901.61932   0.42984647 0.0026153885 0.0066740242 
 2440000    298.75245   -1074.4388    9192.1781    -7236.546   -1331.9814   -2400.0253   0.42989688  0.002613249 0.0066737398 
 2442000    292.37094   -1074.5149    2045.6567    -8511.897   -2160.1683    -2507.674   0.42992128 0.0026111367 0.0066777979 
 2444000    302.52708   -1074.3844    2051.4836   -8641.0429     647.7879   -658.72656   0.42999844 0.0026092605 0.0066755416 
 2446000    289.03425   -1073.9388    118.00613   -8748.0307    4642.9475   -3529.2029   0.43001656 0.0026071141 0.0066693805 
 2448000    286.18922    -1074.118    4088.2873   -6641.7544    92.645523    3032.3025   0.42998464 0.0026103889 0.0066646223 
 2450000    310.55444    -1074.026    3336.6548   -5754.9577     3487.632    -1938.082   0.42998901 0.0026175264 0.0066601159 
 2452000    300.69816   -1073.8896     1906.731   -7421.6544   -600.81742    402.83909   0.43003175 0.0026168323 0.0066624716 
 2454000    297.40538   -1074.5572    2310.7262   -7078.2449    1618.3865   -3569.5707   0.43008834 0.0026139543 0.0066600137 
 2456000    270.65429   -1073.6838    6387.0596   -7998.0358    919.69993   -1642.2495   0.43008784 0.0026133314 0.0066671478 
 2458000    293.19473    -1074.358   -1077.9464   -5774.4174    1739.1285    549.85107   0.43007063 0.0026204541 0.0066620094 
 2460000    308.02599   -1075.0534    3448.5194   -8386.0134    2406.7977   -2261.8963   0.43009829 0.0026214252 0.0066569093 
 2462000     305.2045   -1074.3064    3157.3568   -7548.0075    1386.0495    3476.5596   0.43013484 0.0026223487  0.006651868 
 2464000    337.56538    -1074.751    2315.1161    -7867.136    282.67234    1789.2138   0.43011929 0.0026253757 0.0066488756 
 2466000    298.45915   -1074.5765    1544.2366   -5896.8836    -1690.593   -1423.4884   0.43007367 0.0026234568  0.006648803 
 2468000    310.10837   -1075.0737    3808.8822   -7123.3552   -1724.3109   -717.82993    0.4301498  0.002622312 0.0066432157 
 2470000    273.58383   -1072.2989   -2532.2424   -6387.4928     6667.677   -2531.0799    0.4302321 0.0026191685 0.0066428279 
 2472000    338.46164   -1075.0372    2409.7369    -8726.817    1489.3855   -941.60709   0.43027204  0.002617205 0.0066403348 
 2474000     272.8627    -1074.593    3686.6929    -8507.928    150.71613    943.65736   0.43035048 0.0026177925 0.0066349622 
 2476000     305.3959   -1074.0119    1086.3521   -8300.1199    3921.2518    2271.2121   0.43037502 0.0026169061 0.0066304646 
 2478000    329.34839   -1073.7876    4837.9612   -9282.8134    1150.5779   -704.16436   0.43035832 0.0026162215 0.0066294221 
 2480000    282.43365   -1074.0007    5044.6647   -9880.6321    -5078.328    631.55962   0.43032221 0.0026173354 0.0066285533 
 2482000    299.96103   -1073.8593   -928.59879   -11591.791   -420.86076   -514.79236   0.43034052 0.0026166071 0.0066236464 
 2484000    298.50779   -1074.5345    1307.1628   -7876.0135   -522.13402   -1490.2153   0.43037867  0.002613692 0.0066241549 
 2486000    310.60477   -1074.1062    26.872182   -6496.5618    2927.0144   -2365.7167   0.43036539 0.0026237309 0.0066226179 
 2488000    303.55633   -1074.6433    3461.3319   -8989.8299    1890.3817   -1680.3009   0.43034457 0.0026240123 0.0066174496 
 2490000    289.25632   -1073.9357   -119.18067   -7782.9877   -112.67168   -674.12774   0.43035553 0.0026222915  0.006618307 
 2492000    282.66166   -1074.5128     300.0501   -8569.4004   -1680.8609   -3901.7824   0.43042168  0.002620349 0.0066138049 
 2494000    317.21952    -1074.075   -180.67994   -7753.9698    2797.1319    1330.4955    0.4304338 0.0026177335 0.0066085564 
 2496000    333.83979   -1074.7858    3854.7112   -8497.7089   -787.64816   -2462.4564   0.43044736 0.0026175776 0.0066055194 
 2498000    300.10868   -1074.2309    938.80689   -6723.1069    791.30615   -2455.8236   0.43051746 0.0026160034 0.0066007498 
 2500000    308.09422   -1074.7439    3063.0946   -8891.6888    575.53659    1145.7252   0.43052588 0.0026158048 0.0065988448 
 2502000    281.14315   -1074.1846    5607.2542   -2816.5013    360.04406   -2980.0238   0.43051754 0.0026177911  0.006597677 
 2504000    302.24822   -1073.9015    584.56681   -14039.894    1132.0944    675.63288   0.43056464 0.0026158312 0.0065926243 
 2506000    284.78265   -1073.3896   -1154.7851   -9457.0008    1700.5817   -1141.0571   0.43063647 0.0026145781 0.0065892489 
 2508000    299.34469   -1073.7539     5213.774   -7866.1611   -3048.7387   -2071.9242   0.43070767 0.0026124423 0.0065893586 
 2510000    306.31664   -1073.9376   -655.56271   -8859.8603     1035.454   -361.49475    0.4307766 0.0026104639 0.0065863207 
 2512000    310.12553   -1074.0763    3522.5837   -5126.1026    185.45591   -777.84818   0.43077243 0.0026152657  0.006581455 
 2514000    295.68983   -1074.9669    1499.5741   -8943.2899   -408.71907   -2437.9235   0.43072133 0.0026144848  0.006577835 
 2516000    297.86729   -1074.2978    4078.6664    -8396.122    555.35905    3794.3661   0.43073451 0.0026130801 0.0065735036 
 2518000    293.50855    -1074.417    788.52699   -9243.2931    735.70838   -662.66074   0.43079487 0.0026118358 0.0065708887 
 2520000    300.87325   -1073.9973    5101.4239    -5990.669    1802.3432   -3009.4754   0.43088618  0.002611205 0.0065661036 
 2522000    298.36568   -1074.4513   -1401.6731   -8458.1892   -2727.2814   -2287.7213   0.43092831 0.0026085089 0.0065670262 
 2524000    278.06942   -1074.6204    6012.1485   -4331.6924    2793.7979     700.2381   0.43089388 0.0026099844 0.0065637741 
 2526000    315.94011    -1073.931   -1342.0047   -9214.8264   -1129.6051   -1579.2987   0.43085689 0.0026125157 0.0065591475 
 2528000     309.4064   -1075.1039    2622.5953   -7940.5745    589.69019    -179.0494   0.43087734 0.0026108581 0.0065613707 
 2530000    288.25643   -1074.4828    1561.1202   -8703.7119    2345.2267   -799.51089   0.43095031 0.0026087274 0.0065685191 
 2532000    311.96914   -1074.3322     2183.452   -8794.4817   -545.58819    1117.7492   0.43101376 0.0026072342 0.0065679466 
 2534000    299.07461   -1074.1211    2239.1804    -7683.245    1281.2641    -1572.493   0.43107678 0.0026053758 0.0065627087 
 2536000    310.03944   -1073.2312    5630.2486   -10708.068    91.927769   -1559.1484   0.43112191  0.002605366 0.0065585648 
 2538000    318.40601   -1074.8468    1452.9334   -8075.0759      198.668   -1295.7231   0.43117727 0.0026051393 0.0065544537 
 2540000     277.3644   -1073.8536    2301.0546   -5529.2364    2843.5203    -3666.505   0.43119762  0.002603308 0.0065517092 
 2542000     304.6823   -1074.2029     1306.748   -6656.4377     3329.001    270.96159   0.43118787 0.0026041303 0.0065566779 
 2544000    321.93185   -1074.4116    5022.8538   -9702.6597   -1340.9416   -3195.0648   0.43111036  0.002602775 0.0065526291 
 2546000    293.10836   -1074.2204    1200.4262   -8040.6126    4549.1984   -319.68879   0.43112248 0.0026036196 0.0065490137 
 2548000    336.40353   -1074.7771    4104.6279   -10176.941   -2053.9416   -1778.8478   0.43123353 0.0026052019 0.0065439089 
 2550000    300.20005   -1075.0041    145.86611   -11153.559    834.14544   -1088.6792   0.43134597  0.002603345 0.0065402294 
 2552000      310.398   -1074.1424    1501.0631   -7355.0079    947.88709   -172.06847   0.43139282 0.0026007117 0.0065423848 
 2554000    321.37073   -1073.9275   -205.31849   -8618.3019   -1361.4726    1702.2366   0.43137661  0.002598829 0.0065483956 
 2556000    311.30177   -1074.4101     841.3698   -5792.8378    1168.9948   -558.99759    0.4313088 0.0026022228 0.0065493718 
 2558000    303.45889   -1074.4635    3462.5844    -7724.938    1381.5682    -72.39763   0.43126618 0.0025990899 0.0065481323 
 2560000    295.08039   -1073.8549    4318.2338   -7284.0333    3918.5574   -129.47752   0.43130863 0.0025982254 0.0065450934 
 2562000    323.64399   -1074.7026    6290.1275   -7807.2248    2269.0992    289.18615   0.43137167 0.0025979209 0.0065407051 
 2564000     275.9745   -1073.6057   -2.3266891   -8655.4515    2123.2201   -3323.9558   0.43142701 0.0025957353 0.0065425244 
 2566000     281.0006   -1074.1679    4460.6273   -9002.7036    3291.6318    224.76481   0.43146174 0.0025952807 0.0065390504 
 2568000    297.04608   -1074.8114    802.50638   -4558.8112    837.88605   -979.40584   0.43149498 0.0025936119  0.006540073 
 2570000    291.28401   -1073.8968    2228.6973   -4936.9467      995.357   -3962.9309   0.43149806  0.002591665 0.0065365336 
 2572000    309.83956    -1074.817    3123.9514   -7003.6541    2105.2277    -2497.663    0.4315109 0.0025894222 0.0065349827 
 2574000     276.4597   -1074.6195    1209.9923   -6907.7593    3679.7117    210.30803   0.43153449 0.0025892989 0.0065325507 
 2576000    308.95677   -1074.9176    7727.7887   -7293.6762   -1396.0663    3028.1444   0.43154321 0.0025901542 0.0065276727 
 2578000    265.99214   -1073.8915    2149.7337   -8446.5385   -2102.0039    800.70745   0.43163271 0.0025886388 0.0065253758 
 2580000    295.43157   -1074.6631    3869.0356   -3925.4355   -2141.2124    -1628.564   0.43167829  0.002586827 0.0065241392 
 2582000    302.09661    -1073.916    5191.8631   -8325.3243    954.77774   -677.87178   0.43168998 0.0025849271 0.0065240272 
 2584000    302.19449   -1074.9407    3394.3084   -5112.8151   -447.34031    -1662.099   0.43172889 0.0025826625 0.0065202956 
 2586000    305.10981   -1073.5971    1153.4132    -7353.768     3555.847   -410.86526   0.43170837 0.0025815159 0.0065148863 
 2588000    321.97873   -1074.2172    2826.3817   -7231.3203    600.81712    532.10371   0.43169557 0.0025842916 0.0065100257 
 2590000    325.92702    -1074.288    3316.4597   -10849.681   -507.29355   -500.94706   0.43173216 0.0025843145 0.0065067896 
 2592000    282.94928   -1074.3562    5011.4832   -5928.0448    45.028433    710.13273   0.43176615 0.0025841535 0.0065110683 
 2594000    346.83576   -1074.3917    4786.2991   -8245.3115    -425.6749    1613.6942   0.43176296 0.0025825021  0.006505494 
 2596000    327.66883   -1074.0568    4028.6357   -9536.1842    1823.3391   -1992.9792    0.4317452 0.0025813475 0.0065018689 
 2598000    317.52042   -1073.8292    4325.4973   -8653.2938   -1450.6796    111.26243   0.43175806  0.002585519 0.0065046853 
 2600000    270.10536   -1074.0633    1182.3353    -3080.835    2339.2172   -938.67546   0.43181663 0.0025843123 0.0064975355 
 2602000    335.03217   -1074.3505   -650.91648   -9916.5214    1692.2107   -368.87247   0.43182841  0.002584731 0.0064950862 
 2604000    282.83396   -1073.9571    -442.1676   -9359.7692   -493.04836   -2544.7917   0.43181879 0.0025887647 0.0064892832 
 2606000    287.29919   -1073.7466    2618.1423   -5504.5723   -4251.4288   -2683.6767   0.43184644 0.0025861402  0.006484822 
 2608000     295.6637   -1074.3266    2701.7852   -6913.0958    812.31942   -650.63525   0.43182266 0.0025842131   0.00648089 
 2610000    324.11719   -1074.1585      5086.98    -5655.691   -440.18336    415.24932   0.43179286 0.0025881886 0.0064771714 
 2612000    339.47286   -1074.0283    5933.0376   -12606.866   -628.72637    3132.5143   0.43181976 0.0025878556 0.0064776375 
 2614000    297.49111   -1074.2165    1191.9454   -8520.1032    1116.2511   -323.83647   0.43193842 0.0025853679 0.0064720074 
 2616000    303.72503   -1073.8678    3004.9922   -7748.8589    433.67094    2186.5992   0.43196433 0.0025835347  0.006474877 
 2618000    266.22952   -1074.2305    2379.9025   -9596.5827    714.49469   -630.93171   0.43196961 0.0025834007 0.0064734619 
 2620000    316.95038   -1074.5028    2062.7889   -9663.4075   -2604.0152    -2248.415   0.43203611 0.0025817756 0.0064684771 
 2622000    291.21001   -1074.6504      3324.36   -4346.8783    3160.4614   -1693.4112   0.43206191 0.0025798286 0.0064677603 
 2624000    291.42508   -1074.2572    2556.9657   -10840.481   -293.45803   -87.734736   0.43205288 0.0025829391 0.0064652183 
 2626000    288.48697   -1074.3268    158.55329   -5990.5622      3167.24     1880.032   0.43198907 0.0025851964 0.0064635223 
 2628000     310.2085   -1074.5376   -318.95332   -6016.0692    915.42925   -1641.4515   0.43196591 0.0025895618 0.0064591757 
 2630000    259.43591   -1074.8856    2142.7205   -8734.2114   -887.17955    2464.0425   0.43195224 0.0025882149 0.0064551351 
 2632000    299.41425   -1074.1154    2168.2665   -5689.8618    3557.0994   -569.18193   0.43204703 0.0025874445 0.0064524823 
 2634000     318.3287   -1074.0544    2682.8173   -7496.2992   -102.67615    887.80785   0.43213127 0.0025866464 0.0064532755 
 2636000    302.93257   -1074.4063    6001.0346   -5671.6902   -1617.4603    1505.6649   0.43215049 0.0025836209 0.0064494242 
 2638000    282.88712   -1074.1128    -1893.903    -7411.017    3734.0563   -3223.6879   0.43210205 0.0025922077 0.0064452468 
 2640000    319.12317   -1074.5915    1018.1174    -7990.284   -2588.4879    69.986754   0.43203771 0.0026045424 0.0064440273 
 2642000    292.33266   -1074.3229    3302.9869   -8826.5059    1332.0528   -2101.2742   0.43203393 0.0026013649 0.0064481816 
 2644000    290.42488   -1074.5326    5445.9829    -5677.735    3226.6323   -3363.3186   0.43207623 0.0025983354 0.0064490414 
 2646000     294.9131   -1073.8715    7293.3863   -6073.5692   -3551.0584   -3268.4041   0.43216232 0.0025964854 0.0064471046 
 2648000    328.34851   -1074.7965    2051.7839   -7519.9862    -1106.789   -3070.6778   0.43219234 0.0025957726 0.0064436445 
 2650000    290.37585   -1073.6588    7175.1903   -8343.8092   -1080.0855   -2405.4099   0.43220428 0.0025941792 0.0064444701 
 2652000    290.29845    -1074.513    1439.2695   -7186.8132    1951.2753    345.42642   0.43219097 0.0025953869 0.0064405683 
 2654000    308.99324   -1074.0695     2299.196   -8933.0306    170.88592    1847.2458    0.4321449 0.0025994355 0.0064367836 
 2656000     290.3956   -1074.8225    1329.4638   -7656.1706    517.51262    1715.4052    0.4321661 0.0026008705 0.0064361733 
 2658000    308.76609   -1073.8559    727.57199   -5855.0594    2272.4584   -2641.3055   0.43219892 0.0025993294 0.0064372511 
 2660000    325.42367    -1073.957    1007.7212    -5199.997    1914.4441     -1522.88    0.4322299 0.0025971224 0.0064373159 
 2662000    300.63644   -1073.6387    3472.6361   -7435.7401    1429.3181   -1591.9743   0.43227636 0.0025952586 0.0064355273 
 2664000    322.98323   -1073.6579    1869.0406   -8898.6308   -1473.9525    19.457318   0.43237193 0.0025940366 0.0064311698 
 2666000    314.19076   -1074.2257    1172.6196   -7479.6352    1945.7737   -233.49684   0.43244316 0.0025920976 0.0064286187 
 2668000    292.54369   -1074.3544    4970.3278   -6699.1699    2585.6687   -1277.6896   0.43242726 0.0025957146  0.006428956 
 2670000    270.01526   -1074.4983    1813.3801   -4807.4182   -1242.4583    269.48569   0.43244418 0.0025983841 0.0064236006 
 2672000    256.64307   -1073.9132    7666.0478   -6373.7609   -1455.5947    549.88445   0.43241993 0.0025976308 0.0064192939 
 2674000    300.77668   -1074.1259    847.75094   -8249.3295   -660.70474   -1472.1531   0.43240606 0.0025959027 0.0064186051 
 2676000    286.06785   -1074.5641    6120.6156   -7501.4993    107.42511   -1660.0821   0.43244833 0.0025946033 0.0064141345 
 2678000    300.42708   -1073.7354     2782.125   -6949.9337   -4383.6371    2023.4457   0.43245152 0.0025957393  0.006411696 
 2680000    298.25672   -1073.5793    898.60635   -9391.9069    1713.1551    737.20678   0.43262746 0.0025936004 0.0064079473 
 2682000    304.14214   -1074.2173    4103.6736    -7863.259   -2336.4785   -1724.1946   0.43271935 0.0025916005 0.0064071009 
 2684000    312.48539   -1073.8847    2712.3304   -5687.5299     4042.436    1930.7537   0.43267039 0.0025905972 0.0064094634 
 2686000    313.76543   -1073.6042    5943.1604    -8997.719   -84.158023    2664.8895   0.43260271 0.0025968514 0.0064054855 
 2688000    314.17714   -1074.1914      1140.12   -7017.5156    1467.4609    1517.4897    0.4326162 0.0025984747 0.0064010535 
 2690000    328.57976   -1074.3396    3197.6254   -9953.9881   -1826.9594   -1620.0029   0.43259283 0.0025965093  0.006398514 
 2692000    326.61342   -1074.7217    5726.4318    -5450.356     168.6767    -3648.776    0.4326551 0.0025945622 0.0063968315 
 2694000    272.35718   -1074.3453    7078.1436   -8923.5191    3148.8744    1297.2709   0.43269067 0.0025928626 0.0063949195 
 2696000    322.83054   -1073.9401    4664.0682    -9216.534    2052.2223   -2127.6897   0.43268137 0.0025924522 0.0063914432 
 2698000    330.01687   -1074.6598    3632.6394   -5854.5499    1764.9913   -1452.3825   0.43266706 0.0025928732 0.0063952078 
 2700000    314.44822   -1074.3457    2788.8966   -10483.585    889.25138   -113.57296   0.43263375 0.0025967788 0.0063960797 
 2702000     292.3408   -1074.0775    4891.4081   -7192.2199    -1977.634   -1530.3687     0.432665 0.0025937056 0.0063961488 
 2704000    305.53421   -1074.1795    1302.6332   -9218.5282   -1430.9032   -1381.5187   0.43267646 0.0025921122 0.0063957297 
 2706000    268.64454   -1074.3461    2074.7882   -10599.818    2822.1326   -55.716543   0.43266646 0.0025902984 0.0063910409 
 2708000    273.05937   -1073.6283    469.05288    -7515.715   0.49557966   -1682.4889   0.43266549 0.0025930741 0.0063858321 
 2710000    291.46346   -1074.5501    81.169097   -11358.904    2645.8112   -790.34906   0.43268915 0.0025904623 0.0063837248 
 2712000     325.4608   -1074.4575    1119.1744   -7785.4973   -2462.7467   -1224.5517     0.432756 0.0025880551 0.0063867491 
 2714000    272.10653   -1074.2065    4906.5091   -8965.5259    437.79127   -2283.2687   0.43280964 0.0025858551 0.0063870252 
 2716000    339.16369   -1074.6294    862.52767   -7021.4242    1215.4302   -510.61773   0.43278023   0.00258814 0.0063838207 
 2718000    280.75224   -1073.6094    1424.0392   -4231.8514   -748.48579   -1427.8075   0.43277017 0.0025882092 0.0063840572 
 2720000    310.04771    -1074.562    4218.1562   -10995.719   -2793.0035   -420.60461   0.43282527  0.002587006 0.0063789901 
 2722000     282.8116   -1073.7331    231.57163   -6204.8381    3155.1405   -4040.5116   0.43286815 0.0025850388 0.0063763866 
 2724000    290.94988   -1074.5356    3474.9437   -7667.3163    157.13536    1934.1262    0.4329638 0.0025830312 0.0063752092 
 2726000    323.65866    -1074.407   -3044.7332   -7377.4506    6287.4609   -3073.1151   0.43299385 0.0025814886 0.0063728828 
 2728000    295.38396   -1073.6754     779.9417   -7289.5226    117.28446    771.94446   0.43295603 0.0025840998 0.0063702268 
 2730000    306.38929   -1073.9536    2681.8943   -6558.4572    3881.3661   -1251.1703   0.43289817 0.0025916241 0.0063655815 
 2732000    313.66003   -1074.1358    1680.2969   -9831.6849    59.678906   -1016.2762   0.43290023 0.0025925688 0.0063656016 
 2734000    308.02788   -1074.1761    2976.7921   -8299.7974    1900.4751   -1568.7619   0.43299185 0.0025908647 0.0063675305 
 2736000    311.41599    -1073.841    1575.5117   -9488.0553    1.7601331   -441.39935   0.43305371  0.002588841 0.0063681778 
 2738000    296.23301   -1074.4059    2719.8038   -8227.3293    2097.4839    214.40967   0.43313002 0.0025879319 0.0063638727 
 2740000    279.97123   -1074.2551    1936.9729   -7290.1792    1060.4554    18.253578   0.43315319 0.0025867565 0.0063680585 
 2742000    296.47197     -1073.66    3326.8735   -6977.2342    329.16143    907.45625   0.43319631 0.0025847054 0.0063658019 
 2744000    292.99999   -1074.7673    581.04745   -6424.5493    1353.8687    -1167.573   0.43318696 0.0025864937 0.0063614214 
 2746000    294.41287   -1074.5185    6505.7283    -4767.281    942.38723    875.58643   0.43311849 0.0025845178 0.0063578263 
 2748000    297.10052    -1073.428    253.77043   -9327.9966    1906.7715   -3683.9978   0.43309397 0.0025888728 0.0063565869 
 2750000    325.59005   -1074.0532    762.10644   -8069.5578   -523.71619   -4453.9417   0.43308209 0.0025933481  0.006355892 
 2752000    284.44852   -1074.4886    3047.9616   -9721.2308    837.29519   -2187.1646   0.43311083 0.0025908039 0.0063568274 
 2754000    290.14742   -1074.5741    2723.2386   -10522.635   -120.44254    2433.2191   0.43326381 0.0025889527 0.0063534127 
 2756000    302.70534    -1074.629    4298.8853   -4337.6149    697.68432   -3568.5581   0.43325855  0.002587626 0.0063508373 
 2758000    288.70077   -1074.4964    2489.5087   -4991.1229    980.60361   -2488.2893   0.43317559 0.0025897121 0.0063503834 
 2760000     341.1726   -1074.6022    3420.0281   -8416.6489   -1442.7133    6.1856494   0.43310866  0.002590308 0.0063460137 
 2762000    292.90178   -1074.5523    1794.6427     -10017.7   -399.17315   -189.12546   0.43312367 0.0025884629 0.0063441843 
 2764000    290.57524   -1074.2209    4388.3868   -5396.5475   -2098.7627   -2837.4589   0.43316155 0.0025859426 0.0063531759 
 2766000    292.72803   -1074.0993    6222.7853   -10925.281    146.64354     1750.421   0.43325931 0.0025857747 0.0063544649 
 2768000    314.68961   -1074.2184    280.12773   -3899.0213    3854.5093   -1304.4928   0.43327198 0.0025893554 0.0063510655 
 2770000    290.47296   -1073.7034    5012.7946   -6275.4405   -549.81406    687.38149    0.4332009 0.0025944729 0.0063467474 
 2772000    317.55705   -1074.1956    3083.4301   -9176.4659   -897.03514    3141.4824    0.4331412 0.0025983724  0.006344056 
 2774000    304.90961   -1074.2436    861.92778   -7125.8934   -712.85586   -3026.9713   0.43318107 0.0025958355 0.0063470368 
 2776000    284.46233   -1074.7117    2650.5008   -7250.8169   -2032.5676   -2362.7828    0.4332303  0.002594012  0.006351948 
 2778000    310.68954   -1074.3292    4920.6492   -5861.7274    4672.1765    860.75961   0.43323288 0.0025937048 0.0063507752 
 2780000    280.76199   -1074.2011     3784.314   -9064.3334   -1693.9438    3808.7053   0.43326041 0.0025929396 0.0063459916 
 2782000    281.68747   -1074.4617    732.42749   -5675.1005   -63.040492    481.15545   0.43329277 0.0025909647 0.0063421829 
 2784000    294.13194   -1074.4438    4119.3847   -8703.3481   -920.12003    48.245217    0.4332901 0.0025894223 0.0063397416 
 2786000    298.41943   -1073.7925    902.59623   -10977.013   -1844.1638   -1468.7674   0.43328946 0.0025886622  0.006340985 
 2788000    292.89717   -1073.7985    2302.4622   -8224.4514   -153.74001    520.20939   0.43327292 0.0025865579 0.0063461543 
 2790000    304.57155   -1074.1421   -57.048309   -11224.889    1154.8124    1010.6121   0.43323413 0.0025850927 0.0063439428 
 2792000    304.86021   -1073.5638    2440.4479   -9067.0367     -20.3812     3349.162   0.43324865 0.0025866338 0.0063400054 
 2794000    291.39569   -1074.9016    2342.8665   -7725.0323    242.07172   -663.34546   0.43325937 0.0025853401 0.0063357993 
 2796000       281.53   -1073.7975    2291.5557   -8637.7716    2629.3877   -3045.1745   0.43330023   0.00258377 0.0063349151 
 2798000    319.72877   -1073.8747    1513.0039   -7237.5442    1095.9988   -927.17042   0.43339994 0.0025818312 0.0063338859 
 2800000    309.51421     -1074.18    1172.3203   -5819.4365    1154.7384   -2939.4617   0.43341649 0.0025809806 0.0063334116 
 2802000    301.18718   -1074.3737    1874.3456   -6923.3786   -201.39076    400.97333   0.43343397 0.0025817679 0.0063378488 
 2804000    282.23823   -1074.6982    4167.6811   -4574.1826    3070.9423   -2284.1957   0.43345064 0.0025875727 0.0063347631 
 2806000    305.67569   -1073.8492   -381.06487   -7731.4636   -2242.2606   -2412.1177   0.43338821 0.0025957399 0.0063305307 
 2808000     279.4742   -1075.0157    2850.4888    -6748.738    1802.6305    728.28442   0.43335788 0.0025957172 0.0063284041 
 2810000    300.09515   -1073.9263   -36.002133   -10589.217   -397.82005   -1704.4557   0.43338787 0.0025931249 0.0063250819 
 2812000    305.24575    -1074.582    715.67689   -11828.922   -882.41617   -4266.6846   0.43344767 0.0025918931  0.006322756 
 2814000    280.62885   -1074.3628    111.25335   -9173.4192   -761.16201    3248.3085   0.43349451 0.0025902936 0.0063204433 
 2816000    286.70207    -1074.156   -325.33039   -8263.5782    882.49015   -2072.2902   0.43352291 0.0025890072 0.0063159345 
 2818000    299.21767   -1074.1908    1782.8675   -5087.1761    2687.4416   -674.02317   0.43351336 0.0025960222 0.0063140137 
 2820000    254.27406   -1074.0536    4301.8315    -7989.294    2758.5435    11.499534   0.43346669 0.0025960342 0.0063126611 
 2822000    292.74083    -1074.261    1784.9832   -8401.4924    2006.3281   -1873.2335   0.43350826 0.0025958918 0.0063094611 
 2824000    277.31628   -1074.3394    5692.7329   -9053.3545   -4216.9106   -2197.7964   0.43352779  0.002594047 0.0063123639 
 2826000    291.28592   -1073.9557     741.8419   -8661.4353   -42.995643   -979.02189   0.43362742 0.0025920261 0.0063113103 
 2828000    306.72622   -1074.5306    1724.5254    -8853.908    710.74785   -3568.7636   0.43364708 0.0025899211 0.0063089211 
 2830000    271.78728   -1074.6174    2946.0028   -5491.7055   -1680.5645   -46.722881   0.43371327 0.0025889644 0.0063093681 
 2832000    302.73264   -1074.7255    -793.9126   -6720.1897     2498.608   -405.48141   0.43374078  0.002591668 0.0063061299 
 2834000    298.75434   -1073.9201    587.95766   -7957.0909   -1400.1824    3529.6753   0.43372434 0.0025919192 0.0063025025 
 2836000    299.31846   -1074.1636    1983.1677   -7008.1742   -293.63322   -1043.2903   0.43370358 0.0025934754 0.0062996444 
 2838000    310.06326   -1074.0558     4762.335   -8947.8491   -818.70861    2134.0299   0.43365923 0.0025921746 0.0063019301 
 2840000     351.0782   -1074.4235    2484.9958   -7363.7667   -322.55127   -2224.5533   0.43366544 0.0025907535 0.0062992222 
 2842000    296.64234   -1074.0476    2500.5021   -8191.9499   -47.242762   -1230.2466   0.43371473 0.0025885167 0.0062988604 
 2844000    301.64007   -1074.1503    3248.8406   -9761.1791   -2539.2266   -419.89181   0.43381234 0.0025880016 0.0063077143 
 2846000    255.47093   -1073.6722    5758.2339   -7757.2834    666.93109   -2908.9994   0.43388378 0.0025856351 0.0063067129 
 2848000    285.84189    -1074.015    4047.6225   -6870.1141    4480.2826     1482.305   0.43380926  0.002586117 0.0063029629 
 2850000    306.22739   -1074.1167    6741.5409   -6689.6901   -290.63803    813.41716   0.43372305 0.0026017843 0.0062997161 
 2852000    249.70894   -1073.7954    3562.7411   -7496.6997    2051.2609    21.319934   0.43367804 0.0026031734 0.0063040954 
 2854000     309.9623   -1074.3581    3814.4654   -6151.7053   -462.97318   -11.690749   0.43369999  0.002602353 0.0063000497 
 2856000    271.67291   -1074.4353     1110.696   -5658.1981    2696.6966   -2039.0864   0.43370867 0.0026004519 0.0063006973 
 2858000     307.2829   -1073.9687    2880.7493   -8856.0598    1738.4011   -402.00136   0.43374547 0.0026006449 0.0062979315 
 2860000    328.17366    -1074.408    1772.5719   -6497.7769    2373.3129    -105.4362    0.4338349 0.0026004859 0.0062935363 
 2862000    289.89909     -1073.35    1168.2233   -8942.4429   -1522.8295    783.29461    0.4338445 0.0025990363 0.0062917288 
 2864000    294.69109   -1073.3263    4364.6347   -8224.2286    570.52361   -1676.6382   0.43384154 0.0026006826 0.0062954479 
 2866000    289.74249   -1074.2963    1159.0295   -9040.2583    53.912945    141.07577   0.43388376 0.0025988218 0.0062936528 
 2868000    313.91627   -1074.9387    1523.9882    -4785.993    138.93626   -1158.2509   0.43391191 0.0025966172 0.0062910897 
 2870000    307.82494   -1074.1156    809.03241   -6445.0372    1251.4715    1344.2642   0.43387254 0.0025975987 0.0062920708 
 2872000    311.86154   -1074.1319    3885.1436   -5369.3833    191.99303   -1173.7747   0.43382099 0.0025962765 0.0062909053 
 2874000    292.14861   -1073.8602    5457.8178   -10274.742   -921.49456   -613.40542   0.43388255 0.0025948513 0.0062881991 
 2876000    269.20473   -1074.0889    1970.5307   -7085.3448   -73.693279    583.63214   0.43390817 0.0025931499 0.0062861888 
 2878000    292.86219   -1074.7245    2393.9513   -9845.3091    3668.0895   -685.16915   0.43394115 0.0025914915 0.0062836599 
 2880000    296.13284   -1074.6903    975.75173   -7653.3551   -2829.4184    1443.5151   0.43397357 0.0025964044 0.0062802473 
 2882000    324.44038   -1074.0674   -374.29143   -10246.374   -1408.5289   -2558.9901   0.43401709 0.0025952158 0.0062803533 
 2884000    293.66601   -1074.6652    2837.3915    -9871.775   -410.03908   -115.13548   0.43405935 0.0025931887 0.0062834906 
 2886000    292.18932   -1074.3745     -515.011   -4758.9304   -1386.8874    2082.9633     0.434108 0.0025921104 0.0062787234 
 2888000    294.28368   -1074.3749   -647.65591   -6912.5813    1429.0325   -696.87731   0.43403304 0.0025934244 0.0062796238 
 2890000    285.38858   -1074.4064    7114.6299   -9278.9545    228.20454    537.38698   0.43400546  0.002596429 0.0062761904 
 2892000    340.10386   -1074.6048    6647.7825   -8134.2205   -324.68314   -3779.9002   0.43405908 0.0025996305 0.0062774572 
 2894000     301.4993   -1074.6018    3719.3825   -10102.425    2227.6137   -2070.8652   0.43410103  0.002597783 0.0062799445 
 2896000    299.58218   -1074.3086    3946.2988   -6398.9197     1400.681   -1042.2243   0.43411529 0.0025961443 0.0062766514 
 2898000    302.51618   -1074.2784     4600.395   -8653.1617    103.66424   -1043.7666   0.43412384 0.0025942378 0.0062730929 
 2900000    256.00297   -1074.3089    136.03788   -7394.7014    3161.4562   -4315.0501   0.43416615 0.0025927005 0.0062750461 
 2902000    295.93362   -1073.6924    4287.3729   -5608.1092   -647.84377   -818.20582   0.43413964 0.0025906655 0.0062755305 
 2904000    310.16645   -1074.7413     209.9475    -6125.509    862.29218   -4035.9089   0.43411712 0.0025889865 0.0062764793 
 2906000     289.9397   -1074.6082    4726.5305   -7690.8933    1865.2925    4129.1082   0.43413618 0.0025891995  0.006273867 
 2908000     299.0463   -1074.7798    773.29938   -11780.445   -1725.1372   -1261.1637   0.43416461 0.0025879314 0.0062696021 
 2910000    316.67955   -1074.6424    1439.8032   -8542.3048    605.55712   -871.98119   0.43421122 0.0025858946 0.0062705901 
 2912000     300.7477   -1073.8638   -160.71024   -8251.6608   -2762.1563    1193.4378   0.43423371 0.0025842625 0.0062664654 
 2914000    271.20646   -1074.5426    4209.3258   -7809.5264    480.28684   -1840.8276   0.43424249 0.0025826375 0.0062664824 
 2916000    304.82126   -1074.3674   -1335.7235   -7273.8788    861.24202   -2574.2479    0.4342397 0.0025831548 0.0062641758 
 2918000    286.14562   -1073.8822   -1452.2693   -8728.0656   -270.01234   -1697.0876   0.43421496 0.0025865939 0.0062609316 
 2920000    284.74489   -1075.2005    484.58181   -7599.0284    167.86753   -5771.0341   0.43419484 0.0025846492 0.0062616544 
 2922000    276.09064   -1074.1738    5173.5563   -7073.2849     2635.594    1123.3054   0.43424429 0.0025830021 0.0062635162 
 2924000    295.23233   -1074.5831    2853.7843   -11519.971    3880.0133   -530.93085   0.43431052 0.0025822197  0.006269854 
 2926000    282.65543   -1074.5137    1696.0576   -9661.4913    133.96816    118.68097    0.4343735 0.0025805957  0.006267534 
 2928000    307.82193   -1074.2205    2315.8367   -5997.3827   -482.45103    2303.5073   0.43437967 0.0025787507 0.0062640379 
 2930000    275.22929   -1073.8166    3179.3239    -8407.592    2940.2556   -1017.6043   0.43435176 0.0025777604   0.00625952 
 2932000    267.13599   -1074.0459    5479.0734   -7699.2937   -1280.1842   -1458.3438   0.43433222 0.0025778081  0.006256025 
 2934000     290.8562   -1074.6397     228.6184   -8885.7333   -639.04762    672.16577   0.43433175 0.0025769915 0.0062538911 
 2936000    308.48826   -1073.7228    3158.5239   -7689.8062     1663.902   -1610.3754   0.43433396 0.0025761951 0.0062553955 
 2938000     270.8441   -1073.1606    2187.5545   -8269.9162   -1094.5083    -772.4789    0.4343779 0.0025739744 0.0062556465 
 2940000    325.16347   -1073.9102     2113.945   -11583.341     1994.385    -161.9687   0.43446308 0.0025734811  0.006252514 
 2942000    324.49439   -1074.0699    1695.0168   -4462.6375    1768.9583   -1045.7134   0.43450579 0.0025735388 0.0062502081 
 2944000    264.03215   -1074.6019    4037.8013   -5897.3419   -711.78978   -177.47848   0.43449102 0.0025711523 0.0062498861 
 2946000    277.13779   -1074.6695    1212.5228   -7859.0873   -510.44364     839.0911   0.43455884 0.0025699281 0.0062466835 
 2948000    299.81323   -1075.1422    651.48395   -9070.3324    3532.2401   -2121.9438   0.43462759 0.0025687257 0.0062439477 
 2950000    271.62202   -1075.1317    1928.0391   -8228.9487    359.44939   -230.59115   0.43460026 0.0025746534 0.0062556164 
 2952000    317.16022   -1073.8685    3182.3469   -8233.4418   -880.69456    412.69842   0.43456578 0.0025784842  0.006252634 
 2954000    310.24295    -1073.337    3974.1634   -7995.3709   -856.44239    1063.6851   0.43457673 0.0025762811 0.0062490671 
 2956000    322.86255   -1074.1593    1988.7474   -5915.9181   -619.60907    796.93002   0.43463389 0.0025748934 0.0062488077 
 2958000    312.76763   -1074.0233    961.38926   -10716.224   -218.54976   -4241.3503   0.43467807 0.0025732743 0.0062519074 
 2960000    293.49621   -1074.2341    3605.4615   -10015.345    684.17576   -380.69213   0.43473774  0.002571456 0.0062482766 
 2962000    281.21268   -1074.2384    43.579432   -8127.9285   -1461.5164   -4426.0972    0.4347622 0.0025708178 0.0062441163 
 2964000    273.25438   -1073.8607   -171.90044   -6398.2609    680.08703   -1842.8819    0.4347264 0.0025709827 0.0062406128 
 2966000    280.45595   -1074.3089    6162.7912   -8431.2835    1138.2537    727.98261   0.43466465 0.0025745282 0.0062368332 
 2968000    300.26843   -1074.4508    56.577222   -8038.8693    1877.9577   -1474.8391   0.43467792 0.0025746908 0.0062413718 
 2970000     305.9078   -1074.6339    5593.4399   -8128.6543   -2057.4672    859.03201   0.43467082 0.0025731086 0.0062424107 
 2972000    342.40885   -1074.2406    3361.3612   -7941.8896   -1632.0546    60.965259   0.43474453 0.0025721358 0.0062372531 
 2974000    291.08942   -1073.7373    3423.2876   -5842.4865   -793.50136    -2195.496   0.43477239  0.002571919 0.0062377705 
 2976000    342.44176    -1073.886    1808.6744    -6591.466    28.004799    465.64209   0.43475029 0.0025706352 0.0062381512 
 2978000    307.62609   -1074.5503    55.228619   -7796.5835   -223.98191   -3445.4298    0.4347422 0.0025715253  0.006234355 
 2980000    291.73602   -1073.3029    2083.8359   -6142.9276   -1804.6558    1096.4813   0.43473621 0.0025721486  0.006230486 
 2982000    315.09709   -1074.2437    5115.7855   -8016.2441   -1533.1655   -1165.7858   0.43477037 0.0025702816 0.0062308694 
 2984000     321.3075   -1074.7042    -509.0415   -11411.002    -1412.543   -614.23546   0.43488972 0.0025685705 0.0062285815 
 2986000    307.79086   -1074.1845    1116.9914   -6800.9861   -2259.8749   -1886.6835   0.43501116 0.0025689761 0.0062257368 
 2988000    290.74324   -1074.0853    2873.1657   -11368.225    3199.9142    142.53629   0.43501162 0.0025681979 0.0062224812 
 2990000    311.44039   -1074.3122    3671.3959   -8912.7173   -393.71037    1203.0438   0.43504925 0.0025671324 0.0062183394 
 2992000    298.01242   -1074.1625    4768.1633   -10257.641    2409.8573   -51.048887   0.43510449 0.0025661211  0.006216974 
 2994000    323.85843   -1074.5634    3854.6066   -8749.1324   -1496.1319    909.46292     0.435103 0.0025694635 0.0062182468 
 2996000    292.23086    -1073.807    1785.8239   -4321.9183    1005.3352    2571.6067   0.43508282 0.0025718181 0.0062151666 
 2998000    313.74387   -1073.7565    4374.9021   -9384.3706    641.26963   -1425.3174   0.43505877 0.0025702803 0.0062132731 
 3000000    272.21298   -1074.3141    3477.3602   -8165.2073    2108.4306    -2440.625   0.43507738 0.0025687251 0.0062102234 
 3002000    306.55968    -1074.195    2186.8157   -5937.3252    -3573.417   -1910.0711   0.43515859 0.0025672482 0.0062112042 
 3004000    261.28075   -1074.3259    1673.6536   -7986.1808     2634.938   -1435.6255   0.43520186  0.002565032 0.0062133613 
 3006000    301.74845   -1073.7652    401.66772   -6094.4164    3079.5189    1866.1213    0.4352031 0.0025699007 0.0062086244 
 3008000    319.68162   -1074.1938    4291.9814   -5865.8208    1098.7718   -379.70628   0.43514527 0.0025762801 0.0062064166 
 3010000     278.5575   -1073.9813    3150.6289   -6752.8015   -247.70668    1171.0549   0.43514789 0.0025752228 0.0062056768 
 3012000    302.10712   -1074.9037    2816.4667   -9140.8475   -420.85392   -1392.1169   0.43516984 0.0025733428 0.0062090126 
 3014000    318.50308   -1074.0939    307.74016    -8466.728    1147.1186   -1752.2853   0.43522137 0.0025717124 0.0062051581 
 3016000    277.52849   -1074.8086    1958.3859   -8188.2749    1689.1106   -2082.4802   0.43526601 0.0025726677 0.0062035648 
 3018000    288.83514   -1074.5032    3313.7522   -7594.7991    1398.4489     727.4014   0.43530864 0.0025709184 0.0062006224 
 3020000    288.48588   -1074.4147    3424.6763   -7937.0385    1057.2575   -1414.1892   0.43527342 0.0025719095 0.0061971462 
 3022000    304.73238    -1074.008    6831.3043   -10729.083    2460.7501    3247.7029   0.43528241 0.0025758269  0.006200198 
 3024000    295.29286    -1074.222    6145.4717   -7322.2131   -1469.4655    196.38552   0.43532711 0.0025768976 0.0062060706 
 3026000    291.21547   -1073.8754   -294.06562   -9435.5758     441.6564   -1806.2203   0.43535944 0.0025784194 0.0062038243 
 3028000    308.11739    -1074.765    5884.7684   -10657.442     -2333.63    1193.5551   0.43538299 0.0025775464  0.006199894 
 3030000    271.99942   -1074.5033   -2686.3257   -4996.2335    601.93688   -1971.5398   0.43538463  0.002579477 0.0061971891 
 3032000    316.48422   -1074.1241   -1967.4175   -10688.327   -3118.5396    -339.6124   0.43537708 0.0025783273 0.0061945157 
 3034000    284.43154    -1074.303    102.58759   -6698.2283   -3216.7652   -3347.8788   0.43541412 0.0025775038 0.0061984698 
 3036000    335.99859   -1075.0529    -1132.058   -7327.7991    2204.0703   -269.40994   0.43544072 0.0025763006 0.0062019972 
 3038000     329.5702   -1074.2975   -294.05369   -8359.5176    3970.4235   -177.49906   0.43547152 0.0025778428 0.0061989758 
 3040000    276.80541   -1074.1666    4902.2826   -7581.7413   -2802.1521   -2217.9786   0.43545882 0.0025761676 0.0061954365 
 3042000    318.20975    -1073.746    636.86274   -8135.7562    1995.6378   -3845.2908   0.43542469 0.0025755137 0.0061935417 
 3044000    309.65917   -1074.9878    2841.8958   -8421.9322    883.52922    2022.3485   0.43542309 0.0025760435 0.0061931421 
 3046000    306.48124   -1074.4686     1891.318   -10488.631   -1422.1572   -2201.2069   0.43549763 0.0025741162 0.0061931859 
 3048000    281.53455   -1074.4564    4267.5846    -8594.821    467.24914   -4507.5117   0.43553726 0.0025744283 0.0061927739 
 3050000    298.96693   -1074.0191    4737.8135   -8483.2562   -1281.2918    204.23739   0.43552788   0.00257544 0.0061904104 
 3052000    279.85487   -1073.5479   -1651.3195   -6502.0642   -1455.5925   -5113.7565   0.43549633 0.0025741563 0.0061865373 
 3054000    301.03104   -1073.6467    3978.7829   -8378.0016   -1642.6378   -1272.0742   0.43551181 0.0025742463 0.0061850317 
 3056000     312.4542   -1074.6581    362.43962    -8552.929   -1335.9145   -3896.4709      0.43557 0.0025728616 0.0061847148 
 3058000    251.87114   -1073.9385   -787.19309   -7319.7854    753.70571   -1333.1943   0.43558371 0.0025705505 0.0061883661 
 3060000    261.59742    -1074.455    743.86891   -11692.394    -1538.287    2971.8995   0.43560399 0.0025690698 0.0061892508 
 3062000    304.14846   -1074.2508    2784.7179    -7347.186    1893.9043    2371.7601   0.43558733 0.0025756818 0.0061851789 
 3064000     304.4343   -1074.7562    5992.1376    -5587.682   -92.120142    1377.2764    0.4355857 0.0025758817 0.0061812471 
 3066000    296.11388   -1074.3921    4906.0254   -11087.782   -1875.7523    17.998066   0.43558598 0.0025742328 0.0061810389 
 3068000    269.18952   -1074.5142    545.20618   -10008.688   -411.04098     102.3114   0.43565639 0.0025727631 0.0061781886 
 3070000    292.24591   -1073.4946    3228.4207   -6219.4228   -949.35342   -1732.3468   0.43564875 0.0025714933 0.0061766361 
 3072000    305.62405   -1073.9915    5413.4217    -10743.17    312.61355    1781.4444   0.43563887 0.0025739902 0.0061793505 
 3074000    285.27017   -1074.7005   -707.23535   -7646.0741    3112.2315    1386.1451   0.43565788 0.0025779025 0.0061777853 
 3076000    270.02101   -1074.5972    3921.9703   -7957.2205   -549.78947    425.21004   0.43565482 0.0025816456 0.0061774332 
 3078000     284.0154   -1074.1023    5319.3481   -4421.2939    3101.3132    -2131.204   0.43571645 0.0025800488 0.0061726502 
 3080000    299.67596   -1073.9658    519.28531   -8893.5755   -813.61975    311.50323   0.43579802 0.0025786432 0.0061713137 
 3082000    300.23268   -1074.3204    3028.4771   -8623.1356   -1265.4429   -1124.5424   0.43576211 0.0025770544 0.0061724614 
 3084000    275.50466   -1074.4237   -291.16033   -11254.257   -848.14782    2366.4198   0.43575595 0.0025748505 0.0061732692 
 3086000    299.74914   -1074.8309    3135.3675   -10610.665   -329.82927    784.46965    0.4358111  0.002576721 0.0061694626 
 3088000    290.37231   -1074.2625   -330.31051   -10085.354   -475.39906   -321.27051    0.4358103 0.0025775796 0.0061673155 
 3090000    289.33577   -1074.4467    3945.9088   -6912.0922    3213.4391     1916.194   0.43582257 0.0025796853 0.0061691937 
 3092000    289.82496   -1073.9183    1082.0432   -8080.7758     968.4954    940.69019   0.43578594 0.0025812057 0.0061669766 
 3094000    321.91504   -1074.2723    5324.7463   -8222.0544    930.36558   -1420.2896   0.43574046 0.0025794676 0.0061637774 
 3096000    306.64984   -1074.6664    4843.6489   -8826.5949   -992.37852   -1613.1577   0.43570251 0.0025781445 0.0061648959 
 3098000    289.59635   -1073.9734    1795.8317   -8735.9843   -971.08986    733.59331   0.43571234 0.0025825132 0.0061630768 
 3100000    306.27059   -1074.6785    3187.0856   -7818.8561    3855.9131      1596.48   0.43574121 0.0025811902 0.0061591032 
 3102000    258.10619   -1074.4272    2677.6331   -5782.5686    619.77191   -4460.5466   0.43579034 0.0025838453 0.0061558584 
 3104000    286.44289   -1074.1309    3813.3538   -8840.7694    -3299.515   -818.01354   0.43582962 0.0025846285 0.0061546077 
 3106000      284.461   -1074.4677   -965.07634   -7515.8384   -1756.1498   -3374.3323   0.43584295 0.0025819582 0.0061627152 
 3108000    274.56818   -1073.7961     5259.212    -7830.324    807.60326   -895.46048   0.43584046 0.0025808004 0.0061645572 
 3110000    310.82777   -1073.6293    555.52024    -10305.02   -520.67265    655.53983   0.43586785 0.0025803164 0.0061613922 
 3112000    338.60506   -1073.9511    2738.7062   -10676.931   -890.94786   -468.72565   0.43583134 0.0025856756 0.0061574249 
 3114000    283.29471    -1074.056    21.901335   -7740.5621   -794.61052   -286.16179   0.43582507 0.0025868283 0.0061542072 
 3116000    302.62017   -1074.1843    3463.3063    -6339.956    -186.7546   -722.07337   0.43584022 0.0025857418 0.0061555994 
 3118000     298.4029    -1074.293    3007.4429   -7000.9665   -439.10069   -3058.8507   0.43591666 0.0025841216 0.0061494512 
 3120000    283.03303   -1074.2321    854.24798    -7069.436    2618.9536   -1229.2378   0.43594617 0.0025823762 0.0061504595 
 3122000    297.39966   -1074.3987    3722.4538   -9443.2165   -3268.4014    -2367.023   0.43594285 0.0025819793 0.0061478384 
 3124000    267.47523   -1074.6948    2551.7449   -10823.876    291.95181   -1427.9923   0.43593063 0.0025819595  0.006146895 
 3126000    286.84442   -1074.6855    4078.9262   -6850.1779    6289.0482   -2433.7673   0.43602572 0.0025807622 0.0061425004 
 3128000    322.88354   -1074.1203    8103.5438   -9547.6548   -2076.7577   -3584.9638   0.43609217  0.002582748 0.0061412175 
 3130000    314.67991   -1074.5626    3129.2069   -6246.9677    1654.7342    273.72785   0.43611186 0.0025810659 0.0061401211 
 3132000    297.13862   -1074.1657    3114.8432   -9792.2686   -3915.3586   -2595.1517   0.43612025 0.0025847302 0.0061375006 
 3134000    275.12737   -1074.5543    5071.2785   -6793.7055    -373.4778   -3415.3171   0.43610796 0.0025818673 0.0061356649 
 3136000    287.97115   -1074.0157    305.25636   -6501.1573    990.55568   -1971.7418   0.43609556 0.0025873511 0.0061327972 
 3138000    302.89502    -1074.435    805.08084   -6550.7527    4794.9739   -577.23837    0.4361249 0.0025830763 0.0061299154 
 3140000    308.43344   -1074.9084     4004.118    -9899.412    1143.7826   -2460.4016   0.43612464 0.0025839948  0.006130432 
 3142000    271.99734   -1073.3575    2208.5662   -8096.2053    4101.7378    2229.8504   0.43618935 0.0025840767 0.0061300234 
 3144000     324.6362   -1072.9187    268.38974   -8142.2137    2450.3783    2202.9143   0.43624196 0.0025816195 0.0061259627 
 3146000    302.71485   -1073.8573    5722.4034   -6527.3054   -897.83651    1865.2957   0.43621381 0.0025820412 0.0061228083 
 3148000    256.07109   -1073.6793    3512.2779   -10384.213    1614.4127    2010.9247   0.43619178 0.0025801272 0.0061214228 
 3150000    301.95629   -1074.5167    1053.4579   -8880.7569   -636.47765    2461.8622   0.43621557 0.0025795365    0.0061182 
 3152000    292.26093   -1074.5682    3691.8006   -7522.5887   -3472.3284   -2734.9869   0.43625234 0.0025783339  0.006115666 
 3154000    285.44342   -1074.4359   -65.524649   -6515.4224    3450.7899   -2528.2305   0.43628731  0.002576921 0.0061171977 
 3156000    277.44418   -1074.0546     942.4249    -10926.79    79.720224   -2039.7459   0.43629839 0.0025764871 0.0061167664 
 3158000    293.70709   -1074.9296    3375.6387   -6032.3174    4616.1235   -27.808996    0.4362976 0.0025754865  0.006114054 
 3160000    280.19485   -1074.5242    2852.8513   -7009.3905   -1618.4717    579.60218   0.43626981 0.0025774414 0.0061101748 
 3162000    296.06841    -1074.194    2778.0649   -9527.5419   -2085.1782   -631.66935   0.43628988 0.0025784038 0.0061075926 
 3164000    283.34145   -1074.4673    4691.5502   -12284.817   -1410.2014    1657.9214   0.43630442 0.0025765193 0.0061052012 
 3166000    300.14906   -1073.9767   -4442.6982   -4899.4868    2855.5055    974.27955   0.43633219 0.0025778068 0.0061055788 
 3168000    308.33684    -1074.274    4851.0195   -7708.5883    552.86875    707.25998   0.43633625 0.0025773437 0.0061073307 
 3170000     304.0998   -1073.1044    1692.1187   -8344.3629    1804.3942   -136.85687   0.43636417  0.002575854 0.0061032221 
 3172000    288.13875    -1072.919    1615.6352   -5634.8227   -197.60425    1028.8137   0.43640456  0.002574523 0.0060995801 
 3174000    332.90937   -1073.8071    1185.2532   -9256.8816   -309.86033   -2896.0086   0.43638011 0.0025738435 0.0060962856 
 3176000    288.06693   -1074.1525   -216.82605   -8374.8472   -1472.1016   -1070.3585   0.43636918 0.0025725345 0.0060949223 
 3178000    288.75991   -1074.3336    853.88347   -7853.5231    -688.7329    -3947.557   0.43638833 0.0025736863 0.0060947223 
 3180000    302.58162    -1074.342   -1421.3141   -8419.7374    1237.0946    -3801.169   0.43642064 0.0025749001 0.0060957655 
 3182000    302.83583   -1074.9459    2984.2193   -6184.6826   -410.16588   -3063.0173   0.43642332 0.0025748696 0.0060984865 
 3184000    312.85009    -1074.243   -1106.4241   -8275.1735    1895.9708    2174.6936   0.43645383  0.002573759 0.0060946795 
 3186000    268.58156   -1073.4141    3961.4947   -6360.0401     661.4665   -551.05831   0.43645217 0.0025722527  0.006091036 
 3188000    298.44425   -1073.7807    5821.9329   -7259.8766   -152.31546    1034.9814   0.43645762 0.0025706432  0.006091189 
 3190000    282.05401   -1074.7366    1158.3444   -9614.9896    1077.4476   -1577.6769   0.43652265 0.0025689546 0.0060889491 
 3192000     326.5271    -1074.658    5521.5209   -6713.0404     2856.789   -433.73962   0.43658154 0.0025674803 0.0060952975 
 3194000    296.26164   -1074.6535    5550.8298   -6106.7668    3081.2325    500.41953   0.43657418 0.0025669078 0.0060948947 
 3196000    306.86499   -1073.8708    3195.4228   -11229.081    2174.9385    -960.0049   0.43656599 0.0025667594 0.0060916062 
 3198000    296.75505   -1074.5639    3777.1435    -6246.339   -1505.2193   -1794.9252   0.43659174 0.0025653714 0.0060906243 
 3200000    280.69507    -1074.182    4435.7518   -8406.9193   -529.59445    1187.3483   0.43659652 0.0025637711 0.0060884513 
 3202000    321.36898    -1074.373    1195.1334   -8885.7799    2430.4781   -1951.6994   0.43661855 0.0025627327 0.0060863315 
 3204000    294.31526   -1074.3192    888.98111   -6735.3274   -1418.0349    -396.5137   0.43667005 0.0025623494  0.006087306 
 3206000    304.30909    -1074.036    1345.5113    -4229.786   -67.557338   -1082.1099    0.4366651 0.0025609723 0.0060850515 
 3208000    279.73724   -1074.3021    859.40389   -8402.4982    3287.0215    55.388147   0.43669509 0.0025598043 0.0060820687 
 3210000    290.95897   -1074.6317    2305.4083   -8893.2416    1535.1978    -1389.481   0.43669403 0.0025617333 0.0060812966 
 3212000    326.33416   -1074.1553    2955.8861   -11089.548    173.71753    601.01715   0.43672963 0.0025597884 0.0060809275 
 3214000    318.76159   -1074.4041    3115.0077   -8381.2451     2318.502    240.46387   0.43677573 0.0025594129 0.0060785263 
 3216000    306.97569   -1073.8516    2981.6356   -7053.5385   -592.29086   -4600.7886   0.43680799 0.0025576422 0.0060769161 
 3218000    316.73796   -1073.7802    6429.0214   -6920.3953   -681.55993   -2220.9544   0.43682453 0.0025564879 0.0060753738 
 3220000    292.38259   -1074.0624   -2442.1743    -10725.05    455.09345   -278.71189   0.43682524 0.0025568167 0.0060749349 
 3222000    310.76082   -1073.8102    6816.0725   -8150.5174   -732.28896   -310.71642   0.43679266 0.0025567276 0.0060725299 
 3224000    281.07606   -1074.1679    3678.6882   -10330.762    -949.7447   -1306.0451   0.43679289 0.0025565905 0.0060706769 
 3226000    293.06877    -1074.355    3703.8227   -9000.6164    1764.5452     916.1415   0.43680106 0.0025546621 0.0060706447 
 3228000    303.97163   -1074.3939    2093.0067   -6622.3685   -1651.2879   -11.192406   0.43682356 0.0025535577 0.0060685845 
 3230000    324.53243   -1073.8848   -4264.3505    -8465.528    3689.8821    1240.2899   0.43681811 0.0025539085 0.0060651306 
 3232000    278.63034    -1073.498    741.34206    -4908.808   -1008.2084   -3243.3226   0.43683169  0.002555235 0.0060614804 
 3234000    293.32109   -1073.7086    2931.8678   -6294.3694    1009.8494   -648.84376   0.43684818 0.0025536282 0.0060585321 
 3236000     256.4362   -1074.2762    13.351654   -9171.4254    950.03849   -1613.4638   0.43689183 0.0025541673 0.0060573668 
 3238000    276.54673   -1074.2788    1252.6086   -7955.5859     2180.029   -1908.1043   0.43694554 0.0025511929 0.0060659761 
 3240000    321.23659   -1074.0135    3274.8817   -8118.4253   -1392.3147   -1674.2356   0.43696325 0.0025497712 0.0060652324 
 3242000    330.44632   -1073.9351   -1117.0605   -7896.5055   -204.03955   -902.01842   0.43695667 0.0025505584  0.006062703 
 3244000    298.16846   -1074.6658    1015.8467   -7066.0612    412.11908   -2771.6742   0.43688443  0.002556927  0.006063358 
 3246000    271.92831   -1074.5376     610.2807   -6398.1334    817.35065    383.81809   0.43689408 0.0025579553 0.0060598832 
 3248000    324.52853   -1073.9832    1155.6354   -7531.1998    1863.1852   -3381.5831   0.43693565 0.0025569496 0.0060613195 
 3250000    278.26967   -1074.1675    5689.0361   -10015.546    541.95493    2063.4782   0.43694248 0.0025562961 0.0060641273 
 3252000     313.2456   -1074.3042      4655.01   -7998.1582    1938.0243   -948.38271   0.43696015 0.0025582002 0.0060618814 
 3254000    291.44559   -1074.3211    1246.2298   -7281.7704    3070.4536    2034.3369   0.43691442 0.0025593656 0.0060585021 
 3256000     284.0675   -1074.4613    1476.7244   -10047.818   -270.25966     1056.355    0.4369411 0.0025585878 0.0060541971 
 3258000    309.30559   -1074.1883    1759.4479   -7208.8815   -625.15573   -3859.1142   0.43699353 0.0025571919 0.0060620152 
 3260000    262.25445   -1074.7011    1482.6896   -7487.5883    281.99331    811.54002   0.43695693 0.0025554449 0.0060725316 
 3262000    277.07042   -1073.8932     6210.906   -8372.7972   -643.50674    1574.8834   0.43694371 0.0025553153 0.0060684637 
 3264000    273.07209   -1074.4424    5188.0643   -6936.0618   -429.32201    729.04689    0.4369044 0.0025555929 0.0060645821 
 3266000    284.37229   -1073.9057    3167.8288   -9690.2195    2030.1927   -495.14629   0.43686335 0.0025587893 0.0060609189 
 3268000    295.30523   -1074.0796    4759.6301   -5963.7202   -497.51365   -2336.8418   0.43690533 0.0025583494 0.0060587958 
 3270000    289.14758   -1074.1966    1947.0415   -8004.5536    2396.1974    923.50679   0.43693857 0.0025589404  0.006060118 
 3272000    316.89606   -1074.6589    2331.2668   -6832.4693    2806.1243    -2866.436   0.43700242 0.0025576049 0.0060592395 
 3274000    290.52073   -1074.0792     3919.215   -8213.7737    1730.1337    710.69328   0.43703851 0.0025562611 0.0060586402 
 3276000    308.67739   -1074.5995     5645.822   -7129.5051     2209.288   -2369.2029   0.43703533 0.0025544864 0.0060558665 
 3278000     271.6112   -1074.2859    2053.7373   -9944.9137    4660.3786    1052.0256   0.43700225 0.0025591336 0.0060539669 
 3280000    339.72918   -1074.5844    1075.9658   -9031.4676   -2615.0614   -2966.8447   0.43698614 0.0025647339 0.0060502975 
 3282000    305.63121   -1074.1466    1784.9196    -9632.392    912.19997   -2834.9813   0.43705989 0.0025639236 0.0060500103 
 3284000    280.68194    -1073.851    542.48668   -6351.4777   -100.44134   -3201.7564   0.43710616 0.0025621953 0.0060509918 
 3286000    296.78982   -1075.0266    6430.0105   -7244.2508    3360.7001    -3741.239   0.43714283 0.0025606552 0.0060555249 
 3288000    290.72156   -1073.3769    3972.3625   -9357.0263   -2531.9649    2456.3418   0.43716812 0.0025596224 0.0060549427 
 3290000    304.29194   -1074.1775    1909.2317   -6563.8881   -577.04769    610.73145   0.43714946 0.0025579198 0.0060510603 
 3292000    282.38554   -1073.9467    2778.6902    -10131.58    3257.2232   -850.28255   0.43711817 0.0025625972 0.0060530546 
 3294000    265.68358   -1074.6887    766.59884   -7613.8584    161.54972   -359.47274   0.43711762 0.0025651876 0.0060559917 
 3296000    290.34859   -1074.2096     1958.962   -8411.6182    2135.3099   -2298.3749   0.43717534 0.0025640427 0.0060539473 
 3298000    303.40354   -1074.8908    476.06184   -9357.9535    168.94196    1489.5682   0.43716996 0.0025635379 0.0060532998 
 3300000    291.27309   -1074.1249    352.03499   -10074.053   -73.698199   -1829.5257   0.43714389 0.0025630026 0.0060539365 
 3302000    319.71685   -1073.7287    2225.6276   -11025.108    5142.9342    1769.9455   0.43717576  0.002561517 0.0060523455 
 3304000    308.58736   -1074.2531    2205.8987   -7905.0953   -13.360318   -1735.5889   0.43720135 0.0025605816 0.0060491093 
 3306000    293.25464   -1073.6432    3280.8691   -8677.6315   -1048.7798    -2243.402   0.43720299 0.0025594767 0.0060490546 
 3308000    284.14313   -1074.3498    4482.8645    -9267.163    2517.8817    340.28179   0.43724065 0.0025580755 0.0060544264 
 3310000    299.48316   -1074.9024    3169.8295   -7633.0341    445.97029   -220.50409   0.43727575 0.0025567324 0.0060517073 
 3312000    297.00318   -1074.0715    7128.6941   -9558.1072   -1287.3849    -3319.494   0.43729079 0.0025549814 0.0060513636 
 3314000    324.58488   -1073.9263    3227.1728   -4917.0877    1177.8001   -1948.6599   0.43737351 0.0025538529 0.0060495452 
 3316000    292.85668   -1073.8571    1842.6301   -7589.4136    761.14805   -388.25665   0.43736243 0.0025534691 0.0060471522 
 3318000    279.90259   -1073.2455    335.00633   -7620.1245     2833.876   -349.69218   0.43738652 0.0025518828 0.0060439621 
 3320000     286.4758   -1074.4406    3606.3542    -9407.923    1451.9588   -1954.2961    0.4374209  0.002551145 0.0060445168 
 3322000    291.37722    -1074.095   -1783.3008   -7174.7148    1619.3501   -1530.6645   0.43744532 0.0025498166 0.0060413086 
 3324000    293.69401   -1074.4631    6559.5219   -9341.4901   -999.28372    -416.5817   0.43738677  0.002548646 0.0060482593 
 3326000     338.1006   -1074.4794    4617.1965   -6630.8341    1427.5417    502.65765   0.43741944 0.0025481527 0.0060435775 
 3328000    297.93889   -1073.8178    4102.1034   -9362.1541    2184.8288    2470.1467   0.43747489 0.0025477188 0.0060395339 
 3330000    292.05876   -1075.0409    2556.0319   -7260.1916    1191.3115   -2318.4556   0.43748262 0.0025461878 0.0060372837 
 3332000    305.61066   -1074.2916    1878.5195    -12111.57    387.46033    943.35936   0.43749679 0.0025447934 0.0060345401 
 3334000    282.70533   -1074.3349   -1771.9564      -9396.5    1538.5127   -665.53948   0.43752116 0.0025444595 0.0060339655 
 3336000    285.21965   -1073.8086    2474.1831   -8415.9924    1997.3796   -790.45343   0.43754578 0.0025434916 0.0060318009 
 3338000    290.09925   -1074.5196   -433.36073   -4451.8844    2286.1638   -2948.4711   0.43756037  0.002546258 0.0060288607 
 3340000    305.75469    -1073.631     2418.929   -4057.0146    2722.4361   -2031.3137   0.43753918 0.0025442082 0.0060282717 
 3342000     312.1215    -1073.915    3062.6263   -4887.6447   -498.76445    -1615.371   0.43749619 0.0025470242 0.0060264781 
 3344000    268.71324   -1074.6202   -248.73827   -7432.3022   -583.92826   -1468.1909   0.43750223 0.0025463174 0.0060229011 
 3346000    313.70991   -1074.3651    3391.9885   -7185.4044   -1502.9645   -86.815344   0.43758826 0.0025465858 0.0060208255 
 3348000    290.02289   -1074.4545    6600.1629    -9999.364    1375.5675    77.401937   0.43760149 0.0025447794 0.0060221175 
 3350000    313.00288   -1074.1988    5969.4965    -7868.726    1257.7802   -245.49115   0.43766365 0.0025429533 0.0060267783 
 3352000    272.09309   -1074.6876    3764.5883   -6813.3966    1023.0305    1470.3762   0.43769214 0.0025426117  0.006024675 
 3354000    294.27265   -1074.0949    4258.4381   -8885.3804    2222.9721    1026.5209   0.43763315  0.002545727 0.0060225066 
 3356000    316.25717   -1074.1702    44.608511   -9227.7761   -79.665465   -1272.8197   0.43763692  0.002548591 0.0060191696 
 3358000     271.2855    -1073.862    2181.9938   -6798.9183   -2236.9449    1449.5094   0.43765065 0.0025470038 0.0060157384 
 3360000    305.09993   -1074.1675    2309.6952   -10394.673   -2779.8779   -2251.5994   0.43772224 0.0025463094 0.0060203603 
 3362000    303.29261   -1073.8193    3611.6538   -7150.5199    -3359.108   -417.96631   0.43775466 0.0025446246   0.00602766 
 3364000    309.99127   -1074.3959    4822.2396   -7995.5801   -1709.4802    224.20092    0.4377671 0.0025451822  0.006029484 
 3366000    302.57891   -1074.5669    4156.3816   -8288.6707    4472.4668    659.60055   0.43772167 0.0025444406 0.0060266122 
 3368000    302.22955   -1074.2579    3377.3789    -6132.149   -1053.9557   -17.315398   0.43768546 0.0025569138 0.0060235529 
 3370000    304.85062   -1074.4636    724.77843    -7990.484    478.93405   -909.70176   0.43768758   0.00255517 0.0060195796 
 3372000    275.19426   -1074.3921    1721.8639   -9799.9567    2816.8404   -1095.2841   0.43768613 0.0025535305 0.0060204029 
 3374000    263.49233   -1074.0829    2238.7433   -8124.7249     755.2765   -2613.3472   0.43769947  0.002552164 0.0060257691 
 3376000     321.0017   -1074.5461   -1159.0584   -7945.4867    783.30959   -1952.6307   0.43778829 0.0025505237 0.0060247667 
 3378000    312.15736   -1073.7776   -1172.2334   -9610.6601    147.65638    2764.6197   0.43781094 0.0025486892 0.0060234609 
 3380000    318.18352   -1074.6182   -403.56918     -9417.66   -936.38158   -4736.4254   0.43778853 0.0025486756 0.0060238536 
 3382000    276.35467   -1074.7199    6375.9427   -10897.525   -1454.8099   -1385.9697   0.43781802 0.0025471635 0.0060210902 
 3384000    317.10201   -1074.4991    122.00142    -8279.667   -1561.5576   -2313.1438   0.43782989 0.0025476789  0.006020421 
 3386000    330.54509   -1073.7307    2291.7186   -8283.5015    2588.4704   -3942.1076   0.43783968 0.0025466358 0.0060171863 
 3388000    281.61891   -1074.7063    2633.5502   -6258.3524   -2690.8149   -1055.0227   0.43784695 0.0025468148 0.0060137135 
 3390000    328.48385    -1074.761    1954.3986   -7813.0623    3716.5045   -1120.7466   0.43788567 0.0025462991 0.0060102725 
 3392000    299.48929   -1073.1971   -3150.5739   -7336.4043    401.75263   -2359.9023   0.43792582 0.0025453314 0.0060121343 
 3394000     327.4253   -1074.4638    1147.1249   -8440.1226     -1120.89    1433.2237   0.43802613 0.0025470473 0.0060118151 
 3396000    288.34022   -1074.1236   -51.971679   -7994.6858   -81.433573   -1337.8896   0.43808812 0.0025461332 0.0060089049 
 3398000    292.40376   -1074.5153    735.71459    -6766.554   -560.37426    1268.2037   0.43807671  0.002544989 0.0060087429 
 3400000    329.15161   -1074.2112    3363.1754   -9533.3677   -1676.5961   -352.89096   0.43806425 0.0025483798 0.0060064478 
 3402000    323.29099     -1074.07    862.17035   -7852.3104    488.36339   -2260.8264   0.43804948 0.0025487683 0.0060031783 
 3404000    291.64742    -1074.701    2757.3133   -8921.4425    517.52844    853.98576   0.43802408 0.0025507759 0.0060061153 
 3406000    313.76061   -1074.7238     -1814.77   -6463.8775    2377.7025   -3055.3275   0.43801525 0.0025488587 0.0060025111 
 3408000    307.24527   -1074.6724    5807.1923    -8781.086   -2528.8972    790.63964   0.43801664 0.0025487921 0.0059996427 
 3410000    303.62311   -1073.9094    3615.9057    -6016.215    1338.1549    199.31559   0.43805461 0.0025473971 0.0059978161 
 3412000    299.26513   -1074.6192    4103.8802   -7654.8412     3226.132    345.37642   0.43813779 0.0025465107  0.005995934 
 3414000    289.54715   -1074.3374   -3794.5154   -10662.415    2819.1857    637.12376   0.43815394 0.0025481436 0.0059920267 
 3416000    256.23081   -1074.1315    3821.5866    -7698.177    17.368348    -641.9307   0.43812363 0.0025491343 0.0059914139 
 3418000    273.28317   -1074.1574    433.72857   -6290.9782   -350.81222    271.58459   0.43812317 0.0025478537 0.0059900976 
 3420000    328.42779   -1073.8175    378.66168   -9036.2768    3389.6872   -1541.5434   0.43812169 0.0025495822 0.0059872617 
 3422000    297.54708   -1073.9645   -647.50874    -5481.542    678.66006    -1235.121   0.43810049 0.0025486539 0.0059935707 
 3424000    287.97337    -1074.683     5979.771   -11189.444   -1733.5639    1389.9832   0.43813488 0.0025483464 0.0059927533 
 3426000    343.71442   -1073.9863    5447.7526   -4848.7477    1821.9042   -669.46468   0.43819072 0.0025484748 0.0059896181 
 3428000     271.8346   -1074.5749    8754.4465   -8590.0138    177.40767    1042.1694   0.43816807   0.00254723 0.0059871392 
 3430000    302.59913   -1074.2989   -2458.2613   -8822.8167    1537.1195   -532.28713   0.43819074 0.0025455636 0.0059854485 
 3432000    319.87065   -1074.4266    1166.9339   -8474.2862    468.12694   -972.40803   0.43822507 0.0025440782  0.005989722 
 3434000    301.31329   -1074.4864    8518.4535   -8383.6811   -1055.5578    946.78453    0.4382126 0.0025433311   0.00598786 
 3436000     314.6014   -1074.2642    2194.2655   -9880.6884   -1572.3886    442.65958   0.43821065 0.0025465256 0.0059900166 
 3438000    314.63109   -1073.5838    693.18611   -10803.862    2949.6611   -2587.8934    0.4382584  0.002542861 0.0059874085 
 3440000    268.76308   -1074.1701     5337.655    -5058.092   -792.00157   -886.55573   0.43825442 0.0025453751 0.0059844428 
 3442000    253.48445   -1073.6138   -129.80068   -9742.7349   -2394.8828   -2466.3044   0.43828102  0.002543872  0.005983227 
 3444000    286.29458   -1074.8584   -408.33534   -11523.587    2874.9001   -922.68434   0.43835089 0.0025429086 0.0059816238 
 3446000     274.0357   -1073.9066    656.12864   -6394.9409    633.74247    1499.0033   0.43835603 0.0025412862  0.005979703 
 3448000    304.46794   -1073.6086    2787.6112    -7806.212    -3231.149   -964.35253   0.43830618 0.0025407905  0.005978821 
 3450000    311.11213   -1074.8498    78.589972   -8481.7242   -2010.8109    2397.1862   0.43828611 0.0025412687 0.0059752304 
 3452000    308.59697   -1073.9737    927.46239   -6456.4642   -9.2696105   -5188.4215   0.43827681 0.0025403176 0.0059777756 
 3454000    287.97455   -1074.6477    1445.3777   -10745.463   -1364.5971    8.8268119   0.43829007 0.0025393405 0.0059801576 
 3456000    301.75228   -1074.2508    4385.6956   -10872.947   -1174.0739      1243.21   0.43835967 0.0025380511 0.0059791604 
 3458000    308.76288   -1073.9486   -1465.0999   -3808.7023    753.10203   -2145.6604   0.43842357  0.002536955 0.0059772072 
 3460000     248.3924   -1074.6532    3007.2582   -11367.249   -1104.1867    331.23008   0.43838602 0.0025356881  0.005975739 
 3462000    283.14337   -1074.4816    2388.9824   -7354.0213   -835.96939    202.95874   0.43837207 0.0025362308 0.0059732954 
 3464000    321.00268   -1073.1964    3840.4304   -9319.2659   -908.13699   -1993.1242   0.43833321 0.0025349975 0.0059710552 
 3466000    268.51713   -1074.1999    4705.5548   -8060.9115    1859.4804   -1426.8455   0.43836611 0.0025335064 0.0059701207 
 3468000    276.47268   -1074.1147    5643.5368   -6524.4632   -461.98233   -2256.1808   0.43839579 0.0025316705 0.0059717433 
 3470000    264.51339   -1075.1128    4742.7698    -10060.53   -113.33853    2480.7327   0.43838293 0.0025301841 0.0059731676 
 3472000    326.32932   -1074.0736    2946.3224   -7721.2385    4288.0069   -2460.4818   0.43842662  0.002530004 0.0059699881 
 3474000    301.89833   -1074.2207    1551.7965   -8312.3488    850.51672    1472.5337   0.43846839  0.002528943 0.0059665425 
 3476000    298.07279   -1074.4307    3536.7649   -7489.2369    4186.0079    890.60593   0.43845421 0.0025276231 0.0059644697 
 3478000    322.93184   -1074.2319    3336.4427   -6024.0847    2399.6957   -3707.4631   0.43842993 0.0025264615 0.0059638328 
 3480000    311.22804   -1074.6067    3348.9613   -5908.9485   -889.90491    112.07926   0.43846896 0.0025271387  0.005963422 
 3482000    301.62368   -1074.3258    2254.1161   -7450.4974   -2017.9178     2687.527   0.43849012 0.0025262029 0.0059599804 
 3484000    258.70023   -1074.4394   -1754.4343   -7123.7102    212.15622   -1701.7812   0.43846814 0.0025260399 0.0059598089 
 3486000    295.54533   -1074.1477    3177.8297   -10341.039   -2954.8129    508.44707   0.43841596 0.0025264371 0.0059624711 
 3488000    279.89501   -1074.1751    3538.1896   -7584.6788    614.94071    1152.9254   0.43842826 0.0025248627 0.0059591705 
 3490000    306.69712   -1074.5593    3777.8621   -6718.7269   -1604.5087   -1579.4938   0.43838881 0.0025238362 0.0059559645 
 3492000     344.4008   -1074.0503    1866.0653   -9603.7324   -1365.0176   -2721.4611   0.43838788  0.002522721  0.005951795 
 3494000       300.16   -1074.2462    4649.2279   -10386.897    618.82856    1020.9015   0.43841346 0.0025214693 0.0059502882 
 3496000    329.01875   -1074.2041    1873.2081   -9605.8364    3403.6653    1216.1943   0.43845004 0.0025200303  0.005952376 
 3498000    283.64561   -1073.9798    1679.7343     -9143.14    1331.1601   -1322.6422   0.43850814 0.0025187708 0.0059493177 
 3500000    285.53552   -1074.4156    473.82401   -7313.5512    3860.6578    535.46135   0.43847568 0.0025176539 0.0059481235 
 3502000    339.29784    -1074.234    577.17604   -9831.0919    3455.3926   -2205.2982   0.43845295 0.0025165779 0.0059489001 
 3504000    301.75718   -1073.3118    2812.0147    -9036.468    518.46481   -69.976318   0.43847517 0.0025158243 0.0059496305 
 3506000    326.06419   -1074.2887    3455.6512   -7944.8768    413.64993   -803.11348   0.43854427 0.0025142413 0.0059459142 
 3508000    265.55949   -1074.6125    413.13288   -5886.5541    -919.2747   -1356.4961   0.43851172 0.0025128602 0.0059443592 
 3510000    281.66906   -1074.2307    4190.4633   -8962.8565    724.06994   -1492.9016   0.43853463 0.0025120183  0.005943757 
 3512000    322.02302   -1074.4234   -1672.6855   -6899.3379     2311.231   -335.51964   0.43857479 0.0025143519  0.005940834 
 3514000    294.57026   -1074.0389    1483.0225   -8692.1133   -933.86266   -6102.3258    0.4386294 0.0025135191 0.0059421703 
 3516000    309.75385   -1074.6708    4554.3284   -9667.1785    566.67764   -1111.0438   0.43865828 0.0025125193 0.0059457095 
 3518000    290.36602   -1074.0744    3523.3544   -6534.7016     3264.642   -3245.6103   0.43862062 0.0025137053 0.0059430535 
 3520000    288.70649   -1073.7676    3048.5844   -9524.0667   -1423.0711   -3287.3195   0.43863201 0.0025150577 0.0059411647 
 3522000    342.28421   -1074.1966    3807.1879     -10403.2   -1907.6984    624.31668   0.43866845 0.0025119254 0.0059411552 
 3524000    309.83103      -1074.3   -753.36528   -8471.9914   -178.80444   -3125.4998   0.43871226  0.002511088 0.0059399075 
 3526000      321.671   -1074.3456    2350.1082   -5970.7252   -220.29246   -2469.6777   0.43867685 0.0025099694 0.0059473042 
 3528000    292.53234   -1074.5178    -3324.136   -9827.6216    2140.8604   -991.19438   0.43862894 0.0025100926 0.0059476109 
 3530000    274.86942    -1075.356    3002.3472   -6902.5055    35.110718   -1513.7548   0.43861638 0.0025151057 0.0059440989 
 3532000    299.36491   -1073.6456    1738.9796   -6348.4022    1566.2507    362.46158   0.43861084 0.0025151894 0.0059418399 
 3534000    318.95939   -1073.9169    1708.0895   -10270.236   -82.994359   -196.28929   0.43860981 0.0025184746 0.0059479295 
 3536000    279.20068   -1074.0622    -2326.314   -8360.0463   -1085.7384    1622.6352   0.43866526  0.002516591 0.0059453568 
 3538000    286.80768   -1074.8565    2254.1611   -5164.9303    1590.5946   -2852.1136   0.43869765 0.0025155191 0.0059435918 
 3540000    285.64548   -1074.6685    2699.5726   -5730.3649   -1205.4147    111.45328   0.43865038 0.0025153537 0.0059424148 
 3542000    328.14304   -1074.8743      4190.34   -8638.7349    2377.4967   -1120.6702   0.43858197 0.0025167676  0.005943494 
 3544000    349.36896   -1074.0519    4437.9707    -7514.089    3135.1141   -638.98604   0.43858895 0.0025156067 0.0059405474 
 3546000    296.53155    -1074.454    4790.1468   -10561.817    839.91912   -882.44102   0.43862448 0.0025153918 0.0059394779 
 3548000    324.42741   -1074.0145    1258.4205   -7830.2168    -432.5619   -3201.2031    0.4386436 0.0025162763 0.0059408169 
 3550000    304.23846   -1073.7241    7558.0897   -8091.4444    1214.8929   -3035.3678   0.43869303 0.0025140891 0.0059422593 
 3552000    293.51294   -1074.4446   -1743.6296   -7997.2741    -3451.437    1413.4558   0.43870783 0.0025124368 0.0059437783 
 3554000    302.44033   -1074.5627    2140.0985   -8163.4337    1406.3239   -223.21583   0.43871545  0.002511434  0.005939998 
 3556000    279.87043   -1073.9742    2653.5422   -8712.5936    2391.7987    1915.3885   0.43873672 0.0025106969 0.0059365354 
 3558000    308.32689   -1074.0311    2993.0765   -7091.9919   -4.7746024   -14.531248   0.43871048 0.0025108021 0.0059346499 
 3560000    288.01069   -1073.9447   -3070.4744   -6773.2553   -731.91921    1037.7854    0.4386728 0.0025115202 0.0059348566 
 3562000    305.79087   -1074.0956    532.61362   -11322.917    448.83661   -219.27863   0.43867493 0.0025105658  0.005932261 
 3564000    296.86373   -1074.0727    1819.8823   -8205.2203   -2742.4543   -3016.4811   0.43875294  0.002508761 0.0059358857 
 3566000    260.51393   -1074.3813    2431.3686   -6723.1211    1520.3591    343.14135   0.43880431 0.0025083563 0.0059375926 
 3568000    287.91506   -1073.5616    4304.0042   -7568.8078   -898.72819     4019.739   0.43882471 0.0025093062 0.0059349901 
 3570000    262.94859   -1073.1796    777.32696   -9951.1749    382.65969    2539.2807   0.43880566 0.0025086486 0.0059321277 
 3572000    316.26243   -1074.5288    3139.3949   -8468.8111    1941.3581    -2386.521   0.43878748 0.0025076535 0.0059307325 
 3574000    275.96468   -1074.1669    3531.1653   -9545.4984    2013.3723     1253.072   0.43877758 0.0025070461 0.0059320173 
 3576000    266.92949   -1074.4529    996.45567   -8152.8447    1066.8125    -2217.592   0.43881205 0.0025067531 0.0059333354 
 3578000    345.07408   -1073.9228    4771.2481   -7664.1433    -42.37035   -665.17192   0.43880223 0.0025060282 0.0059344545 
 3580000    289.93175   -1074.6826   -2533.5237   -9471.3261    598.66434   -1489.8592   0.43885872 0.0025052984 0.0059320626 
 3582000    284.83196   -1073.5715    2243.5439   -7698.6089    1462.1067   -746.80585   0.43886494 0.0025023503 0.0059300822 
 3584000    314.77048   -1073.7773    2780.9982   -8213.5633   -2877.4385    311.38878   0.43879618 0.0025011245 0.0059304063 
 3586000    309.85739     -1074.58   -1788.6028   -9347.9214    3724.1409   -736.12462    0.4387928 0.0024995811 0.0059279977 
 3588000    317.48355   -1073.7464    3374.3119   -8609.5943   -2206.9161   -946.41801   0.43877994  0.002502859 0.0059323319 
 3590000    341.28088   -1073.8029    1576.6524   -9295.2014   -222.17761   -589.94524   0.43880902 0.0025023824  0.005932058 
 3592000    299.83895   -1074.8904    4128.0849   -11018.704    1702.1473     793.0229   0.43891123 0.0025015735 0.0059290465 
 3594000    281.58752   -1074.2747    2295.7642   -5704.6032   -972.60767    5.7398127   0.43892871 0.0024998163 0.0059267173 
 3596000    291.33724   -1074.5273    2494.5377   -8987.2404    75.709703    1183.3683   0.43886956 0.0024989572 0.0059291366 
 3598000     294.2229   -1074.0033    3682.2917   -8290.3791    1521.6129   -1088.2061   0.43886067 0.0024988763 0.0059255088 
 3600000    324.57043   -1074.5816    2337.9861   -5501.2439    1119.3319    -1235.604   0.43884768 0.0025003082 0.0059227572 
 3602000    304.80703   -1074.1502    2235.7121   -10443.808    407.67844    813.26403   0.43886541 0.0024985219 0.0059212994 
 3604000    294.53284   -1074.3191    5176.1324   -7470.9891   -848.63204    22.127727   0.43890486 0.0025001849 0.0059211417 
 3606000    285.34628   -1074.2944    5654.2494   -7116.3412    1067.8574   -2492.5734   0.43891673 0.0024991918 0.0059276188 
 3608000    324.99162   -1074.6513     4580.607   -7989.4411   -2226.0358    537.37992   0.43896546 0.0024985987 0.0059269645 
 3610000    280.18365   -1073.5838    905.77001   -9915.8686   -1829.3554   -2537.8158   0.43903856 0.0024964385 0.0059239065 
 3612000    262.44427   -1073.8669     415.9046   -7789.2873    719.71822    918.98339   0.43904446 0.0024961727  0.005922626 
 3614000    271.45514   -1074.0692   -1416.2494   -6620.9101   -2217.9135   -222.95556   0.43901264  0.002496687 0.0059190898 
 3616000     286.1365   -1073.7922     5566.276    -6593.872    1691.4772   -100.82363   0.43901207 0.0024981024   0.00591753 
 3618000    301.46241    -1074.384    3585.3041   -6878.4484    1921.7758   -1627.7251   0.43897864 0.0025025545 0.0059167716 
 3620000    327.97247   -1074.3927     3020.111   -8188.6333   -893.08528    484.72619   0.43895485 0.0025011156 0.0059171016 
 3622000    280.55859   -1074.7539    232.38413    -7064.691    -378.8033    377.22807    0.4390159 0.0024993439  0.005913569 
 3624000    320.02598   -1074.6711    521.60875   -7654.8415    40.380484   -2574.5056   0.43910914 0.0024979038 0.0059124884 
 3626000    309.70562   -1073.9264    696.98239   -7463.1992   -234.47147    2038.2103   0.43909259 0.0024970253 0.0059103492 
 3628000    288.32844   -1074.1642    3497.6417   -8484.1741   -3356.2355   -3011.2009   0.43906825 0.0024959452 0.0059120081 
 3630000    302.48289   -1074.3329    1480.8447   -7935.2141    1479.0895    337.21284   0.43906796 0.0024974059 0.0059193943 
 3632000    261.51434   -1074.0917    3398.0859    -11836.39    1315.3723   -92.194301   0.43906066 0.0025040621 0.0059174823 
 3634000    287.03886   -1074.1929    796.69192   -10310.026   -1533.2652   -1660.1599   0.43909831 0.0025022921 0.0059139795 
 3636000    287.94844   -1073.4881     3061.967   -5889.9902   -3097.8067   -2082.8897   0.43915548 0.0025020365 0.0059135878 
 3638000    319.51339    -1074.503    3272.4848   -4677.8065    2068.0529   -3370.7491   0.43916846  0.002500752 0.0059171728 
 3640000    315.85933   -1074.3264    1882.2535   -10393.536    1941.5395    1819.3606   0.43914491 0.0024991771 0.0059191961 
 3642000    293.84244   -1074.2978    4148.0813   -8979.4461   -1970.4476   -612.06375   0.43913263 0.0025001461 0.0059157458 
 3644000    282.25176   -1074.5211    2885.2985   -4556.5371    1881.9827    1497.2529   0.43911196 0.0025006343   0.00591818 
 3646000    299.55065   -1073.5741    2500.4793   -7293.4851    199.99417   -2951.3342   0.43907031 0.0025017917 0.0059190574 
 3648000    282.78578   -1074.1938    543.90361   -6994.7168    2446.1146    693.12786   0.43906996 0.0025008319 0.0059163055 
 3650000    290.85504   -1073.9816    2568.0218    -7384.211    1275.9639   -2276.0292    0.4391146 0.0025003787  0.005913741 
 3652000    335.59389     -1073.98     1555.353   -11157.309   -6670.9195   -2316.8986   0.43916348 0.0024988787  0.005911611 
 3654000    296.44607   -1073.5564    1199.9584   -10658.439   -1309.9312   -787.34322   0.43922437  0.002498029  0.005910514 
 3656000    289.24035    -1074.336     491.9192   -9200.1647    1873.1844   -1558.8562   0.43923791 0.0024966668 0.0059100369 
 3658000     303.3602   -1073.4968    3306.0279   -6283.2915    3499.7191   -3326.7722    0.4392407 0.0024969352  0.005908283 
 3660000    328.81455   -1074.3633    3763.3695   -8852.9273    1945.4655    3044.3809   0.43923355 0.0025004259 0.0059066912 
 3662000    272.07097   -1073.1025    3658.3718   -6996.2553    666.51377   -1137.1613   0.43923469 0.0025004816  0.005903551 
 3664000    345.38984   -1075.0183   -645.86034   -9885.1973   -194.08003    21.843684   0.43921782 0.0024998387 0.0059109337 
 3666000    294.09522    -1073.871    6370.3925   -9670.6411    1432.4588     -365.739   0.43923635 0.0025016134 0.0059077481 
 3668000    260.28331   -1074.6247    2264.5156   -5345.7422   -457.88238   -573.57765   0.43920427 0.0025021648 0.0059042852 
 3670000    330.24507   -1074.1928     1405.832   -8490.0092    3100.6146   -1210.8046   0.43916403 0.0025023751  0.005901406 
 3672000    304.59254   -1074.6095    3690.0209   -6762.5462    473.00445   -924.37421   0.43919842 0.0025078151 0.0059020563 
 3674000    285.24406   -1074.0386    1576.6521   -9229.3476   -670.84481   -3607.5264   0.43922856 0.0025048451 0.0059064313 
 3676000    298.42782    -1074.638   -1149.8441   -6491.4547    1047.1125    -2147.659   0.43924802 0.0025031138 0.0059027232 
 3678000    279.19646   -1073.2783    1018.8719   -6176.3333    883.57537   -1830.3094   0.43927319 0.0025031314 0.0059005301 
 3680000    268.60293   -1074.5976     3309.722   -7235.4847    -354.0818   -755.08965   0.43925586 0.0025019942 0.0059006265 
 3682000    323.38892   -1074.2638    491.59128   -8922.7641   -1592.1479   -814.08033   0.43921989 0.0025008912 0.0058982375 
 3684000    303.41333   -1073.5362    3029.0592   -7536.6436    4296.9561    -2199.238   0.43927308   0.00250064 0.0058973716 
 3686000    315.81248   -1074.7621    1856.5445   -6567.0432    499.90734   -1484.8864   0.43930125  0.002498759 0.0058980281 
 3688000    283.72964   -1073.4888    7719.8897   -6255.7362   -497.99058   -1121.3721   0.43928919 0.0025005741 0.0058956762 
 3690000    275.80213   -1073.9875    923.61341   -7800.7472    1826.0864    1540.6039   0.43925439 0.0025032913 0.0058927482 
 3692000    315.09066   -1074.1875    5779.8138   -8502.0326    350.68138   -792.64003   0.43924417 0.0025046578   0.00588936 
 3694000    299.58098   -1074.3738    3693.6251   -7020.9513   -1986.0834   -1182.1291   0.43928184 0.0025040537 0.0058909948 
 3696000    309.65075   -1074.8801    5261.0754   -8273.1168   -886.02555   -2274.2936   0.43933255 0.0025039767 0.0058890381 
 3698000    300.56297   -1074.7895    2471.4763   -5636.8849   -156.85277    2268.8277   0.43936921   0.00250281 0.0058874281 
 3700000    304.26451   -1074.0021     2335.422   -5579.2735   -1434.2932   -2852.1261   0.43935008 0.0025075605 0.0058849838 
 3702000    300.73406   -1074.4361     5196.691   -12709.757   -1762.7825    2007.4589   0.43935151 0.0025066739 0.0058831571 
 3704000     313.9585   -1074.5713    479.01834   -5417.9291   -3043.9269    -124.3816   0.43940839   0.00250514 0.0058804532 
 3706000    300.63908   -1073.5177    3486.9527   -10223.544    211.77988   -1525.2213   0.43938898 0.0025045829  0.005881534 
 3708000    317.31858   -1073.5494    59.156013   -6942.8514    1913.2102   -168.61106    0.4393702  0.002507579 0.0058805463 
 3710000    301.77736   -1074.7857    1499.6885   -8194.4151    149.16806   -133.78764   0.43933993 0.0025079759 0.0058779946 
 3712000    279.13618   -1074.1963    3572.1624   -10614.054   -1049.8641    1666.8898   0.43935342  0.002507006 0.0058814914 
 3714000    294.63587   -1074.3408     3527.481   -10329.841   -1667.3055    417.95569   0.43941055 0.0025057193 0.0058879705 
 3716000    310.79256   -1074.7912    1716.6699   -10037.005    1898.2519   -4210.4558   0.43942559 0.0025049338 0.0058873181 
 3718000    329.84464   -1074.4604    4237.2659   -7400.6754    1642.6613    2032.9544   0.43943041 0.0025036126 0.0058877331 
 3720000    294.73191   -1073.9414    2322.6513    -6108.262    1103.8588   -1236.6604   0.43938812 0.0025039735 0.0058849233 
 3722000    274.91331   -1073.7618    5001.4354   -7806.4205   -1982.8461   -1200.4075   0.43931618  0.002505825 0.0058819501 
 3724000    282.93721   -1074.3625    4767.8606   -8277.7787   -324.34809    1754.1609   0.43935098 0.0025055392 0.0058831763 
 3726000    277.64626   -1073.7616    1285.9266   -6647.2353    636.08529    565.62559   0.43937722 0.0025043209  0.005881821 
 3728000    324.59637   -1074.7061    2334.5538   -8517.2923    1865.8492    -2146.712   0.43939806 0.0025023804  0.005883919 
 3730000    294.98127   -1074.3302    1139.0003   -7138.6878   -1591.7622   -3048.9878   0.43941584 0.0025017693 0.0058815013 
 3732000    272.60013   -1073.7585    2359.8941    -7954.464    739.23897    1326.3027    0.4394196 0.0024997465 0.0058797544 
 3734000    306.34919   -1074.1433    1151.7903   -5312.9243    3369.2555    -3496.968   0.43942537 0.0025002653 0.0058764471 
 3736000    283.68306   -1074.1619    4390.6173   -7505.3256   -2913.8139    179.01221   0.43940599 0.0024994385 0.0058750237 
 3738000    315.76227   -1074.6753    969.23031   -9611.0044    3018.1294   -2533.9414   0.43940982 0.0024980929 0.0058752814 
 3740000    295.14748   -1073.5931     626.7095   -9377.6409    1989.4436    2156.0898   0.43944783 0.0024961352    0.0058761 
 3742000    290.84792   -1073.7404    4875.9202   -9901.2573   -710.53359    1516.8605   0.43949729 0.0024947868 0.0058761663 
 3744000    265.12823   -1073.6447    751.69793    -5610.189    43.518925    93.505785   0.43951477 0.0024955079 0.0058743884 
 3746000    300.44529    -1074.308    1563.2845   -6968.9707    66.102569    1282.9369   0.43947656 0.0024971748 0.0058713153 
 3748000    278.11546   -1073.7187    3801.6083   -5948.6081   -264.75285    -232.7063   0.43945284  0.002495787 0.0058698953 
 3750000    262.89245    -1074.174    1155.2559   -8323.7018   -715.07985   -1527.9076   0.43945707 0.0024950915 0.0058722592 
 3752000    321.19222   -1073.7132    2446.1918   -8614.2938    1945.1213    595.73706    0.4394659 0.0024936262 0.0058710021 
 3754000    284.60686    -1074.357    1831.1971   -7108.7405    2255.4725   -2883.4674   0.43951208 0.0024938867 0.0058747903 
 3756000    298.69404   -1074.4115    1498.9577   -9212.1141    1746.6112     624.2062   0.43948781 0.0024940352  0.005874818 
 3758000    269.49159    -1074.856    2373.8756   -7479.0554   -153.92515    522.10205   0.43947972  0.002497055 0.0058710865 
 3760000    276.51253   -1074.7718    4780.2422   -8811.8287    2155.1631    1286.7514   0.43947711 0.0024967962 0.0058697064 
 3762000    310.03905   -1073.9087   -52.045343   -9322.2585   -1509.8403   -3323.7848   0.43952689 0.0024957754 0.0058704972 
 3764000    303.42159   -1074.1948    892.96248   -8317.1571   -492.47352    1094.5592   0.43955762 0.0024943698 0.0058733634 
 3766000    293.17731   -1074.1635    706.74023   -10491.519    93.099287    625.47148    0.4395317 0.0024972358 0.0058741818 
 3768000    292.98796   -1074.6304    5773.9209   -8365.9792    -915.1763   -1523.7889   0.43953349 0.0024948117 0.0058715364 
 3770000    304.55388   -1074.5213   -164.21574   -8395.4007    5003.9796   -4431.6046   0.43955222 0.0024938615 0.0058705882 
 3772000    302.06481   -1073.7238   -235.23347   -6514.7733   -1954.6362   -266.60228    0.4395893 0.0024925388 0.0058705687 
 3774000    308.38178   -1073.8277    2429.6085   -6987.8803    1492.7195   -3495.0041   0.43960197 0.0024908941 0.0058691741 
 3776000    312.70707   -1074.7755    3298.2877   -7999.6113   -935.35434    1384.5602   0.43961202 0.0024923235 0.0058704331 
 3778000     276.4581   -1073.7909    5360.8801   -8628.1238   -171.59807    2870.7987   0.43961228  0.002493576 0.0058674907 
 3780000    277.71158   -1074.2219    3687.2832   -5560.1733   -389.56515    352.51065   0.43962286 0.0024958525 0.0058657758 
 3782000    300.54607   -1073.7227    5290.0351   -10861.196   -5457.4021   -674.10494   0.43962645 0.0024953766 0.0058650492 
 3784000    340.53434   -1074.2967    2637.8336   -8002.1732   -251.29461   -290.35279   0.43964821 0.0024941328 0.0058704145 
 3786000    314.47717   -1074.6558   -635.12573   -7941.5998   -3779.9078   -1006.3571   0.43963841   0.00249848 0.0058717921 
 3788000    270.45556   -1074.1671    153.22147   -7304.9078   -141.82885    838.77005   0.43961385 0.0025014714 0.0058688902 
 3790000    302.85249   -1074.1101   -28.729956   -10461.437   -1435.4612   -796.45389   0.43963673 0.0024989039 0.0058664965 
 3792000    314.68661   -1074.0311    3285.0001   -7198.8881    3637.6046   -3252.8002   0.43967855 0.0024978991 0.0058649253 
 3794000    302.88923   -1074.1284    1778.5096   -11193.041   -2724.8458    240.34215   0.43972232  0.002496451  0.005872958 
 3796000    297.25074    -1074.066    5372.8927   -9162.6872   -763.72706   -2756.0763   0.43972358 0.0024973745 0.0058752797 
 3798000    296.84832   -1074.5231    1414.7068   -9600.8708    924.76068    33.345472   0.43973288 0.0024964782 0.0058732431 
 3800000    290.26111   -1073.4462    2228.5323   -9483.6063   -431.12487   -904.07589   0.43975449 0.0024953217 0.0058711485 
 3802000    311.81778   -1074.8744    4208.8679    -8186.361   -538.88351    996.82046   0.43973626 0.0024965519 0.0058755515 
 3804000    298.29998   -1074.2927    6064.6313   -6495.5537   -2555.3764    648.55102   0.43970983 0.0024970747 0.0058729303 
 3806000    310.06728   -1074.3661    6843.6073   -10978.357    1613.7212    1724.5943   0.43968425  0.002497958  0.005869976 
 3808000    279.36461   -1074.8203    2823.1494   -9059.1295   -1713.3972    -437.6723   0.43970847 0.0024992386 0.0058711318 
 3810000    261.09299   -1074.3403    2078.8576   -6636.0542    147.18019   -3850.2732   0.43978599  0.002497629 0.0058724903 
 3812000    262.51944    -1074.311   -221.51763   -10866.385   -1748.3392   -141.71899   0.43981979 0.0024963641 0.0058722604 
 3814000    283.30127   -1074.4041    64.476184   -6378.5896    131.62374   -1516.8682   0.43982546 0.0024956937 0.0058690629 
 3816000    315.03368   -1074.1891    1485.5411   -5715.7487   -634.42262   -2422.2792   0.43979706 0.0024943902 0.0058672873 
 3818000    282.00054   -1073.7941   -2004.7679   -7722.3301    2509.8235   -1172.7216   0.43976218 0.0024933478 0.0058667294 
 3820000    277.85342   -1074.6134    4338.9016    -7231.553    472.79077   -2910.9281   0.43976496 0.0024943155  0.005868952 
 3822000    269.88806   -1074.2094    2729.1263   -7982.6283    1430.0744   -3068.6336   0.43976998 0.0024982256 0.0058659224 
 3824000    316.37497   -1074.0418     2811.799   -10359.592    1161.4451   -1950.2158   0.43972417 0.0025034932 0.0058640403 
 3826000    283.94425   -1074.4737    6302.5281   -7790.2225    -1072.037    -1336.228   0.43971852 0.0025016494  0.005864503 
 3828000    292.93479   -1074.1358    2251.5416   -7646.0926    -97.06022   -355.63314   0.43973139 0.0025006223 0.0058643501 
 3830000    304.57422   -1074.8944    4112.1849   -9374.6464   -1729.4883   -1813.6843   0.43976559 0.0024993607  0.005863409 
 3832000    277.14641   -1074.4454    1631.7633    -8153.778    2443.7518   -454.24915   0.43983339 0.0024980495 0.0058640958 
 3834000    295.27415    -1073.954    7459.1206   -6796.8398   -2217.4044    81.811493   0.43982944 0.0025003592  0.005863068 
 3836000    278.98043   -1073.9224    4850.7379   -5144.6901     460.4093    329.01539    0.4398001 0.0025016689 0.0058603298 
 3838000     290.2727   -1074.3061    4192.0852   -6712.9661    435.04859    2519.8102   0.43979229 0.0025037033  0.005858446 
 3840000    281.31072   -1074.1839    1255.1107   -8749.0991   -989.51218    221.12481   0.43977299  0.002502202 0.0058571995 
 3842000    289.37433   -1074.3053    3596.0041   -7611.7496    541.38892   -2245.6578   0.43974853 0.0025007438 0.0058571415 
 3844000    297.26805   -1074.2204    2986.0994   -6155.2118    2372.6092    1220.6972   0.43973597 0.0025001315 0.0058565723 
 3846000    299.85243   -1073.7125     6598.433   -6397.5023   -769.46379   -356.20714    0.4397536 0.0024986179 0.0058591585 
 3848000    287.82576   -1074.5725    2926.0661   -8415.0361    3536.9673   -735.77888   0.43979932 0.0024973248 0.0058565187 
 3850000    248.58855   -1073.7138    3332.8049   -10164.084    3342.5538    -2126.804   0.43981698 0.0024990321 0.0058537967 
 3852000     329.1632   -1074.6688    1843.5974   -6884.9269     264.3352   -952.49556   0.43984338 0.0024990153 0.0058585465 
 3854000    324.98174   -1074.1125    1419.8459   -6766.2038   -1966.0623   -3416.6445   0.43986536 0.0024977505 0.0058577153 
 3856000    292.50494   -1074.1794    3205.8475   -7619.3598    1111.4357    3002.7174   0.43986445 0.0024964535 0.0058552826 
 3858000    292.30935   -1073.0883      3801.51   -7506.0032    4106.4983   -975.61747   0.43988087 0.0024954293 0.0058539771 
 3860000    300.58809   -1074.5519    6372.2194   -7252.0351    -73.69572    586.41956     0.439883 0.0024944203 0.0058544152 
 3862000    296.10713   -1073.9054    1867.7944   -10870.689   -56.111397    1933.9906   0.43992872 0.0024932391  0.005854691 
 3864000     307.1988   -1074.3403     4549.277   -7040.2123   -334.69208    241.31741   0.43995299 0.0024922273 0.0058520065 
 3866000     282.3139   -1074.6364    756.75627     -10548.3   -475.35667    479.67669   0.43997034 0.0024936278 0.0058520083 
 3868000    283.14191   -1074.4512    3253.8201   -8479.4417    -3345.736   -923.89156   0.43996008 0.0024927549 0.0058507325 
 3870000    311.59463   -1074.8938    3009.1757   -8205.7444    547.00873    271.86203   0.43995923 0.0024915515 0.0058485144 
 3872000    295.99967   -1073.5169    2988.7765    -6924.619    1624.2909    3775.2757   0.43997443 0.0024912329 0.0058485387 
 3874000    317.57044   -1074.5893    5995.0532   -7288.2036    2674.0792     -1507.97   0.43999238 0.0024914067 0.0058462787 
 3876000    315.15619   -1074.1543    3878.9649   -7350.4226   -2180.4363    779.45231    0.4399861 0.0024906216 0.0058444362 
 3878000    317.23823   -1074.4563    6432.7884   -7896.4813    1557.7252   -1338.6082   0.43999681 0.0024893462 0.0058413685 
 3880000    295.11836   -1074.2586    2128.7137   -6839.7837    2202.4721     848.1422    0.4400209 0.0024885799 0.0058448664 
 3882000    300.31509   -1073.8226   -546.24511   -10473.932    2505.3516   -325.66382   0.44003755 0.0024877434 0.0058407331 
 3884000    308.73734   -1073.7674    3456.8041   -9356.8848   -4471.2264    3488.4258   0.44006897 0.0024865044 0.0058427855 
 3886000    330.85802    -1073.996    5314.6844   -6661.6867   -1965.1516   -619.00282   0.44009943 0.0024855139 0.0058438167 
 3888000    288.92616   -1074.2355     2315.094   -7618.1983   -559.80845    200.76659   0.44013448 0.0024856805 0.0058435476 
 3890000    300.07923   -1073.9416    208.00921   -6152.2976   -490.19053    1032.7549   0.44015197 0.0024832779 0.0058403981 
 3892000    314.41713   -1073.7197    1794.9443   -8022.8534     1420.861    -261.5074   0.44010936 0.0024859849 0.0058395618 
 3894000    264.21076   -1074.3001    1839.7757   -4710.9104   -1431.6861   -2120.2603   0.44009048 0.0024888604 0.0058398481 
 3896000    317.53615   -1074.5407    1254.4566   -6834.2294   -1364.0925    225.49246   0.44010243 0.0024868203 0.0058398264 
 3898000    323.27577   -1073.8365    3552.4068   -9205.5556    651.25007   -349.85532   0.44014549 0.0024860292 0.0058398567 
 3900000     289.5466   -1073.6635    1176.7218   -7397.9161    755.39385    423.48425   0.44018104 0.0024867238  0.005836621 
 3902000    318.39203   -1074.2068    1958.5357   -7148.2159   -475.84727   -67.338004   0.44017225   0.00248852 0.0058389549 
 3904000    275.60845   -1074.1413    3306.0386    -6137.547    452.26986   -1067.5665   0.44015619 0.0024876783  0.005840876 
 3906000    318.46699   -1074.1816   -341.92077   -11350.847    1670.2384    517.14867   0.44014695 0.0024877009 0.0058391011 
 3908000    311.45758   -1074.0936     1729.616   -9216.5871    729.23659   -2825.6642   0.44018664 0.0024864313 0.0058410143 
 3910000    294.61231   -1073.8229    3745.2856   -7635.8223   -1181.8977   -2514.0679   0.44020976 0.0024850195 0.0058419661 
 3912000    305.72623   -1074.3645   -1996.5609   -8447.4551    697.30964    -1242.232   0.44022353 0.0024838909 0.0058409479 
 3914000    295.76675   -1074.2012    4131.8236   -9260.9218    124.42913   -1143.8769   0.44021497  0.002483568 0.0058387955 
 3916000    291.36564   -1073.6285    377.16074   -6375.1284   -207.74211   -1161.0604   0.44018932 0.0024882875 0.0058393935 
 3918000    305.58717   -1073.9204    3301.2961   -10800.828   -516.07964    325.77731   0.44017518 0.0024889038 0.0058402077 
 3920000    331.96798   -1074.3094    2890.4835   -7154.5599     795.8957   -2780.8897   0.44023734 0.0024900992  0.005837225 
 3922000    330.89857   -1074.3929    3267.0956   -7422.4714   -482.64975    1.6804951   0.44023646 0.0024889851 0.0058399076 
 3924000    291.48884   -1073.8158    3285.1341   -11407.758   -1429.7259   -941.25067   0.44027106 0.0024879541 0.0058363521 
 3926000    285.07905   -1073.7347    965.80215   -8226.5566    -1213.803    205.80476   0.44030289 0.0024856346 0.0058348764 
 3928000    337.33669   -1074.5555    1458.7717   -8830.2544    684.38148   -1648.1318   0.44030079 0.0024845216 0.0058313734 
 3930000    310.72632   -1074.8611    317.85696   -9653.2828    852.87084   -919.30559   0.44031956  0.002484724 0.0058282481 
 3932000    295.21511   -1074.7707    1596.3092   -7759.6288   -63.535855   -716.05045   0.44031743 0.0024872093 0.0058269529 
 3934000    360.82108   -1073.8561    2062.2216   -10000.306   -2769.1846   -2986.1428   0.44029212 0.0024879556  0.005828539 
 3936000    287.92271    -1074.476    5423.6529   -9370.4691    1372.2623   -1550.9852   0.44029824 0.0024875536 0.0058313883 
 3938000    297.18685   -1073.9382    3699.3725   -7700.3803    -4019.673   -3261.8615   0.44033856 0.0024862038 0.0058334611 
 3940000    285.52585      -1073.8    4206.4854    -7894.616   -509.67256   -3375.5587   0.44036864 0.0024850825  0.005831497 
 3942000    300.81853   -1074.3459   -2880.3967   -5873.7569    4189.7405   -1135.4821   0.44035388 0.0024842726 0.0058314383 
 3944000    308.59918    -1074.824    3707.9338   -6875.3354   -67.280482   -3274.8639   0.44035329 0.0024865647 0.0058295273 
 3946000    303.33165   -1073.1903    -635.2243   -7538.8204    -1318.976    413.55165   0.44035807 0.0024877395 0.0058289068 
 3948000    287.08158   -1074.8182   -239.97439   -9589.5867   -2572.0467   -2315.1052   0.44038861 0.0024870109 0.0058275325 
 3950000    288.72898   -1073.6472    1208.1483   -9412.6487   -852.92325    301.44133    0.4404198 0.0024857818 0.0058280669 
 3952000    325.41507   -1074.5495    2270.7738      -6273.8    411.07303   -2870.5243   0.44039094 0.0024843901 0.0058271601 
 3954000    253.82453   -1074.1979    8084.8625   -10207.527   -4.3289851    1819.0986     0.440384 0.0024856076 0.0058259718 
 3956000    305.08559   -1074.0341    2661.2536   -8346.6321    3348.6715   -3146.7241   0.44045604 0.0024836689 0.0058227013 
 3958000    281.20403   -1074.7949   -1101.9043   -6302.5962    2468.8367   -3589.7641   0.44050794 0.0024831554 0.0058215317 
 3960000    286.06406   -1074.7938    2628.6055   -7176.4605    2618.9769   -4523.3939   0.44052187 0.0024831622 0.0058213965 
 3962000    330.36264   -1074.0626      2751.27    -9832.063    1581.4874    91.314355   0.44048525 0.0024826423 0.0058267267 
 3964000    297.00583   -1074.4507    3598.3546   -6187.9364   -1557.1595    543.66563   0.44050058 0.0024813247 0.0058233351 
 3966000    288.85462   -1074.0665   -760.93642   -8491.3838    960.19667   -2661.2145   0.44048264 0.0024817904 0.0058205328 
 3968000    246.14909   -1073.7447    133.12582   -8222.2644    434.25964   -737.28223   0.44050569 0.0024803881 0.0058229187 
 3970000    319.92313   -1074.7256    4827.8896   -9142.1971   -4710.8606     2733.632   0.44056405 0.0024795819 0.0058200389 
 3972000    326.16143   -1074.6552    3246.6638   -8564.3795    -1070.325    -1314.492   0.44057739 0.0024782407 0.0058245009 
 3974000     296.7882   -1074.4374    3177.7848   -8760.3056    265.35566    522.21624    0.4405609 0.0024785323 0.0058219753 
 3976000    275.02387   -1073.6576    5900.8468   -9262.2945    33.027654    1925.2743   0.44053049 0.0024808482 0.0058211108 
 3978000    302.71578   -1074.8042    3171.6982   -7570.8663    1442.5198    272.27416   0.44051402 0.0024814437 0.0058189093 
 3980000    291.32679   -1074.3552    2782.3582   -6845.6199   -1853.3229   -94.689587   0.44054247 0.0024817894 0.0058160526 
 3982000    269.66555   -1074.7579    1115.7697   -9111.4275    70.816087   -3867.8598   0.44058475 0.0024812403 0.0058153722 
 3984000     279.4986   -1073.7909    135.92065   -10908.906    234.94148   -3697.9463   0.44060194 0.0024803504 0.0058153751 
 3986000    301.48884   -1074.5586    784.84992   -5331.9521    -1336.393   -2335.8881   0.44062488 0.0024813333 0.0058171601 
 3988000    280.97902   -1074.5625    2831.8743   -9559.9238     2075.043    496.08494   0.44060703 0.0024797276 0.0058185018 
 3990000    272.34257   -1073.9135    224.01034   -5436.7811    3333.9117   -402.49923    0.4406099 0.0024795683  0.005814828 
 3992000    299.52289   -1074.6842    384.43933   -4302.3278     2696.849    2450.9646   0.44062474 0.0024803606 0.0058133975 
 3994000    292.84436   -1074.6371    1267.8156   -8508.6553    4379.6892    -838.4605   0.44061888 0.0024794505 0.0058114002 
 3996000    321.54332   -1074.4469    302.68305   -8859.0848    1931.6004    1434.7518   0.44065061 0.0024777565 0.0058131662 
 3998000    292.38157   -1074.7549    1626.7377   -7983.3433   -52.370823   -2707.3892   0.44067147 0.0024770858 0.0058109924 
 4000000    304.14682   -1074.0844    6170.4192    -8399.598     2771.389    458.67418   0.44064002 0.0024766966 0.0058106588 
 4002000    328.16509   -1074.4973    4453.3918   -5702.7873   -204.21107    1279.6617   0.44061719 0.0024800364 0.0058104522 
 4004000    306.66609   -1073.6426    1788.0931   -8247.1249    609.37282   -600.19379   0.44057424 0.0024788152 0.0058104723 
 4006000    287.68019   -1074.2999    3694.3975    -7762.518    2888.8981    782.90582   0.44060356  0.002478305 0.0058096458 
 4008000    272.21892   -1073.5982    6726.1767   -7527.5435   -2491.3438   -2789.6025   0.44065232 0.0024781323 0.0058083383 
 4010000    291.51568   -1074.8419    1895.9933   -8304.2307    1638.0551    157.24066   0.44067738 0.0024770507  0.005810433 
 4012000    279.61949   -1074.4281    4065.7934   -11543.472    1596.4399    1345.5281    0.4407417 0.0024758549 0.0058086686 
 4014000    296.20842   -1074.0448    6772.0801   -5881.0718    879.02177   -294.55926   0.44073487 0.0024749548 0.0058066454 
 4016000    268.90009   -1073.7068   -292.74367   -5662.9884    4506.4594   -1994.8961   0.44069192   0.00247682 0.0058053024 
 4018000    287.87004   -1074.8427    2144.8567   -7528.2844   -818.25348   -1089.7129   0.44067291  0.002481702 0.0058085043 
 4020000    321.07847    -1074.946    2539.3895   -3846.9002    -2918.795   -1757.5933    0.4407091 0.0024801905 0.0058084478 
 4022000    298.02573   -1073.7073   -1766.7596   -8871.4221   -4244.8005    -286.8372   0.44073251 0.0024787894 0.0058069801 
 4024000    307.43757   -1074.2665    379.34256    -10439.93    143.72354    1807.5997   0.44075929 0.0024777559 0.0058058136 
 4026000    312.32614   -1074.9082    1257.7819   -10441.609   -115.52976   -1120.1017   0.44077619 0.0024769474 0.0058062409 
 4028000     345.4562   -1073.8149    7614.9661   -8148.6256    2227.6229   -3661.6864   0.44078665 0.0024757645 0.0058061041 
 4030000    298.63454    -1074.519    1052.7382   -9309.6679    1852.5338    2258.0997   0.44079437 0.0024753168 0.0058074557 
 4032000    287.55245   -1074.5614    2123.4814   -8771.9939    908.99084   -281.68546   0.44078354 0.0024790638 0.0058059063 
 4034000    299.24367   -1074.2695   -1040.4872    -7769.288    911.68607   -2925.1096   0.44077309 0.0024791133 0.0058025109 
 4036000     290.9038   -1074.2257    906.89233   -8239.1678    119.56693   -2281.5966   0.44078918 0.0024802468 0.0058016898 
 4038000    300.11041   -1074.1246   -715.63384   -8312.4094   -2690.5433   -2180.0753   0.44081921 0.0024794471 0.0057997438 
 4040000    288.23802     -1074.06      6013.62   -7987.7508   -2847.2451   -1682.6718   0.44084799 0.0024782114 0.0057986777 
 4042000    276.32596   -1073.8746    1958.0365   -9137.1964    1346.8198    2290.8314    0.4408707  0.002477585 0.0058000111 
 4044000    257.21856   -1074.5672    496.94905   -6359.4627    2339.0172   -3451.1039   0.44085001 0.0024814832  0.005796296 
 4046000    325.73817    -1074.704    5733.7969   -6992.0753    -1910.956    698.71659   0.44081468 0.0024821386 0.0057939589 
 4048000    313.36569   -1074.2102    2473.1005   -7722.5049   -1209.1256   -939.22661   0.44082001 0.0024854342 0.0057922048 
 4050000    306.09352   -1074.3363    5136.7289   -8503.8099   -1068.0101   -841.05464   0.44085964 0.0024815221 0.0057981859 
 4052000    271.10682   -1073.7791    2236.5268   -8013.6716   -891.04454   -3058.0818   0.44090618 0.0024804517 0.0058005055 
 4054000    276.89444   -1074.6819    499.09843    -6276.998    1757.1758   -3014.2503   0.44093924 0.0024794231 0.0057992198 
 4056000    337.21673   -1073.2285    5356.8481   -7712.9201   -1074.9461    62.070967   0.44096746 0.0024788551 0.0057963004 
 4058000    294.03096   -1074.4609    1873.6851   -9822.9234    986.06205   -705.38041    0.4409596 0.0024820251 0.0057936329 
 4060000    314.32999   -1073.4594    7888.1505   -5589.8569   -3381.5733   -561.02077   0.44099681 0.0024797881 0.0057968783 
 4062000     302.5606   -1074.3935    3597.1502   -9412.4179       1465.5    3464.0537   0.44102169 0.0024785342  0.005796577 
 4064000    270.77884   -1073.6513    6136.9614   -7456.5447   -2676.6173    57.002513   0.44100266  0.002478019 0.0057987153 
 4066000    247.67372   -1074.0379    2098.4544   -9193.6714     -1865.56    506.90637   0.44103033 0.0024770341 0.0057968256 
 4068000    293.91749    -1074.781    4023.5454   -9536.6337    2829.4609   -1428.1565    0.4410305 0.0024758915 0.0057953071 
 4070000    287.60917   -1073.8835    3083.1966   -8009.6028    2486.4261    1643.9145   0.44101516 0.0024751452 0.0057929543 
 4072000    304.30117   -1073.8674    4909.7673   -9216.0474   -3732.6629   -868.77304   0.44107238 0.0024741795  0.005791844 
 4074000    277.45666   -1074.6098   -1291.7581   -6965.8138    2870.8511    1629.9924   0.44109957 0.0024750897 0.0057930718 
 4076000    346.50328   -1074.1325    4284.6184   -5685.4753   -3930.4019   -398.52899   0.44107262 0.0024763851 0.0057918651 
 4078000    320.31727   -1074.1425    5799.0426   -5809.5482    1995.4732    671.52994   0.44105358  0.002477549 0.0057917127 
 4080000    324.01506   -1074.2596    9142.7335   -5159.9893   -4320.9058   -569.48179   0.44104915 0.0024769196 0.0057883316 
 4082000    267.06691   -1074.2106   -232.28834   -8976.3269    3846.7681    690.47752   0.44107777 0.0024750461 0.0057876405 
 4084000    273.96365   -1074.6592    521.20895   -10794.257    3887.1916   -1278.7528   0.44106892 0.0024752395 0.0057869051 
 4086000    281.89421   -1074.1939    2980.8575   -7258.0469   -900.93255   -694.12178   0.44111008  0.002477506 0.0057849229 
 4088000     296.7578   -1074.6171    2626.7896    -9274.468    4141.8819    663.57273    0.4411254 0.0024754885 0.0057821872 
 4090000    286.68672   -1074.1325     1163.311   -6614.7999    2728.8421   -3411.0288    0.4411354 0.0024763843 0.0057804782 
 4092000    297.07498   -1074.3002   -401.10218   -10131.926    2528.1905   -2534.1775   0.44113454 0.0024773358 0.0057797084 
 4094000    286.05847   -1073.9888    1601.0461   -8360.3654    2840.8447   -5184.6946    0.4411372 0.0024769706 0.0057797181 
 4096000    306.11201   -1074.8863   -644.84388   -8328.6754   -2869.5174   -1638.3803    0.4411442 0.0024763392 0.0057767391 
 4098000    283.92876   -1073.6559    146.39358   -9972.5928    4400.2182   -213.07852   0.44119188 0.0024754018 0.0057764065 
 4100000    309.09971   -1073.9219    3937.7478   -9337.5822   -4688.7545    1622.1731   0.44120096 0.0024757456 0.0057732001 
 4102000    304.23512   -1074.4467   -86.865492   -6543.4759    3078.3339    620.51104   0.44120034  0.002474551 0.0057742907 
 4104000    281.61027   -1074.5462    2165.2163   -7952.0473    1933.0054    1024.7105   0.44123686 0.0024737124 0.0057737208 
 4106000    312.34955   -1074.5075    2805.7799   -6924.0281    1601.1342   -4562.0623   0.44125612 0.0024729887 0.0057708789 
 4108000     286.0332   -1074.3466    1640.2911   -6193.1106    1843.2232   -2754.0944   0.44124598 0.0024727271 0.0057696434 
 4110000    292.50093   -1074.1164    304.68214   -8516.5872    2659.2309   -4915.8069   0.44125163 0.0024716656 0.0057685817 
 4112000    317.72035   -1074.2634     1800.062   -3661.8543    3711.0687   -2544.0005   0.44124968 0.0024722211 0.0057687237 
 4114000    283.56532   -1074.4581    2324.8762   -6442.6177   -720.80036   -2686.7567   0.44121921 0.0024711351 0.0057670871 
 4116000    313.01535   -1074.4585     7772.959   -7306.0885   -2323.0335   -1057.2757   0.44122645 0.0024711999 0.0057652577 
 4118000    296.40114   -1073.6409   -894.19651   -7257.6128    2236.6796   -1489.7535   0.44125389 0.0024693508 0.0057636086 
 4120000    338.53175    -1074.059    3126.0442   -7936.7927   -899.21154   -820.67318   0.44126203 0.0024686014 0.0057639355 
 4122000    364.91402   -1074.0562      5181.11   -8533.0541    37.757832   -1278.5449   0.44127493 0.0024675148 0.0057651847 
 4124000    251.12761     -1073.72    1680.0187   -8825.3222    1644.3346    678.66735   0.44130683 0.0024665458 0.0057618597 
 4126000     276.3813    -1074.316     1694.852   -5659.2168   -555.28688   -405.95706   0.44131934  0.002466013 0.0057630475 
 4128000    246.36375   -1074.1136    1589.0056   -7516.4432    1252.8855   -673.86604    0.4413296  0.002465115 0.0057619209 
 4130000    325.48694   -1073.6873    1954.3519   -8240.9927    1860.1048    759.52839    0.4413285  0.002464062 0.0057592371 
 4132000    300.90873    -1073.999   -713.70827   -5722.0689   -12.429847   -2860.4152    0.4413048 0.0024626736 0.0057599083 
 4134000    287.94149   -1074.5471    1986.9118    -6917.795   -278.63888   -3281.8561     0.441292 0.0024617795 0.0057626792 
 4136000    310.96268   -1074.2291      1565.89   -7064.2227   -1268.7854   -247.48685   0.44131775 0.0024615652 0.0057632669 
 4138000    313.39719   -1073.8571    3731.2407   -8116.9573    326.24703   -417.06607   0.44135126 0.0024601437 0.0057602967 
 4140000    316.16086   -1074.2715    3080.3895    -7541.835   -674.56917    793.61276   0.44136637 0.0024612356 0.0057596253 
 4142000    310.85353    -1074.805    6676.8158    -5819.548     143.2888   -1089.9872   0.44137894 0.0024601455 0.0057573443 
 4144000    314.49695   -1074.7043    3961.8571   -8855.9027   -521.11563    861.32094   0.44138712 0.0024605499  0.005755033 
 4146000    315.74515   -1074.1745    5125.8121   -8601.6696    425.86806    1148.0132   0.44139073 0.0024601983 0.0057588581 
 4148000    293.93125   -1074.0203    3295.5484   -9245.0416    393.93462   -4448.8075   0.44141013 0.0024606427 0.0057592625 
 4150000    314.59081   -1074.8697    2274.8698   -7255.0457   -3274.6915   -3785.9421   0.44141145 0.0024588298 0.0057586471 
 4152000    321.95892   -1074.4959    1950.5552   -6551.2519   -2992.4862   -870.86974   0.44140947 0.0024592042 0.0057577538 
 4154000    277.00966   -1073.5787    1744.4323   -12595.967   -3148.2725   -1918.9556   0.44143238 0.0024612204 0.0057554495 
 4156000    302.91068   -1074.5415     61.50413   -8578.9479    -1562.776   -688.61968   0.44147329 0.0024603359 0.0057536422 
 4158000    304.39063   -1074.9375    407.09683   -6780.2696    3440.3609   -3284.6717   0.44144806 0.0024588369 0.0057533449 
 4160000    301.92937   -1073.9047    864.18535   -8177.2344    533.76241   -1156.2307    0.4414695 0.0024583916 0.0057500292 
 4162000    281.20078   -1074.2426    1539.0134   -9887.8248    3251.4749   -2914.0846   0.44148908 0.0024573455 0.0057507416 
 4164000    300.82218   -1074.9267    6182.1299    -8808.574    68.341047   -2520.7236   0.44151627 0.0024561941 0.0057493475 
 4166000    288.62906   -1073.8947    5419.4935   -5563.6575    2604.3252   -76.435914   0.44152593 0.0024553723 0.0057471076 
 4168000    314.08971   -1074.0545    3711.7652    -7355.945     1628.013   -131.21129   0.44151612 0.0024596318 0.0057441948 
 4170000    317.74704   -1074.1102    5003.3115   -6878.9481   -2480.8324   -194.27789   0.44147304 0.0024619306  0.005743456 
 4172000    291.78327   -1073.8762    480.96625   -6604.5723    -335.0588   -3082.1238   0.44147841 0.0024604944 0.0057445294 
 4174000     293.2324   -1074.4815    37.240885   -9463.7236   -1397.7936   -682.47924   0.44148755 0.0024602865 0.0057430805 
 4176000    325.14012   -1074.4999   -11.057339   -7976.3996    2186.8073   -2196.9443   0.44150391 0.0024587659 0.0057444224 
 4178000     334.0275   -1074.5673    3778.1929    -7012.726    64.985503    -584.3809   0.44152848  0.002457834 0.0057437486 
 4180000    309.84121   -1074.0697    1142.2593   -7339.3573     1623.973   -2730.8051   0.44151982 0.0024581459  0.005741765 
 4182000    279.80487   -1074.3587    3455.3081   -13321.973   -1795.1854    953.65866   0.44150658   0.00245919 0.0057394209 
 4184000    284.11958   -1074.0146   -560.60653   -7872.3759    1110.6444   -885.72015    0.4415326 0.0024581463 0.0057373543 
 4186000    307.83866    -1074.443   -1501.0219   -7241.6299     3919.571    1084.7238    0.4415552 0.0024570089 0.0057394002 
 4188000     327.6647   -1073.7603    2042.2999    -9795.135    2145.8687    2264.6068   0.44153964  0.002458765 0.0057390608 
 4190000    271.77204   -1074.1822    1183.5434   -7907.7504    463.29147   -2429.0167    0.4415202 0.0024580958 0.0057365342 
 4192000    285.57103   -1074.7923   -1360.9324   -8489.4031    1348.5072    185.48455   0.44152106 0.0024598257 0.0057343843 
 4194000    289.76486     -1073.95     3359.871   -10416.512   -2481.7232     1242.557   0.44154847 0.0024578529 0.0057379398 
 4196000    285.72511   -1073.9723    3459.4749   -5261.1616   -1918.6954    1883.9105   0.44157921 0.0024566967 0.0057373999 
 4198000    273.63768   -1073.3532    2990.4331   -8397.0635     3626.487    1071.2572   0.44162046 0.0024567131 0.0057347696 
 4200000    290.08463   -1074.1942    3176.0422   -6544.7965   -592.84447    2343.4668   0.44162829 0.0024555786 0.0057352421 
 4202000    314.94797   -1074.3435    7209.7508   -6869.8991    58.779158   -1280.9241   0.44165404 0.0024546504 0.0057324629 
 4204000    329.96301   -1073.9434    5020.6884   -8430.6094   -1675.6356    1061.7268   0.44166985 0.0024531587 0.0057332091 
 4206000    267.85747   -1073.6794    2093.2834   -9002.3982    1761.5432   -320.92713   0.44167009 0.0024524264 0.0057313429 
 4208000    331.58525   -1074.1819    6700.4248   -10477.283    685.39338   -2262.7797     0.441671 0.0024525625 0.0057328371 
 4210000    291.70723   -1074.2369    1800.9584   -7082.7513    702.25433   -1309.3155    0.4416679 0.0024516745 0.0057312166 
 4212000    292.83479   -1074.7058    4651.9681   -9743.2994   -4.3956083    1995.3381    0.4416291 0.0024508427 0.0057299217 
 4214000      315.937   -1074.5368    3208.1715   -10020.452    71.831656   -1639.4686   0.44166543 0.0024497844 0.0057274741 
 4216000    334.67676   -1074.3564    3309.6712   -6687.7622   -468.45405    -2599.112   0.44169443 0.0024485618 0.0057248496 
 4218000    311.44679   -1074.5135    471.08752    -7720.514     2033.828   -1590.1252   0.44168848 0.0024485383 0.0057262822 
 4220000    277.78686   -1074.0216     7675.435   -8022.4143   -1097.9134    2329.4335   0.44167471 0.0024486845 0.0057258268 
 4222000    330.00096    -1074.173    4921.3173   -8846.0482    366.27765    214.17034   0.44167703 0.0024478685 0.0057248081 
 4224000    282.18942   -1075.1887    1198.2948    -8943.906   -1942.2945   -2062.3826   0.44167503 0.0024504015 0.0057218694 
 4226000     288.2711    -1073.746    1655.6063    -7973.382    -3008.715   -664.65935   0.44169085 0.0024501914 0.0057194335 
 4228000    312.66384   -1074.3269    3768.7414   -9340.0254    630.41254    249.11603   0.44171903 0.0024492334 0.0057175914 
 4230000    286.93584   -1074.5059     777.4927   -9281.7728   -2220.9981   -1674.1805   0.44170586 0.0024484148 0.0057203846 
 4232000    292.10392    -1074.068    4021.5393   -10799.234   -1648.9393   -910.22691   0.44170236 0.0024473177 0.0057217126 
 4234000    324.57639   -1073.7487    560.36347   -7739.3261    3326.8223    1570.4064   0.44169584   0.00244645 0.0057194145 
 4236000    308.91099   -1074.1432    2193.8822   -8917.4044   -1885.5688   -908.80467    0.4417004 0.0024486273 0.0057213086 
 4238000    284.72162   -1074.4854    3182.1719   -7630.3465    2350.4516   -2055.7888   0.44169587 0.0024470972 0.0057235076 
 4240000     309.6752   -1074.6697    5410.7026    -9593.387    372.21653   -1601.3369   0.44172625 0.0024476035  0.005721994 
 4242000    334.29456   -1073.5286    3314.0672   -7845.8455    1661.2958   -5180.0696   0.44176644 0.0024460484 0.0057204958 
 4244000    282.71969   -1073.8933    7013.6581   -8132.5423   -2085.5936    1262.9084   0.44180026 0.0024454154 0.0057186119 
 4246000    292.19751   -1074.7035     1388.471   -5826.9601   -1173.7523   -444.53463   0.44178229 0.0024446627 0.0057167763 
 4248000    255.59891   -1074.8121    1797.5703   -9358.9049   -569.33558   -4714.3088   0.44178515 0.0024434339 0.0057134922 
 4250000    309.60737   -1074.0456    2187.0257   -6381.6934    1193.2477    321.99676   0.44177883 0.0024428883 0.0057151781 
 4252000    312.78356      -1074.1    504.99962   -6434.7809    3354.3401   -1623.9967   0.44178024 0.0024431892 0.0057127611 
 4254000    302.88033   -1074.6002    5356.6998   -7347.8439   -156.26647    247.70308   0.44180764 0.0024442704 0.0057129779 
 4256000    295.90739   -1074.2726   -1090.8052   -7491.7459   -1645.1212    1229.8851   0.44180603 0.0024474441 0.0057104054 
 4258000    238.58634   -1074.0612   -1833.5882   -7167.5356    1518.8023   -746.94348   0.44181189 0.0024480723 0.0057076781 
 4260000    300.51911   -1074.3146    1520.5636   -8708.4307   -1164.9072    872.31495   0.44182471  0.002446059 0.0057073342 
 4262000    316.62768   -1074.6418     1942.721   -8955.9449    1106.9496    547.94473   0.44185116 0.0024450876 0.0057104174 
 4264000    292.14055   -1074.4085    731.58751   -6442.4248     1538.554   -366.88382   0.44184675 0.0024446735 0.0057074365 
 4266000    312.38562    -1073.812    5337.8149   -8465.1116    321.63537   -357.42424   0.44184853 0.0024473721 0.0057051801 
 4268000    275.86079   -1073.8619    7043.3028   -4982.9768   -214.90762    1221.3027   0.44184572 0.0024491317 0.0057061107 
 4270000    291.21768   -1073.9913    3446.6678   -9706.1035   -509.88713   -1621.9767   0.44186091 0.0024476839 0.0057031872 
 4272000    325.75328   -1074.1957    3168.9194    -8688.051   -446.08311   -1079.7441   0.44187584 0.0024469321 0.0057021455 
 4274000     292.0045   -1074.9549    1733.1794   -8374.7104   -1833.0606    527.28424   0.44187136 0.0024486983 0.0057029361 
 4276000     279.5385   -1074.4623    2436.2883   -8698.6185   -345.68365   -169.90738    0.4418789 0.0024477815 0.0057011217 
 4278000    263.51012   -1074.0365     3837.624   -10665.448    4918.6547    1385.2267     0.441879 0.0024471166 0.0056989877 
 4280000     320.8165   -1075.0006    2089.7801   -9884.5911   -2720.1082   -1363.8522    0.4419077 0.0024479482 0.0057019842 
 4282000    306.65736    -1074.332    5610.7589   -7706.9301    1592.7425    1146.6071   0.44191183 0.0024476215 0.0057043577 
 4284000    283.64087    -1075.016    1173.0602   -7952.4723    1419.0307   -66.916223    0.4419085 0.0024475905 0.0057007406 
 4286000    307.56625   -1074.9984   -2816.1525   -5337.3811    1950.4831   -634.97827   0.44192232 0.0024494524 0.0056998287 
 4288000    307.16169    -1073.662    3947.4683     -8215.81   -918.23882    1372.1321   0.44193726 0.0024472355 0.0056974263 
 4290000    289.13985   -1074.0641   -1768.7402   -9246.5837    1843.1701   -2388.5476   0.44196808 0.0024459832 0.0056967063 
 4292000    310.69305   -1074.4947    4027.8992   -8691.2205    1125.0141    154.47233   0.44200054 0.0024450733 0.0057032167 
 4294000    267.94574   -1074.0635   -3473.5536   -7163.6464   -420.99909    1637.2985    0.4420131 0.0024451183 0.0057019135 
 4296000    298.13753   -1074.1507   -545.45547   -6920.8851    500.56359    510.55719   0.44200576 0.0024443101 0.0056996812 
 4298000    259.50282   -1074.4243   -786.88861    -9436.467    655.15217   -4504.9673   0.44201938 0.0024461116 0.0056967778 
 4300000    291.81873   -1073.9188    219.93897   -6555.3625   -2830.4637   -4127.2811    0.4420237 0.0024455696 0.0056978553 
 4302000      258.084   -1073.9269    1408.5949   -8016.8902     3468.349   -91.048292    0.4420381 0.0024439925 0.0056988689 
 4304000    307.20278   -1074.6853    1627.7221   -6967.2775    402.93808    218.60204   0.44201595 0.0024441979 0.0057062639 
 4306000    237.81623   -1074.1952     4273.035   -7437.3168    1746.8053   -217.63372    0.4420191  0.002442588 0.0057058227 
 4308000    282.56972   -1074.7185    4145.7797   -6620.6877    6391.0153   -2897.3471   0.44201117 0.0024461204 0.0057029527 
 4310000    294.58299   -1074.4636    5292.4958    -8031.358    2186.0502    1588.1429   0.44198869 0.0024458467 0.0057011064 
 4312000    325.44368   -1074.0885    2965.6737   -6868.0911    2305.8609     -3732.46   0.44201517 0.0024451454 0.0056982503 
 4314000    301.73072   -1074.7453    3128.0303   -5650.2773    312.47557   -3757.6473   0.44201928 0.0024442783 0.0056999562 
 4316000    291.48087   -1073.7272    2514.8202   -8656.5256    979.89315   -3483.2782   0.44206289 0.0024433608  0.005701293 
 4318000    312.26035   -1074.0544   -1919.3888   -6424.2855   -3058.0702   -2398.4275   0.44204398 0.0024422452 0.0057024086 
 4320000    319.18214   -1074.8145    548.61639   -9606.1652    1752.4232   -1487.2463   0.44205077 0.0024434041 0.0057042819 
 4322000    346.76858   -1074.0316     3357.211    -5032.655    2361.7034   -721.29589    0.4420689 0.0024443993 0.0057016307 
 4324000    297.09368   -1074.6882    5757.8872   -7732.2723    290.01585   -1953.3454   0.44210821 0.0024437019 0.0056999519 
 4326000    251.86198   -1074.3382    7829.6583   -6946.5844    3252.1153    1130.5406   0.44211371 0.0024429389 0.0056984942 
 4328000     283.9675   -1074.4888    1158.3823   -5281.1584    1472.4106    -1044.746   0.44211788 0.0024414814 0.0056974367 
 4330000    285.08226   -1074.7921    3313.5494   -8826.1951    2980.1867   -2670.8983   0.44210104 0.0024405565 0.0056998986 
 4332000    284.81847   -1073.8483    1559.2623   -8224.5164   -1047.5972   -1023.7512   0.44208305  0.002442857 0.0057014157 
 4334000    308.03748    -1074.511    2474.1317    -10944.49    1302.3505    906.35804   0.44205228 0.0024433186 0.0057001365 
 4336000    289.22975   -1073.7497   -1501.9552   -6327.7688    594.26154   -1250.9318   0.44204073 0.0024433306 0.0057012425 
 4338000    327.09516   -1074.1402    1633.6044    -10032.83   -796.68205   -324.90213   0.44208792 0.0024435059 0.0057007919 
 4340000    313.22658     -1073.74    2619.1552   -10740.949   -1838.3383   -2790.3516   0.44216308 0.0024427785 0.0056996046 
 4342000    268.20785   -1074.3008    2931.8645   -8936.4217    601.72946    3391.0986   0.44215756 0.0024424779  0.005698364 
 4344000    326.33092   -1074.4718    757.57098    -8075.435    2058.0567    -3204.424   0.44215811 0.0024462844 0.0056965702 
 4346000    328.15157   -1073.9743    1629.2069   -9080.6813   -306.00671    1367.4808   0.44211244 0.0024544589 0.0056981875 
 4348000    275.85699   -1074.3574    1107.5296   -8427.9806   -2335.5193    2159.3619   0.44209548 0.0024537031 0.0056976176 
 4350000    266.60739   -1073.4824    1748.3202   -5773.8166   -110.72235   -1764.2378   0.44210942 0.0024535349 0.0056953658 
 4352000    296.36656   -1073.9243     1676.662   -7517.4179    90.207927   -346.05927   0.44212994 0.0024546893 0.0056936369 
 4354000    283.81038   -1073.8207    2950.7065   -8738.8225   -1077.2705    2271.8866   0.44214913 0.0024538453 0.0056927375 
 4356000    288.91895   -1074.7659    5171.0712   -7738.1411    720.22163    63.845555   0.44215537 0.0024527947 0.0056900223 
 4358000    266.03288   -1074.6959    6256.2151   -9599.6622    2990.8182   -1056.4473   0.44219119 0.0024521541 0.0056879245 
 4360000    310.44874   -1074.4596    806.08727   -8418.6998   -381.30159   -1311.2674   0.44219314 0.0024513072 0.0056873751 
 4362000    297.60425   -1074.2767    515.18311   -7242.6494    732.11123   -3445.4674   0.44224557 0.0024505351 0.0056870926 
 4364000    281.47002   -1074.3255    3168.7728     -8013.65   -126.43542    869.67737   0.44228824 0.0024490526 0.0056878807 
 4366000    319.41539   -1074.4765    1411.6523   -6212.6858    3403.2616   -77.295262   0.44227464 0.0024514374 0.0056895543 
 4368000    302.29197   -1074.2876     2276.446   -7477.5237    1825.0201     632.5484   0.44225611 0.0024493886 0.0056874634 
 4370000    326.13406   -1074.5943    636.34335   -7341.8132   -43.361686   -1499.2175   0.44225213 0.0024469679 0.0056849173 
 4372000    285.27874   -1073.9074   -755.20895   -7192.9591    2347.0653   -2095.3196   0.44228159 0.0024468839 0.0056841227 
 4374000     296.2432   -1074.0189    2179.4629   -5069.3337    1917.7973   -1611.6529   0.44226649 0.0024480369 0.0056858664 
 4376000    284.03941   -1074.4617   -743.64921   -7005.8594    2134.4463   -3225.0235   0.44226302 0.0024504321 0.0056848313 
 4378000    307.20754   -1074.0059    3177.0213   -6792.7124    3124.7077   -998.74807   0.44226289 0.0024497375 0.0056867738 
 4380000    278.59063     -1074.24   -1561.4186   -8022.1029   -1924.6971   -2490.0489   0.44228529 0.0024486842 0.0056871931 
 4382000     286.1611   -1074.7503    3263.8309   -8017.0759   -530.48177    69.871099   0.44231694 0.0024477905 0.0056840156 
 4384000    315.72696   -1073.9692   -472.49675    -5322.341     1090.547   -2699.6087    0.4423408 0.0024478665 0.0056832655 
 4386000    298.31879   -1074.3262    494.44709   -7802.0495    4110.5422   -2719.6303   0.44234051 0.0024473914 0.0056836918 
 4388000    307.60896   -1074.0597    2055.5777   -7928.1648    185.35168   -4442.6862   0.44231826 0.0024494886 0.0056856245 
 4390000    296.90532   -1074.0135    1176.4196   -9342.1406    1490.4115   -2782.5374   0.44229015 0.0024531055 0.0056857571 
 4392000     299.5689   -1074.1328    2115.3524   -11664.382    1817.2996   -1620.9819   0.44225192 0.0024595844 0.0056847934 
 4394000    305.68081   -1074.1428    7033.3176   -5064.5191    -205.1745   -3448.8355   0.44226574 0.0024585966 0.0056823256 
 4396000    292.70397   -1074.1808    4277.4455   -8226.2613   -3602.1856   -2858.8125   0.44233374 0.0024580685  0.005679911 
 4398000     324.0705   -1074.8502     3874.979   -8769.7632   -89.549991   -977.50392   0.44236112 0.0024566968 0.0056791526 
 4400000    272.45477   -1073.6696     1599.094   -7120.3073    5458.9164    -1991.008     0.442343 0.0024579816 0.0056776794 
 4402000    293.53734   -1073.5763    968.86685   -9545.3634   -52.277137   -913.89619   0.44232423 0.0024650959 0.0056776943 
 4404000    279.08035   -1073.9369     1545.508   -7757.6914    182.17795     599.4259   0.44226305 0.0024681972 0.0056760831 
 4406000    271.05831   -1074.8053    2749.5329   -10278.988   -952.62333   -3429.4316   0.44224807 0.0024693005  0.005674252 
 4408000    290.94864   -1073.4895    1494.0289   -7345.3741   -63.230202    2145.6244   0.44224666 0.0024683056 0.0056735604 
 4410000    310.56375    -1073.618   -2806.9491   -10295.167    588.44596   -2023.2039   0.44228141 0.0024673901 0.0056726874 
 4412000    289.00325   -1074.1517    343.69471   -7742.7935    3723.5246   -856.05127    0.4423637  0.002466693 0.0056698125 
 4414000    300.58126   -1073.2678   -709.23829   -8197.4882    61.831113   -425.43058   0.44235003 0.0024673674 0.0056674454 
 4416000    315.41571   -1074.3748   -504.59384   -7392.2627     3304.751   -1535.0303   0.44229599 0.0024715864 0.0056692146 
 4418000    283.01796   -1073.9548    2391.8808   -8718.4013    1764.8214   -2120.8252   0.44227218 0.0024750156 0.0056671917 
 4420000    297.86716   -1074.3562    3372.3331   -9835.5425   -192.19269    1982.6468   0.44227404  0.002474714 0.0056656581 
 4422000    299.36369   -1074.1925    867.58809   -5783.3249   -224.46073   -2024.9004   0.44231366 0.0024739581 0.0056640371 
 4424000    296.47394   -1074.2676    5805.2889   -6450.8434   -2734.9857    271.98513   0.44235627 0.0024737833  0.005663306 
 4426000    306.86103   -1074.2123    4742.8786   -9291.6356    48.781317    3647.3237   0.44240729 0.0024723363 0.0056617621 
 4428000    300.70294   -1074.6863    1657.3571   -8477.6308    818.25415   -2582.0268   0.44243544  0.002471664 0.0056613912 
 4430000    273.65151     -1073.49    3408.3839   -8500.0667    2329.4357    1489.7592   0.44244207 0.0024724209 0.0056606061 
 4432000    313.41934   -1074.2196   -851.67393   -8267.3947    4045.8915    -3145.982   0.44246623 0.0024720799 0.0056591215 
 4434000    318.38096   -1073.7575    3628.2606    -3172.543    3847.8332   -5085.2126   0.44243689 0.0024739797 0.0056634065 
 4436000    273.03786   -1074.1624    4953.0218   -6732.1084   -2279.0017   -1637.9353    0.4424264 0.0024733261 0.0056635201 
 4438000    293.12439   -1073.4882    1466.0197   -9875.4123   -1604.3944   -1649.4694   0.44248249 0.0024725868 0.0056611079 
 4440000    291.63877   -1074.0648    4780.4964   -9796.5708   -2305.2427    2529.2375   0.44251347 0.0024710801   0.00565985 
 4442000    303.42083   -1074.0376      7388.68   -9761.7217    1212.6415    2479.1094   0.44254936 0.0024705214 0.0056600451 
 4444000    324.37589   -1073.8733    4994.0911   -7556.0691   -319.01132   -554.46322   0.44254717 0.0024700929 0.0056575394 
 4446000    305.76129   -1074.5898    4709.1815   -8172.7805   -497.32536   -870.58694    0.4425532 0.0024704731 0.0056557941 
 4448000    281.15355   -1074.3388    3027.7814   -4257.9987    299.54402   -662.87526   0.44254389 0.0024706133 0.0056543264 
 4450000    346.00452   -1074.4663    496.00979    -9437.168   -2731.0128    848.59809   0.44255452 0.0024698693 0.0056563096 
 4452000    324.45133   -1074.6213    882.36604   -7389.2037     2063.585    84.500104   0.44255361 0.0024689118 0.0056565988 
 4454000     297.3647   -1074.2089    1343.4645   -8354.1832    66.696123   -3388.5297   0.44257902 0.0024707353 0.0056547412 
 4456000    295.40754   -1074.1954    5501.4292   -8247.4744   -2375.3409    601.57535   0.44260215 0.0024697505  0.005651935 
 4458000    308.01128   -1074.5544     5974.708   -8171.5721    563.97838   -2574.3194   0.44265331 0.0024694758 0.0056528845 
 4460000    305.14279    -1074.181    2204.5277   -5173.7745    2437.5523     8.306333   0.44265738 0.0024686869  0.005653341 
 4462000    300.58356    -1074.537    1890.2229   -9281.8785    -1664.313   -2073.8322   0.44263693 0.0024681974 0.0056522267 
 4464000     320.0478   -1074.3528    1102.7991   -9740.9486    1962.5163   -1334.8237   0.44262371  0.002467325  0.005652681 
 4466000    266.39705   -1074.5947    2600.5054   -8469.8015   -2664.9693    1011.5919    0.4426397 0.0024690319 0.0056506286 
 4468000    262.01628   -1074.3597    35.506521    -8010.062    2717.7616   -2265.1971   0.44264875 0.0024676029   0.00564946 
 4470000    291.28196   -1073.6932    930.17065   -8652.2423   -1611.4048   -1062.9086   0.44266199 0.0024678328 0.0056492749 
 4472000    288.93152   -1074.3566    899.92497   -8817.7698    2123.9832   -1984.5304   0.44266051 0.0024687852 0.0056460475 
 4474000    286.36018   -1073.7915     1842.393   -9426.0713    554.02149   -2134.8554    0.4426543 0.0024679747 0.0056448027 
 4476000    310.56425   -1075.0009    3737.8189     -8796.83   -1193.4687   -980.96348   0.44263829  0.002466874 0.0056425212 
 4478000    298.04857   -1074.1245    778.62911   -9550.9574     2099.802   -489.51044   0.44264412 0.0024659411 0.0056449002 
 4480000    289.19627   -1074.8435    2688.3442   -10987.452    -3421.901   -181.53991   0.44266561 0.0024654674 0.0056447688 
 4482000    285.59141   -1073.7391     4160.301   -6735.2475      653.098     320.4403   0.44268389 0.0024644234 0.0056458611 
 4484000    269.95501   -1074.6212    1148.8638   -7404.6193    413.89199    -1710.687   0.44269741 0.0024661782 0.0056437969 
 4486000    314.47334   -1073.5416    5088.1853    -7270.763    -1819.245   -3504.0012   0.44268785 0.0024666739  0.005642105 
 4488000    292.92345   -1074.7809    340.98032   -10043.248   -650.09581   -522.74274   0.44271615 0.0024653594 0.0056418881 
 4490000    301.76939   -1074.0617    4443.9019   -7279.6521   -258.29402    149.90445    0.4427348 0.0024650469 0.0056394906 
 4492000    285.32025   -1074.8667    1841.6666   -4483.3567    1809.6778   -3411.1923   0.44268562 0.0024658637 0.0056429763 
 4494000    290.28268   -1074.1825    3415.8336   -7072.8392     1701.768   -520.20415    0.4426599 0.0024653095 0.0056406876 
 4496000    310.53646   -1074.5113    5428.1651   -6050.0123   -700.77862   -1511.1442   0.44267864 0.0024653536 0.0056393639 
 4498000    295.30325   -1074.1375   -597.44232   -9874.3367     1933.219   -788.96111   0.44271084 0.0024645005 0.0056370007 
 4500000    349.25831   -1074.2284    5091.3094   -9751.1548   -665.33052   -2007.9644   0.44272719 0.0024636036 0.0056359242 
 4502000    322.16557   -1074.3643    741.57872   -7307.3953    1565.8671    2193.4243   0.44272082  0.002463111 0.0056337031 
 4504000    325.74371   -1072.9036    4966.7343    -8854.185   -6023.9552     1049.596   0.44269897 0.0024655499   0.00563187 
 4506000    322.98608   -1074.5489    222.79702   -8926.7999    3697.6994    -962.6213   0.44268747 0.0024660974 0.0056292575 
 4508000    305.35075   -1073.4129   -999.74279   -9587.2097     4124.261   -2175.7597   0.44270245 0.0024654037 0.0056276439 
 4510000     314.7863   -1074.4658    2690.0704   -7717.5626   -186.44244   -485.24547   0.44270803 0.0024648634 0.0056286123 
 4512000     333.7617   -1073.4689    2981.3575   -7869.9067    1171.1876     3928.449   0.44271906 0.0024659363 0.0056260287 
 4514000    255.60329   -1074.6978    1089.4801    -7672.958    3445.0723   -3171.0051   0.44268571 0.0024699193 0.0056237312 
 4516000    288.21836   -1074.0952    1399.4223   -8965.6137    180.99055    -224.5866   0.44266644 0.0024713802 0.0056232953 
 4518000    290.74517   -1073.6123    2365.1759    -5868.242    85.322705    -3503.181   0.44269239 0.0024710648 0.0056217358 
 4520000    308.83279   -1074.2713   -95.306344   -6359.4027    1459.5854   -1061.7531   0.44271825  0.002469457 0.0056206189 
 4522000     276.4581   -1073.2337    3996.6633   -8363.6272    881.00471   -2266.3052   0.44275504 0.0024690528 0.0056186551 
 4524000      299.733   -1073.9455   -1393.3329   -7744.1177    1938.7086   -2481.0892   0.44273696 0.0024689031  0.005618563 
 4526000    273.87632    -1073.732    1910.2076   -9641.4069    238.02248    578.85304   0.44272314 0.0024685039 0.0056190626 
 4528000    286.62188   -1073.4956    3032.5449   -7650.7474   -1140.0773   -408.73342   0.44275303  0.002469516  0.005618041 
 4530000    321.20254   -1074.2465    5745.4299   -7395.5568   -3166.9737    -672.7655   0.44275427 0.0024676451 0.0056152894 
 4532000    288.08135   -1074.6296    4911.7651   -8716.7799      327.547   -1252.1771   0.44277052  0.002466695  0.005615029 
 4534000    296.00545   -1074.0993   -3288.8959   -7368.4423    -502.5672   -2241.3808   0.44280037 0.0024655833 0.0056148813 
 4536000    311.25009   -1074.3173    3078.4198   -9756.6067   -2116.0649    1788.2474   0.44282194 0.0024647587 0.0056161989 
 4538000    299.34001   -1073.6984   -2079.8057   -6804.3095     448.0814   -67.147071    0.4428235 0.0024654397 0.0056133062 
 4540000    303.17353   -1074.0708    3021.2007   -8102.6942         1535   -1212.8831   0.44281452 0.0024684047 0.0056130252 
 4542000    317.64982   -1074.8284    1402.7191    -5825.819    1419.7545    1557.7004    0.4427582 0.0024722182 0.0056145089 
 4544000    293.12722   -1074.2701    8059.5009   -8076.4489   -1451.0545    745.60499   0.44274957   0.00247166 0.0056129981 
 4546000     320.5481   -1074.8831    2986.3451   -5769.4174    1531.9389   -2134.1233     0.442797 0.0024705804 0.0056109299 
 4548000    263.70991   -1074.3402    3465.5124   -7272.3892   -3107.3092   -1510.5979   0.44282103 0.0024706071 0.0056089152 
 4550000    327.85063   -1074.6743    2017.2953   -7955.6906    2939.0812   -852.15662   0.44282691 0.0024694148 0.0056075445 
 4552000    300.74729   -1074.0336    2631.7014   -9589.2992   -1222.8671    735.37222   0.44282766 0.0024705124 0.0056081348 
 4554000    282.37327   -1074.2265    2279.2443   -5796.9294    1485.8633   -3612.7176   0.44281157 0.0024748333 0.0056069382 
 4556000     301.0582   -1074.0688     1496.529   -7304.6042     1752.754   -3496.7756   0.44280724 0.0024726409  0.005610683 
 4558000    299.19197   -1074.2587   -302.32929   -6272.1626    888.54188   -2322.8531   0.44282174 0.0024713908 0.0056173375 
 4560000    259.42979   -1074.3349     2225.606   -7024.8761   -221.48832    -1986.941   0.44283635  0.002471583  0.005615534 
 4562000    287.48535   -1073.8636    900.82215   -10996.519   -1452.9702    430.86037   0.44285741 0.0024706232 0.0056135139 
 4564000    308.08959   -1073.8474    1899.8713   -9551.7052    3054.1374   -851.22032    0.4428989  0.002469971 0.0056114272 
 4566000    290.15571   -1073.4029    1565.6921   -9849.7053    726.33786   -1948.0822   0.44291346   0.00247019 0.0056101681 
 4568000     298.9509   -1074.5843    846.77164   -6536.1358    2537.0033   -1290.5955   0.44291572 0.0024706308 0.0056095139 
 4570000     279.2593   -1073.9027    5317.4113   -6103.0609   -5.5881139   -1482.7768   0.44289564 0.0024726636 0.0056085883 
 4572000     291.8466   -1074.8553   -1460.4442   -5598.3765    1297.6415   -497.33937   0.44283956 0.0024725988 0.0056067083 
 4574000    281.95924   -1074.5189    3545.8569   -8815.8897    2535.8547   -3097.1405   0.44280594 0.0024715695 0.0056094338 
 4576000    305.52597   -1073.8367     119.7335   -7276.5066    3577.5472   -797.95453   0.44281185 0.0024717575 0.0056095645 
 4578000    291.19723   -1074.3485    4035.9968   -8990.4484   -180.93398   -594.29976   0.44285604  0.002473004 0.0056091871 
 4580000    313.93031   -1073.8141    2725.0999    -7748.303    58.442105   -4470.9521   0.44290382 0.0024719541 0.0056084746 
 4582000    304.98131   -1073.5705    9253.5633   -8669.3327    458.84201    1652.4372   0.44295008 0.0024729702 0.0056070539 
 4584000    303.13601   -1074.2154    1010.3688   -6402.7908    1923.2687   -798.64423   0.44292463 0.0024722061 0.0056053821 
 4586000    271.10197   -1073.8305    1412.5653   -5797.7611    4171.9124     2687.798   0.44288114 0.0024715748 0.0056041578 
 4588000    296.13937   -1074.5044    2557.0011    -6563.406   -1460.3753    161.77406   0.44288364  0.002470404 0.0056072604 
 4590000    289.75054    -1074.297    4495.2879   -9284.4303    2314.3094    908.96375    0.4428762 0.0024697932 0.0056103058 
 4592000    285.23149   -1074.3123    5193.3853   -8254.5639   -1036.9483     764.6856   0.44292305 0.0024703837 0.0056111449 
 4594000    295.48827   -1074.4142    3588.9188   -11245.424    538.11908    1992.5826    0.4429731 0.0024729261   0.00560871 
 4596000    252.31112   -1073.0342    2958.1087   -5096.0909   -1210.9168    1050.8644   0.44297456 0.0024726073 0.0056062674 
 4598000    280.42367   -1074.4041    767.72683   -6346.1002     -762.023   -2907.2426   0.44295426 0.0024733983 0.0056074095 
 4600000    322.92772   -1073.4125    5737.4785   -6930.6022     289.0278    4297.3437   0.44294166 0.0024720907 0.0056058778 
 4602000    311.80765    -1074.591    4933.9386   -7933.7711   -2202.8264    1199.6642   0.44293871 0.0024715508 0.0056042236 
 4604000    307.64043   -1074.5074    3039.1775    -8603.098    467.73514    216.26564   0.44296237 0.0024701204 0.0056039503 
 4606000    284.87032   -1074.5016    1819.2334   -6810.2822    538.16914    269.70976   0.44296575 0.0024714117 0.0056019337 
 4608000    277.15209   -1074.0759    4482.4815   -8596.3389    1805.6296   -1092.2171   0.44296703 0.0024734869 0.0055997456 
 4610000    318.81186   -1074.2899    5072.0716    -8791.632   -462.10876   -2283.1267   0.44299298 0.0024726539 0.0055999218 
 4612000    318.90707   -1074.0625    6886.4103   -5931.2895   -3331.8809   -927.00605   0.44302528 0.0024716943 0.0056027148 
 4614000    305.50451   -1074.3383    4190.7738   -7687.8779    1284.5638   -357.16977   0.44302818 0.0024708376 0.0056050079 
 4616000    301.82555   -1073.1654    3313.2557   -9360.8919    1214.8731     2658.161    0.4430221  0.002471502 0.0056034794 
 4618000    303.00521   -1075.0641    721.10592   -7648.3035   -1976.2787    1092.4137   0.44302164 0.0024757262 0.0056011795 
 4620000    274.85412   -1074.0202    813.12954   -6724.0861    2468.1368   -3128.9929   0.44300676 0.0024738569 0.0055996086 
 4622000    319.69549   -1074.1864    4287.9616   -7875.1036   -2589.6561     1282.671   0.44301948   0.00247353 0.0056015321 
 4624000    288.45551   -1073.6925    2889.0276   -9005.7561    1002.8561   -511.39752   0.44303235 0.0024728138 0.0055989599 
 4626000    305.44868    -1075.171    5443.2178   -8620.0155   -1343.6999   -86.450498   0.44302163 0.0024722287 0.0055968764 
 4628000    282.36962   -1073.8125    2920.7883   -6083.4926   -1136.3183    -3115.191   0.44303448 0.0024713568  0.005599627 
 4630000    279.63676   -1074.3784    1799.1177   -10480.535    700.06436   -770.25599   0.44303932 0.0024693905 0.0055973089 
 4632000     290.5422   -1073.3601    1043.1152   -8761.7299     849.1261    908.96044      0.44304 0.0024683066 0.0055977559 
 4634000    317.21616   -1074.6357    3131.0772   -9637.6572    1233.9368   -2952.4887   0.44306411 0.0024708805 0.0055957024 
 4636000    272.59968   -1074.1507   -1470.7042    -6799.867    1579.6699   -1065.2911   0.44307616 0.0024698917 0.0055967329 
 4638000    291.30007   -1074.1136    3208.2728   -9354.6846    981.28801   -455.19993   0.44307769 0.0024689686 0.0055951553 
 4640000    285.11214   -1073.1079     3137.375    -6293.566   -878.13705   -1997.0793   0.44306092 0.0024688918 0.0055933856 
 4642000    313.57843   -1073.9901    635.99033   -11437.585    1515.1734    1016.5535   0.44305322 0.0024681974 0.0055922551 
 4644000    324.77264   -1074.0715    311.48252   -8351.6368   -2567.8744   -145.83793   0.44305051 0.0024676712 0.0055898252 
 4646000    276.08957   -1073.7998    1040.4736   -12639.337   -2754.5219    128.54319   0.44304604 0.0024663388  0.005591325 
 4648000    293.21625   -1074.2532   -805.40421   -9717.2908     949.7669   -211.81791   0.44307746 0.0024655748 0.0055897234 
 4650000    294.80956   -1074.5727    3345.7918   -5276.3276    1487.6122     1.220833   0.44311891 0.0024650267 0.0055890134 
 4652000    308.97308   -1074.4974    3571.6984   -9011.1988    1139.6288   -1843.5196   0.44313064 0.0024640432 0.0055933858 
 4654000      300.943   -1074.4848    3481.2838   -6399.7404    476.30953    2160.8808   0.44312923  0.002462993 0.0055929056 
 4656000    274.99702   -1074.3058    2212.3289   -8814.7461    2527.5407    128.24935   0.44308821 0.0024654788 0.0055906174 
 4658000    310.27176   -1074.6553    482.26578   -7028.7178   -224.71928    -1515.185   0.44308502 0.0024643571 0.0055893328 
 4660000    297.78878   -1074.5965    4688.0065   -9777.8869   -1692.2893    -5015.435   0.44312904 0.0024637232 0.0055879597 
 4662000    316.94581   -1074.1702     2013.531   -9658.8426   -265.37786   -3401.1183   0.44319357 0.0024626502 0.0055908322 
 4664000    315.24101   -1074.0588    5329.7317   -5817.5043     284.1623   -1521.8909   0.44323333 0.0024614247 0.0055922347 
 4666000     307.2272   -1074.9328     547.6264    -7043.121    2111.3709    208.59722   0.44323902 0.0024634123 0.0055902475 
 4668000    314.32632   -1074.5546    6624.0848   -9493.5878    -537.5733   -574.27068   0.44323335 0.0024621229 0.0055878877 
 4670000    356.37479   -1073.7537    294.07703   -4088.9423    2346.9729   -49.771579   0.44322839 0.0024638363 0.0055876823 
 4672000     280.1547   -1074.1501    5871.8368   -9597.6179    4488.6893    807.43039   0.44322873 0.0024640247 0.0055869184 
 4674000     295.5914   -1074.7643   -102.92654   -7306.4786    942.03536    916.20331   0.44327268 0.0024643205 0.0055866829 
 4676000    289.04716   -1074.4554     5376.886   -5525.7384   -2595.3556   -1227.5443   0.44329346 0.0024628502 0.0055869604 
 4678000    281.77127    -1073.911   -923.50076   -9339.0634    2119.6241    2214.8977    0.4432925 0.0024619565 0.0055859692 
 4680000    299.98687   -1073.7224   -253.33926   -9422.3242    1204.7647   -3150.5785   0.44326914 0.0024611033 0.0055843927 
 4682000    291.47633   -1074.7297   -965.36588   -9733.3831   -307.06977   -562.63481   0.44326172 0.0024600371 0.0055844966 
 4684000    311.85893   -1074.0616    5880.3143   -7345.9647    963.34481    1775.3403   0.44328533 0.0024596806 0.0055853136 
 4686000    261.98316    -1074.745   -1212.6392   -10762.383    1514.3791    -1680.367   0.44329609 0.0024598255 0.0055821512 
 4688000    298.27658   -1074.1039    5364.6218   -9624.9708    186.69082    662.41501   0.44331434 0.0024604596 0.0055813223 
 4690000    306.18042   -1074.7003    3907.3499    -9585.273    1646.8354    2996.4728    0.4433252 0.0024599532 0.0055795385 
 4692000    329.87141    -1074.071    4182.7947   -5547.1167   -627.36242    787.99472   0.44333435 0.0024589744 0.0055794241 
 4694000     296.1404   -1073.9323    3330.0857   -5713.9779    2435.6946    1.0571956   0.44334187 0.0024577147 0.0055792106 
 4696000    330.51229   -1074.1418     1282.911   -7003.1425    362.73534   -2938.8734   0.44337011 0.0024569885 0.0055788609 
 4698000    288.06313   -1074.1134    1711.3755   -8495.3983    761.33346    4204.6995   0.44336108 0.0024569807 0.0055776124 
 4700000    280.94527   -1074.0633    4418.6234    -6004.502    625.27206    -661.9762   0.44335322  0.002458232 0.0055756008 
 4702000    284.54816   -1074.6194    439.25017   -7971.7121   -828.53594    719.21549   0.44332728  0.002460522 0.0055732504 
 4704000    315.85739   -1074.2098    1276.7633   -9111.4369    -484.0082   -1304.0054   0.44335436 0.0024582973 0.0055720804 
 4706000    305.43987   -1073.8559    2160.5443   -7499.4524    1569.7342   -1917.3237   0.44341267 0.0024610306 0.0055731566 
 4708000    313.10594   -1074.2798    6901.3909   -4482.2403   -2683.2794   -778.27392   0.44343022 0.0024592521 0.0055762196 
 4710000    282.04951   -1073.6079    4675.8785   -9345.2913    4881.7375   -878.54976   0.44341199  0.002458369 0.0055762313 
 4712000    299.47195   -1074.8208    5021.8384   -6918.5805    2033.9018    360.67659   0.44339591 0.0024646422 0.0055752175 
 4714000    258.78543   -1073.5918    1400.7881   -8966.7613    5408.2292   -197.77031   0.44336332 0.0024705389 0.0055727571 
 4716000    282.43884   -1074.9767    5635.6706   -9334.6604   -2655.1971   -2867.7144   0.44338247 0.0024709338 0.0055730747 
 4718000    309.50369   -1073.8205    2042.2869    -9147.615   -1920.9368   -1686.1383    0.4434275 0.0024729502 0.0055761746 
 4720000    304.35645    -1074.378     4365.019   -7596.9008   -914.30914   -4367.2964   0.44344363 0.0024724895 0.0055773306 
 4722000    323.26446   -1074.7688    620.98611   -7831.9742   -433.96181    890.77791   0.44344946 0.0024714599 0.0055783353 
 4724000     320.9896   -1074.6342    589.17071   -6630.3595   -682.84519   -1702.7455   0.44345324 0.0024710103  0.005575423 
 4726000    276.08332   -1074.4251     51.20403   -8606.5781    658.62717    -2729.605   0.44345994 0.0024715456 0.0055756427 
 4728000    346.44578   -1073.9064    9089.4432   -6305.7148   -3504.4927   -1876.0245   0.44346668 0.0024718742  0.005574805 
 4730000     294.4011   -1073.8193    2969.4374   -6737.5553   -1819.5112    691.97295   0.44345849 0.0024729206 0.0055724676 
 4732000    270.64549   -1073.9789   -1797.9209   -9042.4191   -1430.0818   -1764.7659   0.44342213 0.0024713713 0.0055711161 
 4734000    304.19493   -1074.5419    3870.0096   -8583.8654   -1760.0508    1762.6312   0.44337243 0.0024704758 0.0055735896 
 4736000    294.62117   -1074.3075     406.5903   -6250.4673   -714.11383    -3451.363   0.44336951 0.0024694666 0.0055742746 
 4738000    308.94254    -1073.937    2557.0168   -8485.0446    240.27534   -1321.4962   0.44336862 0.0024691012 0.0055732128 
 4740000    246.58349    -1074.823    1396.7326   -8730.3573    3664.8532    -1061.332   0.44340554 0.0024703177 0.0055713101 
 4742000    291.15276   -1074.8371    2763.7811   -7791.1283   -1093.9678   -1506.9472   0.44341039  0.002475196 0.0055700128 
 4744000    323.06583    -1074.489    2018.3173   -8291.9583   -3462.0889   -4709.8828   0.44341099 0.0024750808 0.0055686531 
 4746000    251.37915   -1074.4613    1507.0991   -11051.637    1340.6554    340.14871   0.44344881 0.0024741908 0.0055678778 
 4748000    319.74778   -1074.1187    1843.3841   -8259.3972    1637.3685   -4549.5453   0.44347214 0.0024729165 0.0055688069 
 4750000    304.34475   -1074.2989    2467.2835   -6449.6219    645.58156    736.25737   0.44351608 0.0024719925 0.0055659183 
 4752000     298.7836    -1074.583    2364.6714   -8639.9738    3798.1283    439.13741   0.44352287  0.002471203 0.0055635965 
 4754000    294.57531   -1074.2561    455.96313   -6507.3377    2290.7324   -2695.2717   0.44351953 0.0024721664 0.0055640142 
 4756000    261.66074   -1073.8425    117.50884   -7741.9312    467.86757   -724.41549   0.44350312 0.0024748059 0.0055636302 
 4758000    325.36629   -1073.9682    2682.0034   -7873.8217   -2370.8232   -266.26256   0.44350888 0.0024742071 0.0055612077 
 4760000    285.01461    -1074.686    4990.0521   -6269.7861   -1586.8424   -3671.6603   0.44350116 0.0024732896 0.0055603399 
 4762000    315.73691   -1073.7779    2080.7581   -9180.8103    -4097.253   -2739.9342   0.44349766 0.0024724994 0.0055606707 
 4764000    297.05213   -1074.3321    3676.2424   -8461.4942    179.59735    565.94139    0.4435565 0.0024726096 0.0055592294 
 4766000    286.63122   -1074.3186    2507.4666   -4151.7383    -356.4012   -1668.1521   0.44359625 0.0024710923 0.0055580263 
 4768000    274.30796   -1074.7914    5688.5946   -8855.2108   -1614.9476   -755.49021    0.4436151 0.0024707929 0.0055562585 
 4770000    283.85199   -1073.8104    6242.8728   -9394.6932   -847.17332   -972.17947   0.44361591 0.0024703798 0.0055565309 
 4772000    321.03352   -1074.3254   -2693.8427   -9265.3271    3709.3474     2321.596   0.44360982 0.0024726452 0.0055565267 
 4774000    289.10351    -1074.171    4576.9284   -9504.9428    1307.3804   -1116.7507   0.44360477 0.0024720693 0.0055558944 
 4776000    254.38535   -1073.8486    4728.5702   -8337.2027    595.42709   -410.91924   0.44364561 0.0024711249 0.0055555179 
 4778000    303.72789    -1073.792    2674.9715   -9111.5091    1012.2545    1402.1065   0.44368417 0.0024700796  0.005555426 
 4780000    281.75997   -1074.0238    1104.3136   -6623.3388    4517.5286   -2280.9746   0.44368405 0.0024695634 0.0055543509 
 4782000     297.2872   -1073.6866    7812.0072   -8083.0008    -889.4811   -53.796459   0.44368881 0.0024693677  0.005552192 
 4784000    317.34715   -1074.5186    3806.2546   -10592.428   -2791.8614   -925.21818   0.44370132 0.0024685229 0.0055507851 
 4786000    278.21334   -1074.4588    825.20541   -7235.3013    1990.9727   -920.68333   0.44371522 0.0024675629  0.005554435 
 4788000    286.28235   -1074.1815    1941.5202   -7706.4982   -743.33478     1149.217   0.44369575 0.0024692369 0.0055557317 
 4790000    266.34223   -1074.5353    989.11935   -12636.626   -58.256214    486.79258   0.44370273 0.0024704123 0.0055550505 
 4792000    287.46771   -1074.3155    2521.3999   -8123.7901    1112.2456    1272.7377   0.44371917 0.0024686828 0.0055538605 
 4794000    273.63765   -1073.9962    824.35557   -7329.9011    948.47902   -17.733348   0.44374012 0.0024702347 0.0055518778 
 4796000    305.12483   -1073.8542    1740.6816   -8879.8109   -1481.4271    791.53262   0.44379464 0.0024694485 0.0055497944 
 4798000    296.44176   -1074.4683    4953.5253   -8203.1955    1040.6311   -2061.0256    0.4438588 0.0024704719 0.0055494631 
 4800000    301.59117   -1073.8071    2412.3089   -9628.6478    2665.6247   -2259.4275   0.44383575 0.0024704745 0.0055523779 
 4802000    273.09568   -1073.8845    3587.8471   -10348.659    4202.9222    846.42386   0.44378207 0.0024706017 0.0055514859 
 4804000    288.63335   -1073.8655    1673.1855   -4687.6056       2936.2   -4167.7908   0.44374582 0.0024721058 0.0055506799 
 4806000    287.44291   -1073.6004     2465.502   -7973.1669    776.92764   -218.06551   0.44372226 0.0024712126 0.0055537629 
 4808000    313.12022   -1074.1159     3290.362   -10290.398   -812.81299    -2024.314   0.44378838 0.0024700289 0.0055512427 
 4810000    295.45705    -1074.018     4542.667   -7301.4757    6.8446573    -2115.999   0.44380193  0.002468891 0.0055524008 
 4812000    316.18489   -1073.7739    4441.6117   -5908.6758    668.26559   -707.83455   0.44378471 0.0024688409 0.0055519018 
 4814000    279.35883   -1074.1565    3786.7467   -8300.3475   -1946.4819    249.83152   0.44378821 0.0024712274 0.0055492162 
 4816000    303.26055   -1074.1659   -1977.7324   -6533.2415    168.07746   -166.18933   0.44375934  0.002469779 0.0055489236 
 4818000    270.64449   -1074.5989    1473.3148    -8354.827   -1458.4839   -626.30882   0.44376025 0.0024693021 0.0055487176 
 4820000    315.42866   -1074.0203    2972.8708   -8553.8097   -307.85154   -2660.7688   0.44376811 0.0024690635 0.0055510514 
 4822000    309.16678   -1074.0161    803.80932   -6469.7896    4671.3093   -1722.3542   0.44375204 0.0024682989 0.0055479577 
 4824000    296.60165   -1074.4562   -3427.6959    -7325.023     2631.485    2354.6685   0.44374175 0.0024680941 0.0055476263 
 4826000    291.30933   -1074.2634    8229.0683    -8531.821   -3134.5909    505.83279   0.44374906  0.002468543 0.0055464557 
 4828000    320.39805   -1074.5476   -586.39721    -9266.649   -51.634194   -1319.2983   0.44379381 0.0024688673  0.005549192 
 4830000    291.52478   -1073.3521    2111.7598   -7545.0366    3251.5161    3512.6175   0.44382467 0.0024678714 0.0055511138 
 4832000    269.86567   -1073.6758     574.8274   -4746.7413   -67.698155   -685.17107   0.44381022   0.00247106 0.0055490276 
 4834000     316.1407    -1074.073    1566.7078   -8941.0376    257.17628    1029.8342   0.44378407 0.0024716179 0.0055478678 
 4836000    290.36323   -1074.3359    2423.1564   -2965.4428   -2765.4338    -2011.829   0.44378041 0.0024741583 0.0055457709 
 4838000     288.8718   -1074.5783    970.79017    -10201.89    2836.2939   -1838.1197   0.44376532 0.0024719643 0.0055449197 
 4840000    265.10535   -1074.2943   -345.15913   -9138.0749   -944.12105   -1636.5629   0.44377781 0.0024717501 0.0055473254 
 4842000    317.79535   -1074.7404    4127.8888   -6669.6249   -323.66515   -2570.0582   0.44379438 0.0024706782 0.0055464663 
 4844000    304.09268   -1073.8471    3367.5381   -7377.9663    3096.9201   -3623.7146   0.44380223  0.002469858 0.0055447998 
 4846000    296.98642   -1074.3175    5287.8522   -10624.746    1908.2301    730.37824   0.44381132 0.0024688856 0.0055446075 
 4848000    315.04187    -1074.134     4676.911    -9516.852   -2751.8193     -2302.51   0.44385189 0.0024682643 0.0055453932 
 4850000     283.6623   -1074.8254    2445.7521   -6869.0305    2994.3041    803.75279    0.4438493 0.0024679743 0.0055440279 
 4852000    274.07011   -1073.6866    7722.3878   -5440.7119    527.39693    838.09296   0.44379058 0.0024694851  0.005541789 
 4854000    311.56859   -1074.2281    5418.5495   -4409.8209    1608.8015   -232.27054   0.44378887 0.0024728059 0.0055394717 
 4856000    314.84513   -1073.3354    1673.7231   -8565.4325   -1552.9755   -153.03929   0.44375694  0.002472434 0.0055372676 
 4858000    285.57023   -1074.1039    249.57049    -6282.088    2188.6497    807.30231   0.44374527  0.002471407 0.0055378156 
 4860000    292.72575   -1074.5788   -749.17165   -10007.816    4065.3266   -275.79966   0.44377891 0.0024715058 0.0055393759 
 4862000    294.93292   -1073.0399    930.36749    -5492.207    575.25979   -512.06753   0.44381455 0.0024708368 0.0055407032 
 4864000    312.59371   -1074.4599    6479.9689    -7886.729    708.55426    1496.2561   0.44381572 0.0024701081 0.0055379028 
 4866000    313.20174   -1074.2951    2526.1206   -12431.579    658.14089     -2852.35    0.4438179 0.0024707578 0.0055359398 
 4868000    291.70988   -1074.0664      8926.73    -6110.129   -2551.2151    -1406.112   0.44383397 0.0024704797 0.0055365317 
 4870000    311.26155   -1074.6108    1707.0806   -6725.7568     4452.614   -1255.9746   0.44385329 0.0024697251 0.0055398499 
 4872000    309.12296   -1074.5895    4026.9342   -9233.6155    2687.9172    608.84815   0.44386053  0.002472537 0.0055395416 
 4874000    311.51294   -1074.7099   -722.22999   -9043.8968   -3723.0662    1627.1878   0.44387197 0.0024717516 0.0055372814 
 4876000    329.42013   -1073.6279    1819.7055   -6443.1843   -1409.1045   -2727.5326   0.44386139 0.0024705574 0.0055349175 
 4878000    278.27554   -1073.7455    -608.5868   -7017.8833     425.2684   -380.37358   0.44386625 0.0024696984 0.0055332669 
 4880000    318.24253   -1073.3646    1043.2264   -3922.5816   -1185.6507    796.90442   0.44388212 0.0024691804 0.0055325855 
 4882000    297.62582   -1073.7726   -727.13319   -8781.8111    1646.1513   -979.41757   0.44387769 0.0024691262 0.0055309229 
 4884000    282.90352   -1074.5822    1737.4383   -8473.0886    1336.0372   -946.21321   0.44390221 0.0024688919 0.0055298379 
 4886000    315.71343   -1074.1324    2102.7926   -3900.0906   -156.20254   -1453.6324   0.44389514 0.0024723662 0.0055283139 
 4888000    328.07815   -1074.0513    4135.7796   -12036.529   -2261.3988    1456.9857   0.44385998 0.0024752494 0.0055269919 
 4890000    286.80338   -1074.1743    2926.7871   -6203.0196    1505.0269   -1496.7919   0.44385282 0.0024746129 0.0055245874 
 4892000    324.78162   -1074.2038    990.34703   -6384.4839    2609.6875    -3056.031   0.44385091 0.0024737196 0.0055229776 
 4894000    315.97718   -1074.7025    3904.7574   -11057.089    2212.2062   -4797.4565   0.44387604 0.0024739321 0.0055235034 
 4896000    301.88064   -1073.7994    7.8756546   -10296.528   -311.24641    1328.9086   0.44392689 0.0024718604 0.0055231538 
 4898000    294.23848   -1074.3086    4438.1725   -8242.0029    1870.0741   -1201.8605   0.44393814 0.0024714317 0.0055221645 
 4900000    280.39851   -1074.2916   -546.01772   -8079.3041    1542.1259    502.20564   0.44392354 0.0024725295 0.0055222922 
 4902000    278.36631   -1074.1531    2178.0122   -7211.2957    1848.8102   -1171.0143   0.44391691 0.0024714669 0.0055210593 
 4904000    313.05098   -1073.7535    788.07837   -5985.3197     77.75454   -3281.1737   0.44390991 0.0024715163 0.0055197795 
 4906000    295.34247   -1073.4841    5373.9476   -6418.0142    1406.8447   -1249.7587   0.44392101 0.0024706519 0.0055183072 
 4908000    280.21158   -1074.1162    1991.7149   -8479.8109   -859.41939   -47.439115   0.44393839 0.0024698257 0.0055174118 
 4910000    279.80611   -1074.4925    6469.8707   -4789.3506   -1875.0064   -1951.2368   0.44393761 0.0024694271 0.0055172926 
 4912000    303.48907   -1074.2135   -237.13941   -10055.823   -1513.8061   -2014.3285   0.44391698 0.0024685987 0.0055168703 
 4914000    306.86283    -1073.943     1753.837   -7527.0604   -391.43487   -1920.6321    0.4439312 0.0024698917 0.0055154631 
 4916000    272.48993   -1072.9381   -484.68549   -8533.4596     342.3138     383.7091   0.44391495 0.0024699025 0.0055169469 
 4918000    240.83834   -1074.0821   -1082.2358   -10029.662    1559.8898   -2944.8495   0.44391609  0.002469392 0.0055143399 
 4920000     284.2429   -1075.0109    2453.1999   -5963.6388    412.22109   -285.45702      0.44394 0.0024685084 0.0055134694 
 4922000    289.25922   -1074.3333     2401.282   -6178.9637   -434.14802    -2143.005   0.44395366 0.0024677295 0.0055128573 
 4924000    327.26939   -1074.1277    1164.0515   -7145.1913    -969.3748   -1057.5612   0.44395432 0.0024674964 0.0055164695 
 4926000    313.63641   -1073.9087    4482.3379   -10438.799    2989.3566    2427.2854   0.44395396 0.0024676848 0.0055166297 
 4928000    282.04313   -1074.5248   -3008.5292    -6891.637    1750.0228   -104.45201   0.44397124 0.0024696355 0.0055141848 
 4930000    300.42497   -1074.5218    1301.5282   -11290.577   -304.57174   -532.76652    0.4439694 0.0024697068 0.0055146014 
 4932000    306.87258   -1073.7001    1953.7653     -8389.06   -858.89721    -1212.045   0.44400559 0.0024684675 0.0055136841 
 4934000    310.88428   -1074.2189    1002.2387   -9158.6151   -867.82254    742.97733   0.44401187 0.0024677062 0.0055155386 
 4936000    290.52246   -1074.3159    718.81992   -11135.255   -1928.4768   -997.13232   0.44401839 0.0024668896 0.0055137107 
 4938000    294.35195   -1075.0639    1973.1955   -8930.9766   -1688.3559    -1722.564   0.44401681 0.0024667031 0.0055115747 
 4940000    311.56934   -1074.3696    1281.7715   -8116.2035   -2368.1286    -5771.484   0.44399628 0.0024685993 0.0055114796 
 4942000    298.73687   -1074.1243   -325.93621    -10997.52    2569.1111   -1470.4648    0.4439811 0.0024673499 0.0055121106 
 4944000     304.7155    -1074.383    1913.4839   -8476.5665     216.3665   -3224.5198    0.4440268 0.0024686257 0.0055137421 
 4946000    311.65519   -1073.3877    4570.0208   -6908.9119   -2106.2188   -4074.1609   0.44406253 0.0024674909 0.0055131497 
 4948000    314.41214   -1074.0192    2250.3443   -10876.842     1635.149    1790.7461   0.44406283 0.0024669595 0.0055157251 
 4950000    303.67525   -1074.4833    3017.8286   -4973.5042   -206.14365   -1979.0338   0.44407469 0.0024674573 0.0055129078 
 4952000    282.19581   -1074.8344   -3251.3774   -9612.9765    344.05711   -2421.6036   0.44406275 0.0024685019 0.0055110581 
 4954000    321.06592   -1074.0095    -441.4468   -9688.7163   -2343.4226   -4022.0744   0.44409647 0.0024679826 0.0055117951 
 4956000    321.55144   -1074.2877     3871.211   -6521.7952   -2491.5325   -2688.9393   0.44411999 0.0024671117 0.0055155297 
 4958000    306.05458   -1074.5537    3990.5666   -7164.9363   -1639.9694   -1857.1036    0.4441109 0.0024660621 0.0055168118 
 4960000     255.5683   -1074.5008    2409.1532   -10266.821    46.151242    19.865409   0.44412795 0.0024675445 0.0055157703 
 4962000    279.70533   -1074.2244    6116.5533   -7530.4041   -1314.6431    817.51505   0.44416346 0.0024665857 0.0055134039 
 4964000    301.93851   -1074.1086    2296.3414   -7460.8801    860.47498    1823.3202   0.44416651 0.0024655567 0.0055117993 
 4966000    319.39032   -1073.9586    2753.3454   -8081.3852    1828.9489    -520.3266   0.44414412 0.0024674271 0.0055140402 
 4968000    301.58094   -1073.9702    5625.5403   -9081.2623    1440.3418   -880.40812   0.44412939 0.0024685053 0.0055150841 
 4970000     319.4113   -1074.2853    2720.1024   -6284.5029    1801.6987   -704.46913   0.44413688 0.0024674766 0.0055132807 
 4972000    301.42813   -1074.3567    4020.2159   -8381.6468   -1537.0171   -298.21749   0.44413152 0.0024687979 0.0055121268 
 4974000    305.81724   -1073.9169    4895.5401   -8684.0151    652.51028   -523.93599   0.44414502 0.0024673449 0.0055110745 
 4976000    292.21126   -1074.5947    2097.7227   -8563.1581    -1736.374    1170.8636   0.44418582  0.002466422 0.0055101292 
 4978000    303.54208   -1074.7144    6032.2877   -7611.4002     169.1849    127.58296   0.44422317 0.0024653591 0.0055081319 
 4980000    323.46325   -1074.2655    2302.2882   -7294.2444   -546.74366    2056.9618   0.44421543 0.0024657773 0.0055098025 
 4982000    310.66669   -1074.6893    2960.9359   -8293.0226    3542.2182   -649.83379   0.44418769  0.002466183 0.0055086356 
 4984000    314.82373   -1073.2536   -2270.1849   -5174.4893    89.890415    510.08547   0.44417923 0.0024681523 0.0055072444 
 4986000    306.91208   -1074.3851     2684.943   -8178.4976    3708.9136   -217.81032   0.44417502 0.0024685065  0.005505675 
 4988000    272.08207   -1074.1749   0.72444712   -8510.4351   -151.51878   -328.99357   0.44415504 0.0024688634 0.0055037173 
 4990000    266.34428   -1074.8813    4881.4761   -9806.7612   -1267.5722    1454.6486   0.44415425 0.0024696924 0.0055026417 
 4992000    274.83721   -1074.2265    3316.6059   -5667.3118    1351.4102   -126.92605   0.44417426 0.0024684491 0.0055027358 
 4994000    288.13169   -1074.9134    5003.9304   -9767.5949   -3084.5072   -3401.7143   0.44421311   0.00246748 0.0055038322 
 4996000    291.30173   -1074.4899    1523.4975   -6626.4343    1818.6772   -58.925011   0.44423943 0.0024665364 0.0055024745 
 4998000    296.84863   -1074.0525    1177.4821   -7871.0172   -1001.8659   -3900.5411   0.44422087 0.0024687128 0.0055016934 
 5000000    327.73214    -1074.339    4000.6665   -6587.9315   -1277.1633   -1450.6244   0.44417106 0.0024697777 0.0055004843 
 5002000    301.81139   -1074.1112    488.06322   -9476.8423   -666.27818    1288.1837   0.44416198 0.0024716727 0.0054987859 
 5004000    334.85914   -1075.1414    4267.8058   -9151.0073    206.58576   -804.37006    0.4441824 0.0024728666  0.005497083 
 5006000    302.58133   -1074.2667    2993.1893   -7956.2555   -2127.3648    939.64143   0.44420241 0.0024722913 0.0054979438 
 5008000    307.55219   -1074.2855    3486.5455   -9254.0912    384.97851   -549.80285   0.44422636 0.0024714744 0.0054987081 
 5010000    305.58696   -1074.1377   -151.79324   -5612.6643    2026.1784   -2703.2937   0.44425139 0.0024708654 0.0054976654 
 5012000    294.68427   -1074.1843    5598.9311   -8031.2529   -1254.2931    -791.0364   0.44423351 0.0024711574 0.0054954918 
 5014000    290.90762   -1073.1316    1126.7291    -11078.03     1099.952   -3376.2165   0.44420613 0.0024723657 0.0054935035 
 5016000    290.78327   -1074.6582    2042.1832   -8321.7009    392.34896   -1723.9458   0.44423762 0.0024706819 0.0054978057 
 5018000     278.3936   -1074.4823     576.2199   -9728.2771    1630.4271   -1497.1373   0.44427868 0.0024696197 0.0054988868 
 5020000    298.63129   -1074.2624    285.13247   -8904.1727   -1321.9396    838.63747   0.44432113 0.0024689231 0.0054969539 
 5022000    311.35281   -1074.4567    3501.0471   -9299.9752   -1247.7195    -1094.164   0.44434524 0.0024679342 0.0054964613 
 5024000    324.38866   -1074.8212    4113.7469    -6734.686   -4452.7466   -2589.3419   0.44437885 0.0024668022 0.0054959237 
 5026000     284.5936   -1073.9683    755.77299   -10296.885    4380.6582    3560.0404    0.4443848 0.0024661268 0.0054941413 
 5028000    296.21928   -1073.8568   -1869.8224    -7395.849    507.13976   -861.13795   0.44436298 0.0024679379 0.0054925172 
 5030000    291.36717   -1073.4834    1556.0654   -5844.7202    1558.3578    801.80579   0.44430845 0.0024674796 0.0054944057 
 5032000    297.73197   -1074.1823     2179.554   -4584.6992    1539.1064    277.37536   0.44425647 0.0024670402 0.0054976325 
 5034000    321.34017   -1074.2846    2252.0955   -9382.3896    557.76447   -447.46078    0.4442492 0.0024699139  0.005496467 
 5036000    289.01753   -1073.6756    2575.6289   -9511.0395    1133.4649    717.51908   0.44429575 0.0024683767 0.0054944735 
 5038000    277.50135   -1074.5285     2668.292   -7866.5719   -2520.0531      429.876    0.4443815 0.0024684575 0.0054922769 
 5040000    319.71351   -1074.9468    -4334.307   -7417.5754    2660.2695   -140.15931   0.44439425 0.0024680789 0.0054919533 
 5042000    290.45024   -1074.6275    2042.3098   -8011.4051    2177.3162   -1254.2503   0.44436297 0.0024690248 0.0054902348 
 5044000     261.5389   -1073.8398    3099.7096   -5199.2688    1109.5515   -4609.8726    0.4443117 0.0024714139 0.0054979006 
 5046000    288.46246    -1073.943    742.74527   -8436.7348    1828.9163    -78.23755   0.44429815 0.0024726051 0.0055027766 
 5048000    322.36326   -1074.3011    4221.5375   -6322.4731    1847.0543   -1900.8993   0.44429266 0.0024722934 0.0055007668 
 5050000    304.40913   -1074.0711    3455.3763   -12230.111   -2155.6976   -2398.1053   0.44431839 0.0024710193 0.0054993685 
 5052000    299.02943   -1074.8073    1068.4598   -6223.3167    4960.7777   -2034.9339   0.44437563 0.0024704752 0.0054971898 
 5054000    335.65822   -1074.0618     1238.633   -9617.0344   -1113.3324    -2834.554   0.44437902 0.0024689692 0.0054960461 
 5056000     308.3592   -1073.6283    3132.2924   -6078.1776    2018.0432   -613.08139   0.44439217 0.0024680681 0.0054953612 
 5058000    270.77916   -1074.3461   -513.80004   -4904.4289   -289.93414   -1402.8653   0.44439879 0.0024673751 0.0054944882 
 5060000      321.728   -1074.1287    1646.4168   -7908.5766    1051.0223    471.24284    0.4443917 0.0024676756 0.0054975023 
 5062000    309.77161   -1074.1445    5366.3231   -8975.4949   -2062.6956    695.96354   0.44437254 0.0024671248 0.0054947055 
 5064000    315.69358   -1073.8491    1141.5443   -7412.7337    2175.0401     -738.797   0.44438597 0.0024674432 0.0054937333 
 5066000    271.97099   -1074.3125    254.04753   -10685.199   -243.77025   -238.46684   0.44440944 0.0024667498 0.0054979756 
 5068000    287.50802   -1073.9882    2161.1077   -6063.9712    771.17138   -2885.3789   0.44449344 0.0024655725 0.0054971235 
 5070000    283.32234   -1074.6396    733.77849   -8862.1271   -1631.9286   -1452.5564   0.44454635 0.0024647966 0.0054952623 
 5072000    300.46326   -1074.5638    -721.2142   -9516.9325    4001.3392    968.95492   0.44456076 0.0024644303 0.0054933088 
 5074000    318.42185   -1074.0219    2153.7773    -9958.676   -1661.5508   -1070.5328   0.44457415  0.002464894 0.0054932388 
 5076000    300.63215   -1074.1684    338.84598   -5957.1284   -477.06645   -2087.8296   0.44456378 0.0024647587 0.0054928208 
 5078000    344.55221   -1074.8412    1925.7802   -6358.6857     3015.343   -2215.8205   0.44451442 0.0024647775 0.0054912038 
 5080000    338.41232   -1073.8337    1698.9462   -8888.4363     3007.477   -3123.6589   0.44448276 0.0024678992  0.005488333 
 5082000    313.23717   -1074.4844    391.10834   -10553.079    1201.0152   -1572.4835   0.44450056 0.0024696846 0.0054864775 
 5084000    299.95212   -1074.8574    3085.5212   -8251.1652   -1553.8141   -1252.7525   0.44454101 0.0024688745 0.0054871108 
 5086000    299.85505   -1074.3222    4450.8252   -11059.938    839.62229   -120.14315   0.44460237  0.002468025 0.0054871552 
 5088000    277.90155   -1074.4735    4881.4218   -7798.6172   -2085.1635    846.29978   0.44461431 0.0024673067 0.0054890133 
 5090000     306.1369   -1073.7695    3369.7792   -10305.589    -824.2262     553.3825   0.44458794 0.0024672755 0.0054864063 
 5092000    286.94853   -1074.9076    2108.7089   -9779.7488   -861.18172   -1439.8978   0.44456837 0.0024701196 0.0054848776 
 5094000    317.66443   -1074.6695    2483.2867   -3321.9506    1368.4136   -2146.5583   0.44454755  0.002470328 0.0054835355 
 5096000    285.19072   -1074.3955     1072.883   -8789.4502    1256.9731   -1462.7606   0.44453668 0.0024718582 0.0054827116 
 5098000    281.79476   -1073.8672    3727.8489    -8085.863   -120.46169   -1522.5008   0.44454827   0.00247103 0.0054805632 
 5100000    313.23881   -1073.7088    70.411163   -6954.5483    3117.4993    343.90892   0.44456468  0.002470633 0.0054806614 
 5102000    307.56769   -1073.7581    2831.9237   -8118.4418   -1146.2095   -420.96644   0.44458578 0.0024698588 0.0054819102 
 5104000    312.04983   -1074.5393    4280.4896   -8503.9327    3701.6767    1360.1179    0.4445943 0.0024692828 0.0054815135 
 5106000    298.85414   -1073.7434    3985.1577   -7035.7184   -202.50843    1074.6909   0.44460923 0.0024691921  0.005479797 
 5108000    278.55375   -1074.3907    1102.7543   -7835.3175    2708.6869   -1193.6313   0.44460516 0.0024693939 0.0054779386 
 5110000    292.24207     -1074.41    2714.8348   -5419.5468   -273.96453    68.932991   0.44459122 0.0024703186 0.0054762005 
 5112000    289.59875    -1074.732   -95.678986   -5806.3825     1433.877   -12.373297    0.4445709 0.0024699868 0.0054756038 
 5114000    299.42371   -1074.0077    5956.0576   -10756.062   -2833.7572     121.2496   0.44458331 0.0024688561 0.0054777264 
 5116000     264.3782   -1074.4363    7276.7334   -7498.2354    1922.7824     2215.502   0.44459332 0.0024683199 0.0054761263 
 5118000    296.63531   -1073.7694     3923.465    -5496.046    2017.9659   -2357.9815   0.44457302 0.0024679434 0.0054743075 
 5120000    331.61255   -1074.0254     1494.923    -8662.694   -78.352934   -508.09912    0.4445515 0.0024751896 0.0054740379 
 5122000    291.35407   -1073.4891    5984.7544    -7773.149   -5427.8154   -25.702192   0.44456833 0.0024754746 0.0054721939 
 5124000    311.59399   -1074.6221   -185.76313   -4671.6724    260.21916    420.21256   0.44457916 0.0024752752 0.0054708701 
 5126000    278.78211    -1073.731    4621.3199   -10003.761    918.70294    1039.1582   0.44459536 0.0024745835 0.0054709086 
 5128000    322.53674   -1074.1983    131.69302    -5726.137    886.33997     456.2764   0.44457887  0.002475854 0.0054711283 
 5130000    295.54366   -1073.9212   -507.82483   -8113.6249   -398.42134   -3500.0462   0.44456088 0.0024749499 0.0054701426 
 5132000    316.73329   -1074.2296    1900.9515   -7362.7715    -2420.646   -417.79747   0.44455765 0.0024742917 0.0054691929 
 5134000    276.36167   -1074.5571    -58.67762   -5959.9355    6234.6168   0.32296622   0.44452488 0.0024759758 0.0054682068 
 5136000    323.72914    -1074.589    5832.6043   -8591.3563   -1560.5401    -449.0411   0.44455127  0.002476441  0.005466262 
 5138000    310.20268   -1074.7693    2373.5586   -8004.0878    1388.0035    138.02495   0.44456262 0.0024753735 0.0054651803 
 5140000    281.59219   -1073.5949    2496.5829   -4719.9126    2400.5498   -2671.8635   0.44457988 0.0024744794  0.005466101 
 5142000     325.2638   -1074.4931    3510.5866    -8500.622   -3267.9383     3150.681   0.44462839  0.002474015 0.0054647434 
 5144000    264.29152   -1074.5373    2588.6638   -6842.8175    1844.1506   -770.83593   0.44463322 0.0024733802 0.0054643321 
 5146000    291.78346   -1074.9951      2089.77   -9197.2915    -2801.248   -508.41006   0.44462133 0.0024725642 0.0054658424 
 5148000    279.65831   -1074.1736    5638.6319   -9700.5685   -440.03907    965.24409   0.44458859  0.002473053 0.0054645862 
 5150000    251.08724   -1073.7014     2842.753   -4432.8855    2919.4956   -1267.9445   0.44459127 0.0024741428 0.0054665183 
 5152000     315.7517   -1073.6598   -1562.7828     -8432.93   -271.86405    768.30542   0.44459586 0.0024732939 0.0054646894 
 5154000    348.99194   -1073.7457    5632.9592   -7934.2602   -490.63929    -302.4489   0.44464284  0.002472513 0.0054635229 
 5156000    313.09843   -1074.6517    1127.9401   -7527.7868     544.1339   -3245.1945   0.44470036  0.002471396 0.0054617448 
 5158000     300.2797   -1074.2367    2096.3017   -9818.0258    545.96063   -487.47031   0.44471834 0.0024704727 0.0054664873 
 5160000    271.48466   -1074.6018     4161.934   -9015.6895    1969.0831    891.56633   0.44471063 0.0024695892 0.0054659374 
 5162000    302.87456   -1073.9505    2310.4754   -6697.3612    763.61475   -1591.0846    0.4447007 0.0024701581 0.0054661649 
 5164000    280.21738   -1074.3143     4354.698   -9025.4921   -354.70239   -121.78735   0.44470968 0.0024687771 0.0054673391 
 5166000    287.81734   -1073.6821    3376.0532   -4993.3883    1893.2563   -1772.2468    0.4447329 0.0024685261 0.0054650584 
 5168000    314.07152   -1074.2923    624.32291    -8053.296   -763.75404   0.13126528   0.44475538 0.0024678339 0.0054642228 
 5170000    291.90749   -1073.8783    3863.3186   -10745.823   -1279.8881     -823.114   0.44478345 0.0024670919 0.0054632238 
 5172000    283.05494   -1075.1307    1315.5528    -11220.08   -439.25637   -1550.6467    0.4448105 0.0024670206 0.0054617891 
 5174000    303.22018   -1074.5763    2192.4649    -8547.183   -482.32059    1577.8193   0.44482013 0.0024656463 0.0054629631 
 5176000     322.1321   -1074.1788    2473.8689   -7156.5078   -125.15819   -2227.9706   0.44481173 0.0024655867 0.0054634775 
 5178000    303.71085   -1073.7083     3458.104   -6708.7849    93.597859   -1939.5047   0.44481406 0.0024653043 0.0054639737 
 5180000    278.17502    -1075.006   -2116.5206    -8799.678    1655.1447   -2322.6045   0.44481771 0.0024641645 0.0054621564 
 5182000    268.12067    -1073.978    974.06286   -9257.1659   -2606.9017   -2266.0958   0.44481635 0.0024644172 0.0054642742 
 5184000    309.15211    -1074.861    872.94167   -6398.2429    1378.3032   -1869.7761   0.44483771 0.0024645619 0.0054622364 
 5186000     276.5785    -1074.317    850.52014   -8730.1025    680.14084   -726.43264   0.44485029 0.0024637341 0.0054601257 
 5188000    326.08953   -1073.7653    3872.8236   -8094.2688   -4086.9383    5466.9247   0.44483894 0.0024631207 0.0054610986 
 5190000    333.00415   -1073.8699    1389.6945   -6483.4241    3012.4089   -2343.8485   0.44483069 0.0024622524 0.0054618879 
 5192000    288.24609   -1074.7114    5364.6907   -8129.2286    879.19073    553.91192    0.4448044 0.0024616542 0.0054603878 
 5194000    286.17757    -1073.872    2470.2765   -7497.8234   -3355.9875   -3191.9558   0.44478904 0.0024604531 0.0054616021 
 5196000    326.50345   -1074.1769   -742.83116   -7066.7912    3138.6534   -3057.9737   0.44479173 0.0024604592 0.0054628252 
 5198000    323.44284    -1074.388    4049.4663   -5628.5927   -1938.9885    193.54501   0.44479832 0.0024615227 0.0054608136 
 5200000    269.05452    -1074.641    590.98708   -8135.8476    857.03511    935.95587   0.44482205 0.0024619772 0.0054613314 
 5202000    273.79933   -1074.1472    1550.9649   -5566.6581    240.13962    1417.0764   0.44483274 0.0024621139 0.0054603177 
 5204000    297.63144   -1074.4913    1493.8998   -9175.1434    85.265937    1573.0267    0.4448118 0.0024616483 0.0054587394 
 5206000    306.94186   -1074.3508   -460.00364   -3868.7801    460.22084    23.041319   0.44477436  0.002460816 0.0054586649 
 5208000    303.39432   -1074.2864     3855.293   -8003.1942    1645.9703    96.979188   0.44476172  0.002461886 0.0054600693 
 5210000    306.80474   -1074.2965    1358.4696   -11137.815   -32.276864   -2245.9732   0.44479558 0.0024609165 0.0054602278 
 5212000    341.80323   -1074.5567    2217.3815   -10373.024     1715.598   -1130.5888   0.44482871 0.0024604217 0.0054620321 
 5214000    322.15022   -1074.7261    2668.3325    -6853.114     3113.038    -2171.192   0.44486467 0.0024596943 0.0054613725 
 5216000    299.13111   -1074.0952    1103.5719     -8280.04    5528.7401   -53.238262   0.44487299 0.0024614565 0.0054597056 
 5218000    315.28636   -1074.4262    3174.1302   -9561.5561    1227.4389    2656.8708   0.44487597 0.0024617446 0.0054581482 
 5220000    314.94376   -1073.1947   -309.97195   -9590.8034    994.54105   -1793.3748   0.44486082 0.0024611129 0.0054569184 
 5222000    288.01656   -1073.9708    3672.6737    -6677.798    928.78031   -3330.1961   0.44483684 0.0024605982 0.0054547159 
 5224000     290.9925   -1074.5289    -1597.018   -9156.6735    47.860201   -398.56776   0.44482806 0.0024619271 0.0054542508 
 5226000    326.16039   -1074.2333    6530.6335   -12057.882   -2368.6989   -1788.2556   0.44483167 0.0024612406 0.0054539732 
 5228000    293.34739   -1074.4935    633.26303   -8552.7635    83.801524   -1291.5594   0.44489169 0.0024596553 0.0054526524 
 5230000    308.78287   -1074.2989   -2489.8055    -9166.846    3851.7029   -238.58482   0.44491013 0.0024586991 0.0054517809 
 5232000    308.46844   -1074.2388    938.42554   -8896.7449   -885.34308   -1274.6569   0.44489403  0.002458244 0.0054501457 
 5234000    272.24908   -1074.0705   -228.12981   -6989.2277    -332.0011   -4088.1167   0.44489078 0.0024583138 0.0054481712 
 5236000     273.3642   -1073.6018   -3228.8251    -9562.704     3416.653   -2305.8757   0.44482962  0.002459059 0.0054467383 
 5238000    297.23781   -1074.2169    5329.8148   -8425.9409    195.89457   -3465.4249   0.44480542 0.0024600656 0.0054483443 
 5240000    304.38847   -1074.6959    2775.8881   -11057.508   -169.86666    405.90297   0.44481914 0.0024593464  0.005448257 
 5242000    279.35599   -1073.7706    4149.1255   -7320.2339   -4644.2963     539.1377   0.44487844 0.0024580547 0.0054466173 
 5244000    311.99519   -1074.2601    2424.2039    -9976.796   -1708.7175   -3918.8637   0.44491297 0.0024569717 0.0054444418 
 5246000    318.37689   -1073.9962    1311.8049   -6942.1562   -1094.0705    84.125726    0.4449235 0.0024567093 0.0054461692 
 5248000    305.37574   -1074.0954    677.05142   -9632.6792    77.058841   -2163.4072    0.4448853 0.0024554158 0.0054474158 
 5250000     287.8405    -1074.037    5697.1044   -9080.7658   -2470.4981   -3435.7621   0.44486058 0.0024580225 0.0054475156 
 5252000    299.40311   -1074.3651    1188.6106   -8151.4067   -1564.9976   -709.97928   0.44485789 0.0024602246  0.005445368 
 5254000    319.78199   -1074.6847   -1875.7408    -11458.22    2111.5387   -752.84449   0.44484665 0.0024603292 0.0054435456 
 5256000    274.35611   -1074.7433     3417.676   -5786.4828   -1732.6939    -554.7389   0.44485318 0.0024604969 0.0054420251 
 5258000    294.79874   -1074.2692   -26.466056   -11847.181    1671.1643    2246.8184   0.44487623 0.0024604039 0.0054405876 
 5260000    278.47288   -1073.7536    776.23869   -10732.408   -918.20151   -2631.5796   0.44487473 0.0024592573  0.005440447 
 5262000    267.14514   -1074.9203    3817.7675   -7750.1684   -1918.7202   -1315.3065   0.44491924 0.0024586537  0.005441491 
 5264000    316.52764   -1074.7966    3774.0914   -7830.1331    2976.6935   -1779.1467   0.44491138 0.0024574087 0.0054435418 
 5266000     299.9509   -1074.3971    2587.4153   -7966.8522   -843.08592   -1952.4039   0.44491219 0.0024576056 0.0054427149 
 5268000    309.21927   -1074.1198    1995.1401   -9401.1186   -232.94764   -2639.5391   0.44491313 0.0024579509 0.0054411585 
 5270000    306.39191   -1074.3518    2146.9887   -7185.1461    1259.4456     520.4317   0.44493418 0.0024587333 0.0054391699 
 5272000    336.60112   -1074.0082    418.72358   -10280.991    4003.7584    2694.6938   0.44491557 0.0024585405 0.0054371053 
 5274000    333.14483   -1074.6233   -255.52223   -4401.6351     3441.527   -4156.3847   0.44490352 0.0024584608 0.0054361065 
 5276000    330.10542   -1073.9983     2651.284   -8208.8906    2694.0164   -2392.3398   0.44489999  0.002457672 0.0054351659 
 5278000    273.59306   -1074.8284    1163.5473    -7677.263    2089.0901     887.3809   0.44492859    0.0024568 0.0054366086 
 5280000    296.14425   -1073.9371    1579.7323   -6789.3485    2087.8909    -2828.486   0.44496968 0.0024565392 0.0054357202 
 5282000    311.60857   -1073.4837    270.23959   -8190.5451    1827.7157   -1074.2392    0.4449781 0.0024564905 0.0054365372 
 5284000    284.64067   -1074.5484   -1114.8904   -7975.1437      2326.24    2071.0388   0.44496736 0.0024577949 0.0054345574 
 5286000    306.47627   -1073.6033    3822.8051   -7632.2789    528.68833   -2371.7604   0.44495711 0.0024580719 0.0054324938 
 5288000    309.88264   -1074.4852    2366.7824   -10130.447   -777.37943    381.24053   0.44495225 0.0024574137 0.0054311718 
 5290000    303.72018    -1074.004    811.32179    -6509.063    346.63174    -168.5966    0.4449693 0.0024567045 0.0054310312 
 5292000    290.45589   -1073.8031      7267.89   -6019.9359   -177.36712    371.56344   0.44498525 0.0024557351 0.0054341945 
 5294000    318.20445   -1073.5176    2003.5442    -8217.488   -806.99414   -681.12337   0.44498799 0.0024556382 0.0054326646 
 5296000    307.76283    -1074.104    1650.6464   -7485.6941    2867.5106    467.80119   0.44498081 0.0024561163 0.0054326266 
 5298000    264.69579   -1073.4979   -660.29213   -7960.2714    5525.1102   -2372.5575   0.44500905 0.0024548018 0.0054323715 
 5300000    312.43851   -1074.3958    3432.9864   -7231.9728   -2303.4251   -426.82352   0.44505058 0.0024536085  0.005432912 
 5302000    315.24367   -1074.3931    2640.7793   -7503.4599    972.87071   -284.34045   0.44507103 0.0024531252 0.0054329923 
 5304000    302.17076   -1075.0131    2828.0532   -8652.4246    1642.6267    265.23224   0.44505199 0.0024531071 0.0054325491 
 5306000    302.79545    -1074.213    3670.0176   -4972.8998    1625.3491    2376.8702   0.44502972 0.0024553379 0.0054304554 
 5308000    292.83356   -1074.0854    1211.2929   -7991.2814   -516.77805    100.24339    0.4450271 0.0024554145 0.0054285288 
 5310000    309.72369   -1074.0516    4978.2765   -11340.304   -1115.2155    2095.9159   0.44502934 0.0024543568 0.0054282646 
 5312000    335.75383   -1074.9848         1124   -7179.3049   -3254.8431   -3079.7939   0.44504013 0.0024543531 0.0054266233 
 5314000    257.50056   -1074.3947    1000.2557     -13053.8   -389.69952   -1722.4415   0.44506231 0.0024529237 0.0054280338 
 5316000    290.54799   -1074.3983    3586.4412   -6380.4257   -2627.3561    676.58323   0.44507651 0.0024521451 0.0054283678 
 5318000    286.02281   -1074.0695    212.59517   -9759.1104    3944.7383   -1272.5675    0.4450784 0.0024523936 0.0054269719 
 5320000    304.81584    -1074.617     4494.743   -9503.2236   -2258.0952   -1209.1608   0.44507014 0.0024525588  0.005425658 
 5322000    287.14139   -1073.9897    760.70882    -9534.474   -2455.0102   -823.73888   0.44505638 0.0024530054 0.0054237019 
 5324000    270.90891   -1074.2968    1134.9509   -8627.5273    1352.5993    -590.0678    0.4450868 0.0024523272 0.0054234772 
 5326000    313.02537   -1074.3108    575.62947   -7316.4278    266.59001    600.69747   0.44509721 0.0024516848 0.0054261014 
 5328000    282.73279   -1074.4791    2207.4891     -6857.19    1283.1133   -3320.8994   0.44509315 0.0024508036 0.0054241289 
 5330000    315.58841   -1074.5694    1638.8129    -10754.13    1324.7348    241.34747   0.44510226 0.0024505643 0.0054219527 
 5332000      304.632   -1074.6626     4604.286   -7655.9344   -328.15333   -4031.2843   0.44509458 0.0024505413  0.005421096 
 5334000    267.05159   -1074.0179    5097.9458    -9158.852    1071.4752    1576.0746   0.44507532  0.002450647 0.0054187956 
 5336000    277.38871   -1073.5367    752.89242   -12508.615    2756.2604   -624.10193   0.44507615  0.002449997 0.0054171823 
 5338000    302.82309   -1073.9106    580.09217   -7174.2702     225.5324   -602.26352   0.44508746 0.0024489659 0.0054193315 
 5340000    333.76542    -1074.202    2967.1066   -7466.4918   -2886.0727   -2412.9247   0.44510595 0.0024487688  0.005418093 
 5342000    287.65945   -1073.9105    2787.8761   -5711.7898    -1777.759   -1757.4017   0.44510618 0.0024481736 0.0054176784 
 5344000    305.71616   -1074.5808    959.89452   -9110.5812    3490.6269    1407.1846   0.44508628 0.0024493588 0.0054160191 
 5346000       265.25   -1074.4482    1012.2728   -8220.2683    1366.2335   -720.79335   0.44507008 0.0024493738 0.0054147657 
 5348000    281.11015   -1074.5488    2175.2164   -10234.322   -643.29357   -1874.8602   0.44508957 0.0024486565 0.0054143231 
 5350000    281.77082   -1073.6034   -3700.8785   -8899.7583    1598.5147    906.31381   0.44509963 0.0024477645 0.0054132402 
 5352000    330.48521    -1074.201     602.8346   -6941.3098   -1856.6564   -4462.4673   0.44510666  0.002447533 0.0054127162 
 5354000    274.99935   -1074.5792   -426.04826   -8382.9723    231.73938   -583.14916   0.44510942 0.0024465272 0.0054133363 
 5356000    293.26694   -1073.9741    1333.2634    -8545.899    1568.7285   -1737.8716   0.44510978 0.0024460605 0.0054120976 
 5358000    292.72491   -1074.2664    4057.2064   -9387.5647    889.56059   -192.00422   0.44508874 0.0024454377 0.0054106834 
 5360000    298.87171   -1073.6031   -438.96446   -6969.8494    2168.8748   -2960.4429   0.44508482 0.0024464274  0.005408684 
 5362000    292.75421   -1074.2133   -831.00863   -9200.1618   -700.41649   -2942.7125   0.44510711 0.0024460142 0.0054082202 
 5364000    296.53035   -1074.5086    4408.2083   -7958.9174   -1363.6686   -723.76279   0.44510877 0.0024457822 0.0054084746 
 5366000    306.65406   -1074.2861     5038.757   -8453.9992    3300.2909   -2271.7704   0.44513804 0.0024461217 0.0054080579 
 5368000    294.89985   -1073.9542    4546.6585   -8419.3928    1618.6194   -208.61641   0.44514697 0.0024463412 0.0054100633 
 5370000    317.86377   -1074.7485    1867.1064   -8101.3181    1664.9563    -656.5025   0.44513917 0.0024460478  0.005408264 
 5372000    331.79993   -1074.4642    1972.5086    -9948.787   -539.05141    446.26485   0.44516764 0.0024464272 0.0054085198 
 5374000    283.92034   -1074.2133    2278.3407   -7776.0466   -505.72661    3814.8981   0.44516945 0.0024455106 0.0054088182 
 5376000    312.94763   -1073.7275    4851.4322   -6317.6008   -2436.9274   -3166.0405   0.44515986 0.0024458132 0.0054070151 
 5378000    286.63668   -1074.4468     1918.582   -7485.5538     376.7307    784.03411   0.44519344 0.0024447402  0.005409135 
 5380000    303.45831   -1073.8839    2510.8713   -10929.454   -117.58634   -2264.7207   0.44522337 0.0024438265 0.0054087207 
 5382000    289.22207   -1074.4268    4069.5003   -9419.5933    -613.9743    714.81087   0.44522866  0.002443149 0.0054077779 
 5384000    307.92968   -1074.6698    530.48988   -5348.4986    3888.3256   -595.60993   0.44520865 0.0024424088  0.005405949 
 5386000    319.36642   -1074.1448    2000.9766   -7723.3875   -786.27355   -3580.7383   0.44519884 0.0024439514 0.0054043897 
 5388000    286.57227    -1074.126    2543.3813   -8841.0882   -1577.9549    -2555.147    0.4452043 0.0024436031 0.0054044744 
 5390000    264.21054   -1074.1069     408.5081   -10353.286    5016.3457   -2791.3074   0.44520124 0.0024421688 0.0054029561 
 5392000     280.3099   -1074.2155    6837.4296      -7820.9   -406.37156   -239.40592   0.44520947 0.0024437252 0.0054047357 
 5394000    277.87038    -1073.945    4428.7874   -8602.7434   -2617.6329     1178.015   0.44523485  0.002443064  0.005403186 
 5396000    305.27956   -1073.5712    7145.0359   -7546.6664    -888.1771     861.6229   0.44526815 0.0024428476 0.0054015172 
 5398000    280.87485   -1074.5195    890.66435   -5957.0087   -503.45351   -2134.6229   0.44523474  0.002441924 0.0054001297 
 5400000    295.87936   -1074.7157     2268.648   -5972.3211    1178.2695   -1786.6417   0.44524796 0.0024410954 0.0054010331 
 5402000    293.59732   -1073.8005    3421.9594   -9107.6417    2935.2322   -1915.9231   0.44529413 0.0024401144 0.0054018388 
 5404000    313.72954    -1073.793    237.26497   -6881.0736    273.44861   -2990.0668   0.44528405 0.0024408242 0.0054028981 
 5406000    309.09322   -1074.7336   -753.74555   -4717.6774    2491.0972   -244.09558   0.44528029 0.0024443194 0.0054016711 
 5408000    300.23936   -1074.1916    2848.2591   -8138.9086    3454.1661   -2174.3697   0.44527556 0.0024449388 0.0053998669 
 5410000    301.08425   -1074.9447    2356.6881   -9688.8457   -2902.4724    1054.1693   0.44526547 0.0024440503 0.0053983637 
 5412000    318.13518   -1073.9198    1787.9653   -8928.0356    2580.2145   -1355.7961   0.44528539 0.0024434769 0.0053970476 
 5414000    348.71171   -1074.4255    1714.6549   -8216.2513   -1213.9509   -2451.4116   0.44527915 0.0024429521 0.0053973324 
 5416000    296.90349   -1073.3978    463.29485   -7797.6154    414.98019   -2240.1133   0.44527399 0.0024426455 0.0054022435 
 5418000    288.77705   -1074.0231    5167.2703   -8444.6326    251.48561   -1411.0762   0.44528152 0.0024432717 0.0054008054 
 5420000    293.46815   -1073.8653    6752.5882     -8898.02   -5209.7096   -541.28415   0.44526654 0.0024452225 0.0054003651 
 5422000    297.28848   -1074.4658    4037.3173   -10449.504   -36.130472   -453.93353   0.44527147 0.0024449576 0.0053981449 
 5424000    299.34362   -1073.9707    863.38025   -10346.246   -4138.6082    975.70743   0.44529429 0.0024430884 0.0053967758 
 5426000    293.09302    -1074.646   -1138.0923   -12081.173   -1332.3028   -4935.1858   0.44531865 0.0024417042 0.0053968693 
 5428000    288.49399   -1073.7987    55.751272   -7180.5531    -114.4613   -3352.1981   0.44532182 0.0024417294 0.0053967092 
 5430000    279.55358   -1074.4057    6.7240254    -4449.423   -782.27199   -1154.3218   0.44533281 0.0024432231 0.0053964623 
 5432000     289.0063   -1074.8304   -220.10743   -8806.1718   -1972.0258     1304.671    0.4453121 0.0024434928 0.0053951545 
 5434000    276.98147   -1073.3351    5891.0064   -7925.7779   -1222.1649    1801.8906   0.44527732 0.0024449508 0.0053927414 
 5436000    312.58699   -1074.8229    1718.5754   -9989.8395    1334.9501   -2070.0377   0.44526696 0.0024465236 0.0053932618 
 5438000    333.81283   -1073.8468    393.15889   -7474.4628   -281.43652    1798.7015   0.44531411 0.0024464241 0.0053906227 
 5440000     306.6084   -1074.7166    2449.6382   -10505.028   -1706.7108   -1964.0733   0.44533625 0.0024463408 0.0053899119 
 5442000    268.45957   -1073.8707    2267.1477   -7594.9107    3012.2611   -5315.8531   0.44537486 0.0024459506 0.0053912315 
 5444000    305.12881    -1074.398    3365.7015   -4615.2625    2862.9694    856.44241   0.44535959 0.0024464363 0.0053908423 
 5446000    292.65357   -1074.7928    3470.5007   -8106.9363   -201.69366    -154.0473   0.44532009 0.0024459977 0.0053899372 
 5448000    337.92548   -1074.3833     4593.718   -5700.7902    3402.6596   -1678.1575   0.44533259 0.0024452024 0.0053871676 
 5450000    303.54535   -1074.0586   -1231.6021   -10053.741   -454.02565    580.47549   0.44532802 0.0024449159 0.0053866762 
 5452000    324.86688   -1074.3496    3413.9732   -10521.613   -130.32417   -749.45906   0.44533143 0.0024466628 0.0053861005 
 5454000    307.30204    -1073.894    1198.1934   -4906.2266   -1164.0479    1226.0757   0.44535525  0.002445913 0.0053845442 
 5456000     317.2601   -1074.9051    1684.6401   -8572.2889   -1929.5261    190.29374   0.44536735 0.0024459429 0.0053831931 
 5458000    300.60376   -1073.8972    4631.9176    -6829.516    3263.9012    2039.1074   0.44535359 0.0024461064 0.0053814913 
 5460000    322.51664   -1074.2111    1290.3303   -9157.1844   -2824.4257   -2293.2579   0.44536344 0.0024458354 0.0053813676 
 5462000     311.5228   -1074.5845    2533.9185   -6264.3579   -1038.1317    484.81199   0.44537766 0.0024462068 0.0053796761 
 5464000    304.63086   -1073.8943    3687.9021   -8424.1436     1463.547   -452.24613   0.44537808 0.0024451104 0.0053792726 
 5466000    306.45646   -1074.2668    520.14656   -8507.2278   -772.88709   -1939.4058   0.44538227 0.0024450916 0.0053778963 
 5468000    273.63561   -1074.2617    3136.7305   -7477.4094   -993.08334   -900.73387   0.44539797 0.0024460637 0.0053760779 
 5470000    313.93372   -1074.5808    378.07778   -8131.0482    362.47994     255.9248    0.4453951 0.0024447841 0.0053751204 
 5472000    271.80123   -1074.1732     679.1893   -10943.573   -144.18673   -2645.7376   0.44537822 0.0024449478 0.0053734374 
 5474000    326.05256   -1073.7184    4992.7878   -8442.9865   -3560.5405   -712.95689   0.44538358 0.0024443352 0.0053730389 
 5476000    277.72641   -1075.2397    2240.1452   -9386.6564   -350.77679   -4706.4866   0.44537599 0.0024432257 0.0053720259 
 5478000    291.51665    -1073.895    3879.3962    -9590.021    517.37197    2931.3753   0.44541395 0.0024424376 0.0053732076 
 5480000     263.3134   -1073.7706    4818.8513   -7319.4814   -968.76443   -4063.1104   0.44543888 0.0024417124 0.0053718179 
 5482000    285.42331   -1074.2137    853.18091   -10158.797    1188.7652     1839.776   0.44544002 0.0024414262 0.0053710754 
 5484000    289.35404   -1074.1979    3922.6092   -8352.5464    10.495819   -1186.1914   0.44546673 0.0024405187 0.0053693994 
 5486000    288.80833   -1073.9218    2108.6434   -5016.0307   -1688.9446   -3454.9314   0.44547373 0.0024397036 0.0053674183 
 5488000    293.86575   -1074.3081     2416.288    -10258.08    253.44691    448.29015   0.44544062 0.0024391901 0.0053697024 
 5490000    297.23988   -1074.2512    1604.2831   -6148.9313    2650.9099   -853.01678   0.44547909 0.0024389237 0.0053684461 
 5492000    294.55219   -1073.9239   -149.24123   -5777.6561   -3382.9485   -2467.8544   0.44548302 0.0024382328 0.0053677922 
 5494000    300.84634   -1074.1817    2899.2611   -6812.7514    4033.0272     644.7405     0.445461  0.002437823 0.0053662528 
 5496000    298.11139   -1073.3698    1215.4118   -7584.0816    677.90159   -2437.3166   0.44545266 0.0024399254  0.005365674 
 5498000    280.33197   -1073.9083    2028.1587    -7216.933   -285.21904   -2334.9862   0.44548584 0.0024394719 0.0053653768 
 5500000    275.63018   -1073.5173    41.065731   -7385.1347   -135.81033    -2710.244   0.44552045 0.0024383341 0.0053633246 
 5502000    327.43299   -1074.5969    496.73717   -7603.4533    256.18276   -2678.2169   0.44551137  0.002437476 0.0053633036 
 5504000    319.43044   -1074.6623    5354.9816   -7791.4851   -1333.8499   -646.28961   0.44551458 0.0024373709 0.0053633825 
 5506000    308.93451   -1074.3949   -953.04606   -7958.6431    579.60779    -338.2957   0.44550309 0.0024363569 0.0053614343 
 5508000    293.18584    -1074.543    2580.0045   -6906.2054    1559.6231   -2432.1012   0.44548949 0.0024355332  0.005360872 
 5510000    298.76054    -1074.154    4265.4956   -10634.696    -121.1638     282.2277   0.44550926 0.0024358115 0.0053604512 
 5512000    313.25972   -1074.7917    2266.1998   -8103.4599    3016.9046    49.366681   0.44551936 0.0024351517 0.0053614544 
 5514000    309.68463   -1074.4704    4322.7728   -7832.4421    1356.5181   -1242.3055   0.44553081 0.0024365617 0.0053594918 
 5516000    285.96126   -1074.3255    4412.0424   -4050.4625   -126.67079   -3768.6702   0.44553464 0.0024352075 0.0053590761 
 5518000    295.09064   -1074.7928    5868.9704   -10099.819     122.0533   -1777.6491   0.44551786 0.0024340898 0.0053576897 
 5520000    290.42905   -1074.1494    2612.5517   -6876.3507    634.15462   -1523.4821   0.44553884 0.0024338864 0.0053605816 
 5522000    292.51952   -1074.3995    1491.8714   -8296.6038   -301.32446   -2030.7482   0.44555355 0.0024334229 0.0053639859 
 5524000    296.46772   -1074.3078     2749.533   -9315.0731   -1428.4825    -938.6515   0.44556045 0.0024334556 0.0053627316 
 5526000    306.36377   -1074.7452    3307.7389   -5974.3628    1935.4796   -894.48151   0.44554354 0.0024336942 0.0053618611 
 5528000    322.91921   -1074.7412    1015.9113   -7055.2424     550.2118    2057.8451   0.44554629 0.0024332275 0.0053610646 
 5530000     296.8602   -1074.5431    1444.2315   -6367.0945    2667.3078     1485.562    0.4455471 0.0024327593  0.005358803 
 5532000    301.07268    -1073.531    4685.2377   -7185.3577    1710.4114   -939.18479   0.44554294 0.0024331847 0.0053582608 
 5534000    320.79439   -1073.7847     249.6319   -8301.3436   -306.06584   -706.30663   0.44554183 0.0024339641 0.0053587752 
 5536000    295.20258    -1074.401    2937.9515   -7772.7859    2774.4182    158.20854    0.4455435 0.0024335533 0.0053594232 
 5538000    283.39629   -1074.4401    317.18566   -5888.6115    5.0676785    -4777.784   0.44555962 0.0024359494 0.0053574077 
 5540000    298.85454    -1074.003    321.75562   -9720.1108    2763.0854   -2024.7762   0.44552569 0.0024362305 0.0053572157 
 5542000    290.41083   -1074.6111    2586.6555    -6945.423   -1494.9606   -3085.0458   0.44552195 0.0024359591 0.0053558039 
 5544000    314.98043   -1074.7486    4334.4242   -11333.905   -1413.6011    -2342.197   0.44552875 0.0024358561 0.0053577892 
 5546000    294.95885   -1074.8938    5634.4176   -8889.5567    30.579256   -995.07104   0.44560589 0.0024338434 0.0053571584 
 5548000    296.09089   -1073.9498    6703.0425   -6837.6239   -219.81765   -1476.9465   0.44565171 0.0024330457 0.0053569154 
 5550000    301.78698   -1073.2118    229.98662   -6025.1649   -969.26371   -2051.2821   0.44567344 0.0024323097  0.005355541 
 5552000    304.28675   -1074.4646    1663.2237   -6171.6994    1488.1581   -1527.0775   0.44567272 0.0024316198 0.0053537238 
 5554000    297.61722   -1074.3418    2582.7419   -10023.282   -296.12524   -218.31947   0.44565464 0.0024313613 0.0053564644 
 5556000    293.34657   -1073.4576   -286.10322   -7868.1907    1061.3996   -1468.7805   0.44566709 0.0024318061 0.0053539243 
 5558000    301.94485    -1073.999    5893.8368   -5687.8344    423.68931   -1355.0977   0.44566711 0.0024316473 0.0053555347 
 5560000    281.10434   -1074.7237   -788.07673   -6047.9061    2699.0191      393.401   0.44565614 0.0024309927 0.0053576481 
 5562000    293.19183   -1074.5698     5084.866   -8367.6715    11.054176   -1480.5263   0.44564331 0.0024312766 0.0053559221 
 5564000    298.14344   -1074.2607    889.19935   -8648.0627   -256.62457   -2711.1731   0.44567727 0.0024306774 0.0053539956 
 5566000    280.90042   -1074.4917     4029.136   -8692.0975    3267.3607    226.28114   0.44571583 0.0024313714 0.0053527134 
 5568000    286.69816   -1074.1683    3436.4239   -7818.3542   -133.78556   -50.069034   0.44573099 0.0024300791 0.0053526026 
 5570000    293.82876   -1074.3733    4174.1855   -4255.5689     5873.293   -728.76846   0.44571562 0.0024304446  0.005351728 
 5572000    256.20766   -1073.9434    2940.8127   -7997.4342   -411.63654    679.53941   0.44570326 0.0024326972 0.0053527259 
 5574000    302.67759   -1073.7636   -4246.3718   -6945.4786    3998.5876    2134.8866   0.44570705 0.0024334787  0.005350784 
 5576000    295.78993   -1074.2162    2508.3736   -7190.6267    593.22002    454.11278   0.44569051 0.0024341289 0.0053492627 
 5578000    289.58415    -1074.029   -563.15501   -6495.2333    3793.7657   -281.27059     0.445713 0.0024333849 0.0053484726 
 5580000    290.32949    -1073.088    -1167.167   -8571.8621    2951.3351    1346.9132   0.44570126 0.0024327966 0.0053474867 
 5582000     309.9584    -1074.375    1391.2248   -8192.7421   -2580.4189   -1415.7746   0.44570518  0.002432162 0.0053460088 
 5584000    288.22581   -1073.7579    3438.8646   -7982.4301   -645.71348   -2230.3057    0.4457222 0.0024309978 0.0053490455 
 5586000    296.53262   -1074.1223    3918.9246   -5123.1135    428.99735   -574.02596   0.44574315 0.0024299048 0.0053499084 
 5588000    296.06493   -1074.5192    4195.6277   -9353.7015    1419.5781    2127.9277   0.44573295 0.0024296809 0.0053493947 
 5590000    309.94696   -1074.1332    4758.8877   -7529.1677    1989.5712    2040.3407   0.44574219 0.0024304635 0.0053475498 
 5592000     291.2783   -1074.5547    3081.4906   -11210.517    130.05938   -1329.0003   0.44576305 0.0024297419 0.0053456345 
 5594000    317.56257   -1075.1732    3529.6116   -8031.6469    99.414325   -1710.0005   0.44577628 0.0024292499 0.0053460415 
 5596000    297.82789   -1074.7052    3270.9515   -7780.2501   -869.70717    -2694.638    0.4458159 0.0024289492 0.0053477655 
 5598000    334.77563   -1074.8361     2724.473   -5752.7342    2504.1793    1094.1777   0.44580117 0.0024293352 0.0053465893 
 5600000    300.23965   -1073.3064    1814.9131    -3867.605    2289.8314   -2732.6594   0.44575427 0.0024320652 0.0053458459 
 5602000    304.67648   -1074.6326   -1050.9013   -7073.7946    612.02703   -2208.3012   0.44569553 0.0024373759 0.0053466756 
 5604000    285.12192   -1074.9966    6063.9208   -10019.334    304.97061    616.97453   0.44567569 0.0024371827 0.0053469397 
 5606000    268.97604   -1074.0078   -294.46343   -8809.8391    95.167582    -1888.731   0.44573081 0.0024375069 0.0053455407 
 5608000    283.83671   -1074.6358    4579.9655   -5045.5888   -533.34887     456.1063    0.4457626 0.0024363405 0.0053450637 
 5610000    311.82907   -1074.1792    372.82069    -7794.712    3206.3682    183.11179   0.44574858 0.0024368888 0.0053433877 
 5612000    311.69711   -1074.2358    2299.6752   -5120.4656    1554.6028   -887.69299   0.44572319 0.0024380386 0.0053422365 
 5614000    309.53691   -1073.6142   -1079.6172   -7496.3306    2205.0056    2078.7123   0.44572142 0.0024376593 0.0053404042 
 5616000    261.12889   -1074.4381    606.86831   -6520.8859   -1145.4729   -4307.9458   0.44572046 0.0024381927 0.0053396941 
 5618000    304.90239   -1074.7633   -1270.9935   -9381.1788     478.5564   -149.20653   0.44569284  0.002437922 0.0053420627 
 5620000    279.84218   -1074.0981    704.41342   -10731.636    2097.0972   -4740.3638   0.44568723  0.002437584 0.0053429545 
 5622000    266.69668   -1074.0956    1719.6935   -7831.2046   -2213.5206    612.54868   0.44573846 0.0024371497 0.0053409959 
 5624000    303.73526   -1074.0865    5615.4967   -9217.8564    3482.9708   -3755.8667   0.44574789 0.0024363071 0.0053421429 
 5626000    308.88678   -1073.8137    2483.4931   -8212.8511    2449.9142    -2109.123   0.44578607 0.0024354192 0.0053463188 
 5628000    318.90659   -1073.8147    1581.0673   -8429.4801    1120.8527     1771.098   0.44579281 0.0024351549  0.005347833 
 5630000     302.1923   -1074.3107    5467.4975    -8197.612    396.34016     1798.877   0.44577983 0.0024370136 0.0053458875 
 5632000    278.04791   -1074.1406    -662.0021   -7640.6007    3681.0402    1391.9842   0.44576124 0.0024395363 0.0053439878 
 5634000    291.75982   -1074.4185    1712.0678   -8027.0641   -1788.8936   -1997.9435   0.44573932 0.0024389943 0.0053450943 
 5636000    297.41974   -1074.6602    1385.2165   -9645.1601    850.38456    482.32622   0.44573695 0.0024387558 0.0053447129 
 5638000    328.67036   -1074.3951   -1616.2967   -7363.9204    1183.2664   -711.95191   0.44578211  0.002437757 0.0053433163 
 5640000      291.892   -1074.4505    2615.2121   -9553.4764    909.30222    846.60994   0.44579304 0.0024383489 0.0053418586 
 5642000    318.23771   -1073.8631    487.57125    -4447.521   -995.79701   -3100.2081   0.44580899 0.0024371662 0.0053405633 
 5644000     306.3934   -1074.2264   -809.61095   -7048.0604    2202.5811    1318.0029   0.44578965 0.0024375712 0.0053414117 
 5646000     284.2859   -1073.7135    3581.0839   -8932.5523   -1871.7776   -1339.3884   0.44578394  0.002437656 0.0053398858 
 5648000    318.27535   -1073.9298    2371.9718   -5845.1314    1937.6264   -2702.6033   0.44577894 0.0024368284  0.005337903 
 5650000    282.94669   -1074.2259    2377.5535   -7310.2836    1909.4913    -4965.832    0.4457583 0.0024371347 0.0053386913 
 5652000     327.1558   -1074.8014    499.50687    -6804.267    2038.9647   -2306.3956   0.44575825 0.0024365633 0.0053424499 
 5654000    306.48617    -1073.792    4116.5325   -9883.6276   -2229.6798   -698.45365   0.44575841  0.002435708 0.0053408658 
 5656000    302.52716   -1074.5566   -747.94532   -8038.5885    733.44339   -3064.2176   0.44581561 0.0024351523 0.0053404511 
 5658000    277.94858   -1073.7615    548.27316   -7254.8356     1408.688    576.54863   0.44582917 0.0024356569 0.0053390613 
 5660000    301.97576   -1074.9822    3077.7154   -8243.0635   -546.72484   -1701.8525   0.44583658 0.0024379219 0.0053371323 
 5662000    276.43513   -1074.2225    4897.8234   -12510.252    -426.3826   -1086.7665   0.44585641 0.0024368367 0.0053377515 
 5664000    296.58106   -1075.0128    1077.8239   -8159.8075    1704.4107   -3611.5569   0.44582225 0.0024358932 0.0053392967 
 5666000    294.95552   -1074.2436   -65.112298   -8848.5477    5537.5799    229.26162     0.445806 0.0024370494 0.0053381339 
 5668000    307.40896   -1074.0951    4704.9498   -8869.5281    4729.4957   -632.82381   0.44578703 0.0024380003 0.0053368986 
 5670000    267.42436   -1074.6489     2805.643   -8013.5869    1641.7588   -72.196943   0.44581202 0.0024375926 0.0053373566 
 5672000    327.54655   -1074.8146    3521.4866   -11068.556    3610.3637    1888.2455   0.44586325 0.0024368568 0.0053353837 
 5674000    316.90172   -1074.8802    2226.8597   -4443.1249    776.31928     379.3179   0.44587852 0.0024362806 0.0053352209 
 5676000    281.59442   -1073.9467    2064.7022    -8811.856    191.12393    1075.5219   0.44584396 0.0024357203 0.0053342608 
 5678000    274.48837   -1074.9351   -2390.4804    -6789.665    409.44988   -792.64836   0.44583136 0.0024351403 0.0053335358 
 5680000    273.60295   -1073.5659    1496.9037   -6308.5917   -666.65653   -91.725205   0.44582912 0.0024345734 0.0053333003 
 5682000    319.16692   -1073.9569    3612.1628   -7883.6966   -4003.9137    507.54979   0.44581862 0.0024337041 0.0053325542 
 5684000    282.64923   -1074.3031    -2504.359   -10093.778    2272.7508   -1831.2729    0.4458478 0.0024332713 0.0053327884 
 5686000     289.0315   -1074.1786     5573.058   -9342.1786    1206.9683    393.53922   0.44585678 0.0024333673 0.0053316446 
 5688000    283.37364    -1073.972   -718.41082   -7552.1889    3648.4457   -2339.1769   0.44585126 0.0024352179 0.0053295404 
 5690000    301.27499     -1074.62    4716.1344    -7900.943     1042.358   -3749.1673   0.44584303 0.0024338244 0.0053299931 
 5692000    280.49007    -1074.336    3909.1151    -8123.653    3598.1941   -311.47571   0.44586278 0.0024326201 0.0053292829 
 5694000    363.21038   -1073.9112    4356.1106   -7633.3547    3871.5182   -2664.4528   0.44588576 0.0024316499  0.005328087 
 5696000    301.19092   -1073.8969    5424.8761   -10229.341    2147.5662    720.00572   0.44589158 0.0024333481 0.0053273341 
 5698000    304.15138   -1074.5865    6386.3411   -11406.078    572.77903   -258.87339   0.44590843 0.0024332569   0.00532666 
 5700000    280.95921   -1073.4838    2172.7135   -9181.2666     -1089.35   -3272.9798   0.44592088 0.0024321529  0.005326066 
 5702000    309.11554   -1073.3532     4552.745   -6750.5497   -265.27836    1586.6595   0.44594181 0.0024324168 0.0053261456 
 5704000     314.1271   -1074.1961    1920.8328   -3867.7115    2213.0149   -3252.1898   0.44595084  0.002431385 0.0053244829 
 5706000    293.93285   -1074.2698    1887.2636   -8278.0689   -416.27435    344.09941   0.44596393   0.00243047 0.0053234267 
 5708000    298.78434   -1073.7286    4180.5143   -7125.7309    356.82121    188.22313   0.44593876 0.0024304197 0.0053242889 
 5710000     267.8559   -1074.6648    1538.5251   -9845.3298   -1373.9719    -1947.019   0.44596449  0.002430816 0.0053239355 
 5712000    319.73579   -1073.9467    1302.7311   -4066.7972   -1434.9374    -1104.943   0.44599732 0.0024303681 0.0053224257 
 5714000    329.89755   -1074.5951    3739.9984   -6981.1222   -1414.7855   -353.28456   0.44600724 0.0024289943 0.0053229277 
 5716000    322.73728    -1074.456    1030.7338   -7682.2076    3261.2227   -1760.9112   0.44599223 0.0024311056 0.0053221363 
 5718000    297.55707   -1073.9202    3801.4712   -3274.9316   -1459.6978   -1599.9147   0.44596727 0.0024339618 0.0053217403 
 5720000    323.53075   -1074.8927   -81.292045    -10254.23    2469.2245   -174.56325   0.44593998 0.0024323143 0.0053202349 
 5722000    292.46107   -1074.3674    2174.6723   -9442.8062   -3404.0194    -2128.111   0.44594832 0.0024315791 0.0053188959 
 5724000    304.90632   -1073.9708    358.92321   -9554.5888   -686.07464   -239.84659   0.44598986 0.0024311069  0.005317936 
 5726000    287.63071   -1074.4434    60.685114   -9035.6066   -1359.0602    1932.6519    0.4459908  0.002430573 0.0053184033 
 5728000    328.35635   -1074.7824     6146.922   -10673.926   -707.09874   -2470.3782   0.44598997 0.0024304395 0.0053170603 
 5730000    280.94322   -1073.4543    4797.7119    -5762.508    1371.4869   -403.65483   0.44598152 0.0024313143 0.0053159076 
 5732000     298.9982   -1074.6053    3809.3533   -7188.8615    2179.3796    1265.7096   0.44595266 0.0024304521 0.0053173162 
 5734000    306.62656   -1074.2484   -1210.0853   -8653.2208    839.85011   -582.40444   0.44596536  0.002430944 0.0053171269 
 5736000    323.63684   -1074.1747    221.42571   -8854.8323    3275.6969   -2421.1497   0.44593244 0.0024312775 0.0053159159 
 5738000    305.01563   -1074.3641    3980.7946   -7362.7963   -490.91407   -412.47862   0.44591782  0.002430496  0.005317157 
 5740000    303.07876   -1073.8315   -892.62953   -8593.3653    2897.7352    138.87005    0.4459392 0.0024300341 0.0053178765 
 5742000    281.89642   -1074.6023    4319.0228   -8609.8399    -1262.215    672.97371   0.44596973 0.0024298597 0.0053162968 
 5744000    282.22826   -1074.0564    2437.6511   -7241.3208    3618.3802    720.25947   0.44596126 0.0024291068 0.0053146835 
 5746000    286.20474    -1074.426    2669.4551   -8451.5789   -1613.1509   -266.86876   0.44595265 0.0024311477 0.0053167727 
 5748000    284.82404   -1073.7863     -127.388   -5182.4731    570.30046    1123.3162   0.44596683 0.0024330089 0.0053149695 
 5750000    293.19147   -1074.0495    3182.0642   -7185.9523    1932.6323   -849.39106   0.44595051  0.002432338 0.0053156952 
 5752000    320.02963   -1074.2655    332.44729   -8074.0309   -2146.4303   -3684.0017   0.44596505 0.0024335702 0.0053189285 
 5754000    290.19011   -1073.3441    1849.2541   -8211.7534     453.0379    2681.9424    0.4459769 0.0024330812 0.0053188365 
 5756000    284.92563   -1074.2138    5921.6615   -7807.0324    4511.5808   -2055.4759   0.44595125  0.002433085  0.005319641 
 5758000    260.65719   -1074.0867    6238.0524   -11246.922   -3876.8532    361.96661   0.44591143 0.0024326319 0.0053176092 
 5760000    271.92775   -1073.7455    5895.3975   -8845.9709    48.242811    734.35561   0.44593122 0.0024321327 0.0053170722 
 5762000    288.25777   -1073.8515    2199.6507   -10757.325    432.42528   -2225.6673   0.44593942  0.002431524 0.0053162446 
 5764000    290.80598    -1073.644    4337.7008    -5551.445   -449.06402   -609.74631   0.44594556 0.0024307193 0.0053183558 
 5766000    305.87645   -1074.0958    2713.8967   -9127.3251    3727.1851   -1385.1177   0.44597226 0.0024297283 0.0053170383 
 5768000    288.71879   -1073.3839    1935.4459   -4552.3343    1458.4197   -3574.5044   0.44597017 0.0024298891 0.0053173366 
 5770000    304.60259    -1073.893    3268.1657   -8790.0838    3388.7858    4144.6692   0.44595839 0.0024283864 0.0053180658 
 5772000    295.40498   -1073.7614    2948.7201   -6147.2343    394.09545   -136.15515   0.44595065 0.0024268104 0.0053168586 
 5774000    285.15979   -1074.0327    1104.0959     -7348.51    2070.8855    149.97205   0.44594008  0.002426358 0.0053176882 
 5776000    289.72994   -1073.5939    4812.6613   -6002.1049     1271.384    1379.0512   0.44594852 0.0024258441 0.0053189175 
 5778000    302.61814   -1073.6525    -2211.201   -6199.5257    1799.3719   -2671.7419   0.44597508 0.0024253285 0.0053170716 
 5780000    297.09801   -1074.0747    5.8411904   -7235.7294    1506.7076   -1314.0459   0.44596813 0.0024251198 0.0053158083 
 5782000    302.90245   -1074.5215   -2176.8442   -7476.6678    3007.7591   -2000.7002   0.44595072 0.0024246083 0.0053169362 
 5784000    312.32848   -1073.9834    6637.2476   -6289.9399   -569.77599   -2246.0684   0.44596194  0.002423893 0.0053162928 
 5786000    317.76828   -1074.1596    920.38807    -6072.511    2025.8387   -2337.8158   0.44595762 0.0024230909 0.0053163007 
 5788000    284.54092   -1074.1243    1935.5353   -9113.5211    918.09337   -606.60534   0.44594701 0.0024224059  0.005315878 
 5790000    285.18054   -1073.9734    3365.5368   -8268.6818   -713.00567   -2335.4972   0.44596854 0.0024224299 0.0053182878 
 5792000    284.46264   -1074.7331    5352.7284   -6068.3651   -3156.2992   -2566.5127   0.44597993 0.0024216506 0.0053158483 
 5794000    312.75021   -1073.8537    4435.8958   -9568.5743   -1663.5737     3158.884   0.44596044 0.0024209746 0.0053140756 
 5796000    293.20244   -1074.2751    2661.9993   -10979.303   -2754.6734   -1901.4234   0.44596013 0.0024200522 0.0053130626 
 5798000    326.05961   -1074.4248   -708.86637   -7068.4148    236.23792    2455.1573   0.44597892 0.0024193218  0.005314001 
 5800000     300.9745    -1074.664    1765.1664   -4038.5503    1674.3435   -4422.1183   0.44598445 0.0024190444 0.0053149402 
 5802000    311.27414   -1073.8333    1332.3024   -7680.8397   -245.74388   -2266.8603   0.44600295  0.002418021 0.0053170517 
 5804000    307.18919   -1074.3333    3697.0294   -10135.772    1068.6355   -1123.7798    0.4460405  0.002417192  0.005318025 
 5806000    294.49912   -1073.9235    1574.0802   -5244.1173    164.62659   -2221.8167    0.4460559 0.0024163928 0.0053159477 
 5808000    310.43156    -1074.179    3896.1443   -8917.5297    1110.7316    2172.1679   0.44606264 0.0024168129 0.0053159534 
 5810000    308.77454   -1074.6178    2074.9996   -8231.1441    1450.6233    1851.5952   0.44607494 0.0024173841 0.0053177265 
 5812000     299.7204   -1073.7259    2651.3375   -6316.9384    954.00863    3120.1386   0.44607429 0.0024165941 0.0053160529 
 5814000    325.66974   -1074.4794    2440.1637   -9114.6938    1190.8552   -1898.2526   0.44605029 0.0024173148 0.0053151658 
 5816000    317.45071   -1074.1747   -1974.8272   -3328.5379    668.47675   -674.09592    0.4460354  0.002420353 0.0053152953 
 5818000    299.88366   -1074.3355    6249.4451   -7927.3135   -2189.8076    1208.9226   0.44602684 0.0024202169 0.0053140506 
 5820000    297.80673   -1074.3659    4061.6657   -7235.2503    677.40038   -2371.7034    0.4460321 0.0024192446 0.0053127014 
 5822000    284.92773    -1073.901    5313.1017   -9038.1493   -1958.0576     647.7297   0.44606221 0.0024186921 0.0053120245 
 5824000    287.24961   -1073.8399     5766.001   -5805.4074    -1880.596   -2265.1122   0.44606615 0.0024177737  0.005312946 
 5826000    291.27675   -1073.8712    2010.5467   -9268.9974   -436.56003   -492.00519    0.4460785  0.002417366 0.0053124203 
 5828000    322.80732   -1074.7272    1633.3107   -10731.027    412.73176   -1201.7167   0.44608798 0.0024178706 0.0053121576 
 5830000    279.40494   -1074.3687     4471.946   -7141.6786   -852.61148   -166.60646    0.4460959 0.0024195796 0.0053116391 
 5832000    308.46718   -1074.0083    4396.8536    -12136.05   -2952.1383   -821.11883   0.44610446  0.002418445 0.0053126452 
 5834000    285.77464    -1075.085    2643.9018   -9302.6073    1864.3561    1132.5553   0.44612194 0.0024181784  0.005314818 
 5836000    291.00917   -1074.4049   -125.72338   -6983.7438   -1028.6729    -1074.182    0.4461172 0.0024174777 0.0053137768 
 5838000    269.47234   -1074.2019     608.6625    -8898.392    879.66775   -523.75365   0.44609367 0.0024181833 0.0053121599 
 5840000    322.15963   -1073.7934    3247.7673   -7943.5138   -1532.4825    1855.0806   0.44611257 0.0024211378 0.0053110514 
 5842000    336.69152   -1074.0558    433.56113   -6170.9547   -878.45279   -3675.3087   0.44612613  0.002421318  0.005309401 
 5844000    308.07759   -1074.3795    5957.4007   -10793.726    377.64436   -2788.1824    0.4461047 0.0024204414   0.00531033 
 5846000    317.70469   -1074.0666   -2367.2767   -7091.5945    1391.8574    1603.0363   0.44610235 0.0024199881 0.0053144654 
 5848000    298.82852    -1074.193    1830.0288   -9764.8232   -462.72371    699.10073   0.44606876  0.002420184 0.0053122287 
 5850000    294.55231    -1075.011    -1680.239   -8799.5329    385.74375   -31.683955    0.4460662 0.0024189145 0.0053110665 
 5852000    292.40595   -1074.3897    2331.6546   -9515.2593    2031.8522    932.98456   0.44609695 0.0024196234 0.0053094778 
 5854000    327.72044   -1074.7619    930.47938   -7791.7259    3218.7823    -1185.258   0.44611796 0.0024194025 0.0053096661 
 5856000    316.73678   -1073.9422     3230.104   -7686.1896   -3102.4801   -814.39202   0.44611434 0.0024207193 0.0053074814 
 5858000    278.76514    -1074.428    4296.2923   -7621.5121    2467.4769    1694.5787   0.44608662 0.0024207328 0.0053070007 
 5860000    298.24808    -1073.834    3224.8594   -6422.8898   -578.57553   -872.88509   0.44606981 0.0024203223 0.0053079068 
 5862000    299.65055   -1074.8611    3737.7941   -7898.8131   -583.61418   -3505.1372   0.44606262 0.0024200783 0.0053075079 
 5864000    285.51471   -1074.1209    4300.3073    -7149.875   -823.63652   -1599.3978   0.44607134 0.0024192633 0.0053112289 
 5866000    325.74717    -1073.897    1414.1161   -6731.4242     3165.858    332.65289   0.44609404  0.002418327 0.0053096796 
 5868000    308.36048   -1073.5788     7521.914   -7983.4116   -1498.3838    4082.6139   0.44611388 0.0024172974 0.0053087323 
 5870000    272.89613   -1074.6036    4805.6021    -4505.051    4954.0643    2322.3672   0.44612282 0.0024166141 0.0053060197 
 5872000    260.89171   -1074.6615    6704.0119   -9805.3167   -550.42589    861.98331    0.4461333 0.0024182498 0.0053050079 
 5874000    290.75026   -1074.1432    6580.9071   -8455.5245    728.49359    1970.0041   0.44613217 0.0024165974 0.0053057407 
 5876000    303.57497   -1073.9767    4231.3247   -6445.3252   -725.85183   -552.37316   0.44614164 0.0024159569  0.005305317 
 5878000    301.87417   -1074.6413    419.23465   -6361.0605    3273.9808   -2723.3243   0.44613821  0.002416948 0.0053034617 
 5880000    299.97065   -1074.8122    3063.6011   -7153.0053    19.439127   -1240.8491   0.44611295 0.0024169277 0.0053021609 
 5882000    293.00892   -1074.3605    2945.5837   -7973.3014   -1868.0929   -1881.3663   0.44611602 0.0024162575 0.0053038183 
 5884000    267.41578   -1074.0334    3781.6343   -7950.0316    1184.1919    716.11264   0.44614182 0.0024151708 0.0053049195 
 5886000    273.46488   -1074.6256    2948.1472   -9929.3349    2028.0091    1503.2995   0.44618463 0.0024144396  0.005303227 
 5888000    300.44696   -1074.1717    208.69607   -7491.1668    1956.4755    1429.8617   0.44620162 0.0024136622 0.0053014289 
 5890000    334.81651   -1074.2364    2973.7382   -6447.2011   -1852.9473   -821.60393   0.44619673 0.0024144547 0.0053005104 
 5892000    281.55511   -1073.9238    3270.2897   -8651.2627    3983.1512    48.489344   0.44617793 0.0024150465 0.0053023277 
 5894000    305.87251   -1074.4353    2015.8922   -6230.0648    1297.4453    -28.80429   0.44620066 0.0024143333  0.005301833 
 5896000    308.55573   -1074.7763    3958.6573   -9563.7513    1006.5651   -3244.0147   0.44623329 0.0024134999  0.005300103 
 5898000    302.80835   -1074.1158   -2447.9744   -6030.3203    -87.34152   -5068.0647   0.44621469 0.0024125784 0.0053000117 
 5900000     314.6151   -1073.1391    1574.3761   -8084.5204   -2392.3668   -603.44362   0.44618691 0.0024121167 0.0053013833 
 5902000    292.20929   -1074.3654   -657.09096   -10001.882   -1643.0506    -2547.956   0.44619026 0.0024114319 0.0052995998 
 5904000    290.94057   -1074.6394    870.97789   -7386.7663   -1356.4284   -2976.4674    0.4462029 0.0024105366 0.0053001232 
 5906000    257.43492   -1073.5108    1666.2437   -8701.4481    1210.9378   -1355.9874   0.44621304 0.0024102145 0.0053016412 
 5908000    302.26801   -1074.2268    6219.0185   -8725.6809    1034.3708   -1481.8523   0.44623835  0.002409855 0.0053006009 
 5910000    302.86441   -1074.2698    3339.7559   -8037.8243    403.23882   -939.90607    0.4462468 0.0024106354 0.0052987546 
 5912000    283.07359   -1074.0175    3536.9668   -6521.7903    2206.4242    76.867691   0.44624847 0.0024101856 0.0052972483 
 5914000    330.15939   -1074.6236    3064.5321   -7696.8316   -1831.7223   -3895.1225   0.44626944 0.0024094972 0.0052959734 
 5916000    280.91984   -1073.9451     3797.792   -6296.3837    1264.9247    1541.6541    0.4462766 0.0024092016 0.0052980715 
 5918000    316.14022   -1074.1991   -338.49031   -6491.7066    198.19305   -270.34014   0.44624621 0.0024088911 0.0052953709 
 5920000    284.38274   -1074.0712    3736.4071   -10340.687    -902.4931    989.54439   0.44624593 0.0024103298 0.0052937695 
 5922000    304.36538   -1074.3155    5350.1224   -5616.5604   -1971.4585   -682.17801   0.44624805 0.0024094595 0.0052932492 
 5924000     285.9567   -1073.9672   -1802.2372    -11532.49    1408.4962    2871.1564   0.44626533 0.0024087607 0.0052939152 
 5926000    280.42815   -1074.6024    4792.0731   -10121.377   -1133.0952   -1507.1493   0.44630214 0.0024080528 0.0052922739 
 5928000    311.73925   -1074.0038    6608.5308   -4719.6166    2558.2063   -2842.5203   0.44633176 0.0024072001 0.0052908778 
 5930000     264.0599   -1074.3702     199.2164   -8331.2978     365.3772   -263.83817   0.44631377 0.0024082505 0.0052915404 
 5932000    280.09734   -1074.7273    3521.5773   -9648.3566   -2158.8578     299.1834   0.44630143 0.0024109345 0.0052915295 
 5934000     275.8759   -1074.1519    2335.9659   -8791.8116     1533.761   -2177.9254   0.44629406 0.0024108965 0.0052901026 
 5936000      297.702   -1074.2794    1807.1892   -8240.2884    3765.0826   -3961.7524   0.44629104 0.0024101657 0.0052901833 
 5938000    314.32186   -1074.1083    4323.1536    -7899.952   -1460.1992   -1135.1032   0.44629982 0.0024101015 0.0052900099 
 5940000    306.52819   -1074.8002   -3877.6287    -8879.331    936.13942   -2250.3949   0.44629412 0.0024095269 0.0052897289 
 5942000    303.97047   -1073.9134    2641.1127   -8294.6895     4041.894    134.57159   0.44630623  0.002408737 0.0052876253 
 5944000    314.39446   -1074.5841   -2109.6184   -9077.4746   -980.47076   -488.19961   0.44633459 0.0024082701 0.0052873022 
 5946000    275.33256   -1073.5968    2213.5505   -8929.4467    2391.1454    220.25966   0.44635412 0.0024079478 0.0052883032 
 5948000    295.06985   -1074.3795    1861.3695   -6931.2329   -2925.9634   -2383.9615   0.44635593 0.0024086886 0.0052864726 
 5950000    306.00857   -1073.8704    3459.2571   -7330.4222     4.482828   -1597.9476      0.44635 0.0024092925 0.0052862662 
 5952000    298.49566   -1074.1318    1133.8251   -8940.6677   -1889.6208   -1771.5133   0.44633446 0.0024094075 0.0052861404 
 5954000    302.15663   -1074.9275    4005.8932   -6096.4836    1855.3527   -372.87778   0.44630512 0.0024090435 0.0052846153 
 5956000    328.41371   -1075.0834    2023.2988   -10693.427     3577.128    1265.7075   0.44629536 0.0024083512 0.0052848746 
 5958000    310.31262   -1074.9108    2337.0114   -9144.5141    1245.4707   -2030.2165   0.44632103 0.0024110424 0.0052844104 
 5960000    288.10349   -1073.4785    4353.1168   -7141.4081    1717.2332   -1250.8635   0.44631773 0.0024100176 0.0052828016 
 5962000     311.1064   -1074.1638    3778.9373   -8624.9648    430.33806   -3012.9382    0.4463332 0.0024101735 0.0052817469 
 5964000    303.86899   -1074.2777    3373.4979   -5198.5984   -2087.2397   -2170.6122   0.44632716 0.0024106856 0.0052841099 
 5966000    301.39085   -1074.3442     6045.208    -7623.119   -1832.0677    1473.6987   0.44632683 0.0024105176 0.0052835848 
 5968000    293.46903   -1073.9913    2441.8181   -9632.9851    3132.6253   -1345.9531    0.4463615 0.0024097139 0.0052817506 
 5970000    314.51628   -1073.7029    4562.8935   -7605.1236   -83.698325    1228.3565    0.4463729 0.0024088939 0.0052842571 
 5972000    303.05058   -1074.3537    4961.4137   -7598.7105    187.43092   -1016.0138   0.44638486 0.0024099348 0.0052846609 
 5974000    285.97381   -1073.5622    1039.2608   -6312.5665    665.43369    1590.5648   0.44636526 0.0024093542 0.0052837322 
 5976000    340.05391   -1074.2672     5511.975   -5651.9659   -728.45115    349.70548   0.44635354 0.0024140552 0.0052820599 
 5978000    329.79777   -1074.7289    1310.3558   -6809.0018    455.16955   -3232.4262   0.44633651 0.0024174091 0.0052823307 
 5980000     282.0496    -1074.488    4062.5243   -8672.1979    -2101.017   -1016.2808    0.4463202  0.002415818  0.005285449 
 5982000      299.331   -1074.2345    2388.6867   -8987.0947    2088.3518     1526.463   0.44634767 0.0024149748 0.0052859895 
 5984000    285.28595   -1074.5445   -208.66973   -8068.3489     1538.543   -3189.9455   0.44637812 0.0024142478  0.005284946 
 5986000    349.75967   -1074.8795    2185.5828   -9315.3963    1007.4195    907.63289   0.44640933  0.002413732 0.0052836535 
 5988000    304.67288   -1074.2563    659.76524   -7030.5682     1502.806   -3700.0177   0.44641093 0.0024145319 0.0052824227 
 5990000    307.26471   -1074.3585    4416.0975   -8122.4656    2907.3843   -1696.1733   0.44640739 0.0024133798 0.0052814083 
 5992000    335.18815   -1074.1814    4051.7753   -5749.7362   -1026.0924    575.83423   0.44637377 0.0024157614 0.0052805148 
 5994000    305.95864   -1074.1894     3576.393   -9428.7374   -2187.3178    -3234.354   0.44636529 0.0024157574  0.005278962 
 5996000    309.77812   -1073.4961    4138.0886   -8068.2515   -146.74621   -2461.1509   0.44637219 0.0024151487  0.005277584 
 5998000    320.68082   -1074.1064    915.19476   -12209.085    741.33978    451.16596   0.44641995 0.0024144533 0.0052778467 
 6000000    285.37594    -1073.892    2749.3065   -8027.2591   -463.57735    1275.7762   0.44647369 0.0024136372 0.0052761463 
 6002000     274.6096   -1074.0968    5169.2041   -7548.5542    1828.8462   -2260.8858   0.44646339 0.0024142735 0.0052745349 
 6004000    300.72377   -1075.2907    1787.4872    -4955.248    1085.5659    1895.0304   0.44645585 0.0024153161 0.0052744371 
 6006000    307.80894   -1073.7468    2641.0268   -5871.7698   -338.11377    -1291.404   0.44642447 0.0024161551 0.0052734518 
 6008000    287.42667   -1074.1523    2904.7635   -7472.7262   -1948.9204   -2490.9676    0.4464158 0.0024154769 0.0052729296 
 6010000    275.77675   -1074.8924    1800.1841   -7951.1832    2974.1382    455.73258   0.44645102 0.0024147882 0.0052739192 
 6012000     313.4844   -1074.3008   -1603.6507   -9053.7457    1849.0601    -4271.622   0.44646647 0.0024141724 0.0052732998 
 6014000    294.60356    -1073.714    1031.3293   -8753.1514   -298.70635   -195.74356    0.4464633  0.002414682 0.0052716745 
 6016000    290.28287   -1074.2788   -605.80626   -8444.2806    323.07443   -1545.4217   0.44644532 0.0024133062 0.0052698916 
 6018000    280.30531    -1074.381    2895.4122   -6638.0355   -2029.2547   -902.71948   0.44643196 0.0024131622 0.0052720164 
 6020000    283.22192   -1073.4927    5220.1774   -9388.2124   -1881.5421     218.4472   0.44644135 0.0024129805 0.0052786269 
 6022000    294.88721   -1074.3108    3507.9192   -9464.4197   -1631.1753   -1812.4658    0.4464324 0.0024121691 0.0052824694 
 6024000    258.54372   -1074.9891    3003.7819   -10982.267     1894.569     1938.128   0.44644452  0.002413089 0.0052854009 
 6026000    305.39786   -1073.1144     2411.399   -3091.1848    1168.8377    287.00232   0.44642099 0.0024157933 0.0052838131 
 6028000    289.25934   -1073.9939    -57.92122   -8738.9924    4328.4797   -127.30346    0.4463868 0.0024156195 0.0052820374 
 6030000    276.67254   -1073.9569    3861.6556   -9072.5482    -436.8809    284.60565   0.44640127 0.0024150621 0.0052817361 
 6032000    291.51798   -1074.6753    2123.3172   -9486.2983    1310.4243    -2305.482   0.44643857 0.0024141113  0.005281377 
 6034000    313.52999     -1074.25   -39.920885   -10041.775    1423.3938   -2947.0166   0.44645555 0.0024133792  0.005282126 
 6036000    332.40441   -1073.5334     3545.979   -7513.3144   -1549.8718   -2457.6227   0.44645724 0.0024133623 0.0052842063 
 6038000    310.27508   -1073.6155    1091.9956   -10596.121    2414.5339   -4998.3524   0.44643743  0.002412984   0.00528484 
 6040000    299.79499   -1074.8557    2568.5174   -7540.8049   -1817.4129      523.393   0.44643267 0.0024123523 0.0052837826 
 6042000    276.98849   -1074.3089    1486.9671   -9527.8269    2103.8338   -2086.9915   0.44643922 0.0024114372 0.0052837222 
 6044000    281.46924    -1074.003    1023.7354   -6366.2956   -2975.1963   -968.20763   0.44645363 0.0024107382 0.0052829148 
 6046000    295.62593   -1074.3469    3191.5669   -9082.5802    2451.4813   -645.25177   0.44649044 0.0024099246 0.0052818329 
 6048000    287.86588   -1074.0677    4026.5391    -8064.496   -194.24067    -1389.811   0.44650848 0.0024092428 0.0052808011 
 6050000    300.33172   -1074.5898    5257.5502   -4914.8661   -258.57569    2871.8379   0.44649402 0.0024099472 0.0052793268 
 6052000    276.33887    -1073.994    6216.3847    -7891.414    1727.9351   -4510.1432   0.44647472 0.0024088001 0.0052779798 
 6054000    301.90984   -1074.0357    2348.1211   -6330.3008    1437.3757   -1106.8337   0.44646593 0.0024090513 0.0052780524 
 6056000    294.15621     -1073.65     2525.367   -11339.899   -1237.6278   -65.857851   0.44647298 0.0024083617 0.0052761755 
 6058000    302.12337   -1073.7388    2314.6591   -6985.3007   -1776.8226   -2047.0487   0.44649334 0.0024077704 0.0052772733 
 6060000    313.04786   -1073.6062   0.74294667   -9282.2306    1154.1339   -3428.7609    0.4465283 0.0024069406 0.0052787179 
 6062000    299.93383   -1074.0268    2201.3084   -7081.4066    464.10649   -379.38772   0.44652546 0.0024063197 0.0052806518 
 6064000    304.50544   -1074.0012    2124.6494   -7350.2254    815.38076   -629.06573    0.4465181 0.0024056877 0.0052802923 
 6066000    300.05992   -1074.1111    4565.6119   -7914.1044   -103.01619    1222.1503   0.44650971 0.0024069162 0.0052787808 
 6068000    259.11142   -1073.7101    5125.6889   -5955.6175    343.42348   -959.94602   0.44651293 0.0024063708 0.0052787841 
 6070000    331.90502   -1074.0171    4178.9713   -13164.207    619.40935    4332.5659   0.44653521  0.002406219 0.0052779781 
 6072000    293.64641   -1073.7393    4714.4892   -7642.1823   -1554.2692    2876.7958   0.44655573 0.0024058172 0.0052769487 
 6074000    288.95571   -1074.2576    3704.1613   -9357.0135    744.28727    2236.6605   0.44656071 0.0024047714 0.0052803058 
 6076000    280.06306   -1074.0647     2660.683   -7350.1182   -1132.5287   -685.51452   0.44655347 0.0024036441 0.0052798337 
 6078000     266.1668   -1074.1538    2914.8857   -7114.5517   -549.17078    -1399.916    0.4465633 0.0024030217 0.0052787909 
 6080000    296.10981   -1075.1545    1833.1022   -8405.2389   -22.027836    1133.1434   0.44656072  0.002402011 0.0052830344 
 6082000    302.25537   -1074.3012    3597.3931   -9131.3301   -2060.4476     2433.762   0.44656166 0.0024015141 0.0052815404 
 6084000    301.63892   -1074.6138    3050.5413    -6620.221   -975.55216   -634.90354   0.44656383 0.0024015321 0.0052796555 
 6086000    285.46552   -1074.3315    5155.9228   -10923.659    1001.3082    432.85659   0.44654964 0.0024046041 0.0052790905 
 6088000    285.25447   -1074.3227    673.98254   -9937.3502   -2353.0026    276.07532    0.4465752 0.0024033535 0.0052831511 
 6090000    307.05169   -1074.9603     4782.757   -8554.4906   -1589.4588   -887.78515    0.4465825 0.0024026158  0.005281995 
 6092000    330.44443    -1074.216     4847.627   -4106.8416     3203.974    1252.5777   0.44659648 0.0024031626 0.0052838364 
 6094000    295.89761   -1073.8971    2245.1747   -7501.0686    1685.3735    -1492.912   0.44658785 0.0024052974 0.0052831597 
 6096000    278.00327   -1074.8028    4015.2194   -7635.9831    -770.8835   -923.25188   0.44657749 0.0024044911 0.0052816024 
 6098000    287.43546   -1073.9279    226.88918   -10301.136      769.569   -395.39715   0.44659657 0.0024076037 0.0052803331 
 6100000    329.10567   -1073.9583   -2157.0982   -11551.267   -2021.2838   -1594.5842   0.44658655 0.0024067285  0.005280266 
 6102000    285.81434   -1073.9013    7341.9924   -8165.5242   -2986.9251   -2698.7229   0.44659299 0.0024071273 0.0052823114 
 6104000    300.55384    -1074.806   -119.57878   -7187.5608    1263.8518   -3213.6022   0.44662138 0.0024066099 0.0052842305 
 6106000    324.22662   -1074.3501    2575.7191    -9739.399    2595.1489   -1803.8321   0.44661615 0.0024060514 0.0052841305 
 6108000    282.64429   -1074.1439    2110.3222   -6716.8355   -428.09172    -2920.266   0.44663378  0.002407107 0.0052821528 
 6110000    294.04207   -1074.0998    3280.3997   -9048.2584    1054.3342   -302.76525   0.44665313 0.0024079132 0.0052828681 
 6112000    290.60563   -1073.7162   -53.394766    -6113.976    841.33415   -1192.7452   0.44665438 0.0024069247 0.0052820133 
 6114000    305.28305   -1074.1565    186.82265   -8371.6309     1661.364    460.95446   0.44665205 0.0024096292 0.0052812302 
 6116000    306.76129   -1074.6715    2876.2859    -8982.781   -2729.4047   -2741.5575   0.44663273 0.0024085474 0.0052796129 
 6118000    310.93621   -1073.9444   -974.77184   -8671.6932    2317.5223    425.79303   0.44662529 0.0024084792 0.0052789921 
 6120000    292.06399   -1074.0921   -733.36567   -11298.616   -115.23235    -1313.947   0.44664785 0.0024107552 0.0052778992 
 6122000    283.01045   -1074.3075   -3334.6668   -7379.2452     1081.082    -1247.297   0.44666979 0.0024100692 0.0052766178 
 6124000    254.09513   -1074.0228    2281.2758    -8879.901    924.94352   -3646.2699   0.44669168 0.0024096684 0.0052773433 
 6126000    284.92221   -1074.2047    2069.2295   -7314.6482   -218.55649   -413.45332   0.44669719 0.0024094185  0.005278378 
 6128000    284.42288   -1073.7384    5243.9246   -7852.7237    378.09458    652.58745   0.44670932 0.0024087202 0.0052768059 
 6130000    304.79954   -1074.7915     1263.252   -6766.9652   -534.38989   -120.06893   0.44669579 0.0024083028 0.0052758269 
 6132000     257.8058   -1074.0389    2824.6595   -8703.0716    9.1501246    3273.3507   0.44670758  0.002407264 0.0052747321 
 6134000    326.06255   -1074.4781    3826.3356   -6997.8686   -1188.6056   -2265.9267   0.44671573 0.0024093936 0.0052749634 
 6136000     320.9564   -1073.8579    2851.5466   -8281.8178    1134.1254   -761.32417   0.44670429 0.0024086704 0.0052739188 
 6138000    295.53094   -1075.1941    3183.2038   -8066.3531   -1355.6885   -2429.9364   0.44669028 0.0024078253 0.0052726495 
 6140000    283.01284   -1073.5872    3998.0665   -5614.3675    -2152.991   -3640.3256   0.44671285 0.0024070496 0.0052732541 
 6142000    309.64705   -1074.9185     4601.679   -7901.3534   -318.85262   -2395.8402   0.44671443 0.0024074737 0.0052749388 
 6144000    340.85018   -1074.1521    6974.1371   -7776.1303   -810.16315    917.24174   0.44671216  0.002407195 0.0052741326 
 6146000     300.4055    -1074.973    441.06694    -7797.021    2158.5814   -2077.6146    0.4467347  0.002406749 0.0052729066 
 6148000    310.95248   -1074.0189     5438.158   -12685.172    -871.9607    2763.8661   0.44676333 0.0024068932 0.0052743502 
 6150000    303.11574   -1074.4787    -945.5274   -8693.5575   -1632.4731   -4449.5997    0.4467893 0.0024073957 0.0052758863 
 6152000    297.79953   -1073.9601    3047.7498   -6408.9141    1451.6604    581.80565   0.44679044 0.0024056708  0.005274544 
 6154000    292.18751   -1074.2949    3035.9566   -8001.7032   -991.87553   -1054.9913   0.44677756 0.0024050176 0.0052727844 
 6156000    288.65972   -1073.9894    2333.5746   -8647.3328   -287.41048   -294.44765    0.4467633 0.0024059637 0.0052722122 
 6158000    293.83939   -1075.0009   -1144.3798    -7686.781     -1845.44   -2403.4445    0.4467325 0.0024049517 0.0052727865 
 6160000    272.32317   -1074.7181    2960.9072   -10277.845    1624.1392    782.37183   0.44672563 0.0024051433 0.0052720119 
 6162000    291.23752   -1074.2149     1341.062   -12342.117    3180.5098    1316.0148   0.44673236 0.0024067099 0.0052706037 
 6164000    294.48996   -1074.4924     3204.528   -7794.9622   -1722.4914   -899.96138   0.44676647 0.0024058165 0.0052692956 
 6166000    276.74787   -1074.0718    2700.9346   -7731.2922    -1957.623   -935.11384   0.44678594 0.0024066368 0.0052683848 
 6168000    291.06227   -1074.2204     -1279.37   -6407.8265    1738.1018    1582.6238   0.44678773 0.0024057704 0.0052675708 
 6170000    304.48768   -1074.1278    3040.1295   -5834.0701    1928.0889    548.00703   0.44677471 0.0024055398 0.0052663977 
 6172000    278.35585   -1073.5928   -496.84959   -5538.5696    1127.1547   -3242.7435   0.44676545 0.0024059311 0.0052664319 
 6174000    290.64068   -1074.9306    3542.5378   -7918.0894   -453.13303     1565.719   0.44673594 0.0024060277  0.005268607 
 6176000    313.83927    -1074.695    3313.5686   -6096.6016   -1816.8621   -3002.9959   0.44676934 0.0024055383 0.0052665867 
 6178000    292.46827   -1073.8092    2382.1414    -8074.249   -523.09792    1097.6137    0.4467794 0.0024051301   0.00526589 
 6180000    301.88743   -1073.7789    4134.8627   -6791.1597    738.31826    -4750.025   0.44678928 0.0024043782 0.0052646555 
 6182000    279.32077   -1073.7871   -410.07781   -6001.1538    2992.6331    508.33266   0.44679827 0.0024033289 0.0052637962 
 6184000    291.87323   -1074.6392    3526.5539   -6718.3832    1370.6804    2897.4445   0.44679981  0.002402701 0.0052652687 
 6186000    288.68283   -1074.0466    288.46855   -11225.686    2856.8129   -961.31546   0.44679947 0.0024033857 0.0052652189 
 6188000    285.22828   -1074.1402    2954.8283   -6870.6273     2303.931    4609.9528   0.44680905 0.0024036432 0.0052644839 
 6190000    288.42413   -1074.4449    3035.2074   -9822.7308   -2169.9669   -102.34668    0.4467871 0.0024048339 0.0052656028 
 6192000    316.59205   -1074.1892   -246.95935   -10892.182    33.312061    1521.7244   0.44676042 0.0024048867 0.0052658962 
 6194000    281.27525   -1074.5007      1576.92    -6955.718    1910.0671   -309.14009   0.44678609 0.0024044449 0.0052640969 
 6196000    323.72039   -1075.1212    4003.1344   -8161.4519    363.97016   -1303.4151   0.44681687 0.0024037966 0.0052629577 
 6198000    288.04731   -1074.4876    3421.9249   -5680.5929    2936.4376   -820.43005    0.4468396 0.0024034306 0.0052618439 
 6200000     253.1237   -1074.1353    1885.4801   -6893.5677     3391.013   -306.11421   0.44683865 0.0024042235 0.0052610896 
 6202000    294.37848   -1074.0976    3858.6487   -5387.0833   -296.21083   -496.02024   0.44682909 0.0024071454 0.0052603912 
 6204000    344.20561   -1074.6719   -472.67817   -8988.7968    3164.5427    400.78461    0.4467979 0.0024067043 0.0052610254 
 6206000    309.58896   -1074.0333   -977.19061    -4384.984    891.75581   -1596.5495   0.44677922 0.0024066414 0.0052593414 
 6208000    322.62011   -1073.8954    4361.7062   -10163.605   -878.48541   -1467.2821   0.44677108 0.0024059846 0.0052594512 
 6210000    264.70592   -1074.0472   -2586.2165   -8705.8411    947.45609    1498.0761   0.44678871 0.0024050488 0.0052590612 
 6212000    298.89782    -1074.541    2149.0391   -10255.326    136.59602   -634.54439   0.44679021 0.0024074745 0.0052571088 
 6214000    294.11354   -1074.2502     4232.038   -5393.2419    1782.2099    -2192.072   0.44679216 0.0024080776 0.0052559554 
 6216000    292.91392   -1073.5701    5472.3004    -9597.864   -2478.0535   -1711.3265   0.44678254 0.0024093692 0.0052561373 
 6218000    290.68887   -1074.9616    4696.8383   -10966.345   -738.52964   -1956.4938   0.44681665 0.0024085672 0.0052546964 
 6220000    280.37185   -1074.5807    3694.0192   -6169.7608   -1214.7992    -3607.576   0.44681073 0.0024081445 0.0052545096 
 6222000    257.22737   -1074.2393    381.28859   -6385.7156   -5352.4471   -4194.6505   0.44679953 0.0024084848 0.0052533985 
 6224000    305.81326   -1074.3374    5327.5528   -8758.3104    951.41299   -155.93886   0.44680305 0.0024079092  0.005252221 
 6226000    312.89052   -1074.6344    499.35366    -9503.598    2909.2363   -1150.4652   0.44680312  0.002406662 0.0052524244 
 6228000    301.57326   -1075.0114    3925.4749   -9545.1129   -1132.7451   -319.25604   0.44681234 0.0024075017 0.0052516333 
 6230000    290.02566   -1073.7088    1443.2972   -6895.1713    3323.4129   -494.03267   0.44683083 0.0024068608 0.0052522747 
 6232000    278.44675    -1074.079      1331.21   -5934.5917   -2777.6164   -1528.8945   0.44685976 0.0024066896 0.0052501203 
 6234000    266.80335   -1074.6205   -321.20588   -8208.1705   -1814.6985   -2182.6752   0.44686588 0.0024060764 0.0052493881 
 6236000    249.79128   -1074.2891    3518.3333   -5831.9015    2215.5768   -2966.2137   0.44686379 0.0024070949 0.0052494031 
 6238000    279.20668   -1074.5617    3233.2661   -8560.9502    -2450.812    72.414787   0.44686494 0.0024073445  0.005250812 
 6240000    297.35962   -1074.8284    1051.7974    -7405.012    2702.5359    37.532809   0.44685425 0.0024081881 0.0052501271 
 6242000    281.05897   -1074.2496    3497.9194   -5273.4719    1744.5295   -598.87056    0.4468344 0.0024098053 0.0052493894 
 6244000    317.01051   -1074.6188    4444.7354   -6070.5059    607.35401    1077.2458     0.446794 0.0024118502 0.0052480578 
 6246000    300.19006   -1074.4381    1869.1929   -8660.0249    107.89018    87.773715   0.44678485 0.0024116958 0.0052480287 
 6248000    303.63153   -1074.3655    3980.4397   -9987.7695     -1203.04    897.67925   0.44679815 0.0024118451  0.005248814 
 6250000    346.79709   -1073.0636    5115.6058   -6842.6609   -1512.7738   -900.14048   0.44683354 0.0024116923 0.0052491994 
 6252000     301.6595   -1074.7498    4469.9433   -8359.0238    725.33461   -1940.8461   0.44687098 0.0024101845 0.0052494559 
 6254000    305.55651   -1074.5179    2684.3971   -8755.0375    1127.0685    548.27824   0.44686087  0.002410315 0.0052479677 
 6256000    334.34545   -1074.2227     2110.399   -4991.4029    2457.4815   -1910.7265   0.44684442 0.0024118195 0.0052466794 
 6258000    288.97743   -1074.3583    1230.6656   -9175.3817   -20.285865   -934.14479   0.44681656 0.0024114872 0.0052509347 
 6260000    278.63293   -1073.7486    3001.7611   -11506.947    2068.1372   -315.97166   0.44681927   0.00241063 0.0052509836 
 6262000    249.14891   -1074.5718    1386.2921    -7865.388     316.5228   -806.76228   0.44684347 0.0024101193 0.0052529737 
 6264000    323.44611   -1074.3902     3353.743    -8299.099   -258.36337    45.757103   0.44686504 0.0024103602 0.0052505739 
 6266000    287.13025   -1074.6019    1292.2073    -8562.826    499.84068    73.359736   0.44688008  0.002409861 0.0052492671 
 6268000    303.36762   -1074.3654     199.5048     -3660.24    3408.2191   -461.71343    0.4468905 0.0024101217 0.0052498824 
 6270000    310.50893   -1074.2663    2282.8795   -9528.6441   -47.396177   -2478.9679   0.44688161 0.0024091927 0.0052485086 
 6272000     304.7389    -1074.294   -1286.9102   -6901.0936    4837.5937    682.85021   0.44686587 0.0024090637 0.0052468781 
 6274000    291.17656   -1073.7386   -600.65716    -7872.392   -4306.6662   -3484.7266   0.44684363 0.0024107788 0.0052489252 
 6276000    310.68411   -1072.8679     4720.369   -8632.4579   -388.07954    349.20203   0.44684271 0.0024098634 0.0052526841 
 6278000    289.16988   -1074.2963    2730.6766   -8844.6935   -3352.7346   -460.13403   0.44688335 0.0024091897 0.0052516718 
 6280000    308.10041   -1074.1687    4425.0927    -8431.078    1666.9773   -3567.7214   0.44690996 0.0024085586 0.0052502463 
 6282000    293.82881   -1073.7129    4419.0222   -3544.8342    2193.9929    -2827.371   0.44689937 0.0024079787 0.0052497668 
 6284000    326.17658   -1074.4345    4009.9389    -9944.973   -1559.9739   -374.42552   0.44687048 0.0024095573 0.0052500684 
 6286000    282.68169   -1073.1082    858.30227   -9480.1682   -3114.9422     141.6828   0.44686954 0.0024093348 0.0052498655 
 6288000    329.39452    -1073.746    5864.5421   -13010.063   -5622.1013    2294.4008   0.44689905 0.0024084653 0.0052493838 
 6290000     265.8949   -1073.7592    3448.0997   -10821.491   -1280.1223    120.34549   0.44693988 0.0024078724 0.0052496994 
 6292000    294.74998   -1074.8968   -2527.0629   -6962.1654    1172.0129   -152.20664   0.44694736 0.0024072661 0.0052497649 
 6294000     280.2075   -1074.6353    4252.0745   -6341.8242   -613.51411   -25.458445   0.44692653  0.002408724 0.0052489407 
 6296000    323.25136   -1074.2393    2191.6656   -8269.4003   -305.34754    2508.0002   0.44691008 0.0024073948  0.005247264 
 6298000    305.18732   -1074.0508    4229.8416   -7142.3174   -2012.2209   -1500.6418   0.44689913 0.0024084634 0.0052463168 
 6300000    301.13106   -1073.8937    4576.5091   -8823.3651   -1355.2746    1637.1417   0.44689573 0.0024106219 0.0052448161 
 6302000    294.27473   -1074.6771    4559.3516   -5523.5703    228.14963   -2547.7744   0.44691088 0.0024106899 0.0052439742 
 6304000    299.57511   -1073.1534    7412.6967   -9682.7028   -1609.9624    216.74824   0.44691006 0.0024110065 0.0052430877 
 6306000    291.07696   -1074.1732    2238.5167   -6954.7183   -1968.3605   -3570.1154   0.44691908 0.0024112106 0.0052435894 
 6308000    318.91145   -1074.3322    352.01099   -8181.8917   -1092.7759   -1955.9568   0.44694535 0.0024104187  0.005245131 
 6310000    277.45466   -1074.5507    539.08407   -7915.1496    1597.8678   -923.27769   0.44696667 0.0024098568 0.0052445567 
 6312000    277.78091   -1073.8908    2883.5086   -5369.6213    -592.1299   -938.50964   0.44694482 0.0024107612 0.0052433392 
 6314000    297.53945   -1074.0977    1099.3579   -6690.1836    2363.6832   -1910.2833   0.44691499 0.0024137413 0.0052425382 
 6316000    307.57963   -1074.7482     4991.489   -7005.9647   -1640.4365   -2521.9179   0.44691671 0.0024159029 0.0052413802 
 6318000    263.92326   -1074.5701    105.95709   -9964.1383    1422.3146    -3745.012   0.44692489 0.0024141047 0.0052420358 
 6320000    280.99718    -1074.214    1586.2864   -8007.5726   -3246.4932   -1676.8967   0.44693822 0.0024133247   0.00524419 
 6322000    284.16626    -1074.499    1064.7528   -7817.0888    583.60694    273.71556   0.44696724 0.0024132971 0.0052433522 
 6324000    327.35491    -1074.733    4841.7999   -7503.4571   -5111.3694    2273.5003   0.44698213 0.0024128779 0.0052426273 
 6326000     322.8759   -1074.5589    1011.1337   -8923.2394    727.99347    1667.3596   0.44698256  0.002412102 0.0052408243 
 6328000    319.83004   -1074.3748   -62.251135    -10484.34    3043.6094   -860.78806    0.4469762  0.002417352 0.0052410244 
 6330000    280.23647   -1074.3028    5248.6528   -4506.1785   -1933.8455   -1838.5672   0.44696997 0.0024204633 0.0052419591 
 6332000    318.63366   -1073.7912     760.7878   -7091.7726   -151.84609   -1878.8288   0.44694863 0.0024198377 0.0052428591 
 6334000    284.65042   -1074.4734    1308.8008   -7720.0428    3202.5369   -915.99956   0.44695103 0.0024192137 0.0052421156 
 6336000    285.87801   -1074.4753    3531.1954   -8047.3207    3019.7344   -130.59977   0.44696423 0.0024183979 0.0052412202 
 6338000    267.30748   -1074.4272    3230.5504   -9077.5715    3511.1085   -4005.3979   0.44698142 0.0024192796 0.0052398316 
 6340000    292.80718   -1073.4625    5803.1353   -8744.0553   -1062.5734   -2155.0409   0.44700186 0.0024194559 0.0052399886 
 6342000    294.25466   -1074.5906    1851.0353   -6957.8289    2334.6731   -3635.8389   0.44702707   0.00241874 0.0052404045 
 6344000    286.76208   -1074.0401    6581.1599   -8407.6008    1132.8837   -454.51482   0.44699094 0.0024189815   0.00524094 
 6346000    284.90732    -1074.134    5105.6762   -12015.647   -771.14241    293.28935   0.44698713 0.0024203807 0.0052395718 
 6348000    316.78646   -1073.8994     173.1666   -7357.9507     754.4128    697.06037   0.44699784 0.0024201824 0.0052400969 
 6350000    322.80135   -1073.5919    4132.5937   -10028.046     648.3722    1608.7527   0.44700785 0.0024192916 0.0052402946 
 6352000    312.35669   -1074.5603   -760.23274   -8205.8512    619.63098    1045.4162   0.44704279 0.0024192771 0.0052405093 
 6354000    271.74182   -1073.1821    3190.2829   -7097.9551   -1019.6087   -738.22339   0.44703624 0.0024178818 0.0052429058 
 6356000    311.88358   -1074.8861   -889.01896   -8546.4838    3892.0147   -885.41264   0.44702062 0.0024168489 0.0052419011 
 6358000    325.97356   -1074.0594    3778.7569   -12484.894    217.89303    1951.2006   0.44701122 0.0024168271 0.0052405382 
 6360000    291.73369   -1074.5515   -2807.1653   -8376.5763    -4072.702   -3301.1463   0.44699639 0.0024172272 0.0052395763 
 6362000    295.31052   -1073.8313    -436.6988   -7792.6797    1328.5107    1692.0612   0.44700418 0.0024162804 0.0052384107 
 6364000    299.38814   -1072.8811    2341.1159   -9136.0724    849.38523   -3222.8699   0.44705318 0.0024153878 0.0052378479 
 6366000    323.10741   -1074.2882    -222.7965   -10053.804   -510.46939   -885.04617   0.44707892 0.0024154469 0.0052390548 
 6368000    285.94723   -1074.5533    1375.1418   -7946.8319    3821.0807   -2154.3048   0.44707316 0.0024157689 0.0052370952 
 6370000    259.05418    -1073.523    3222.1839    -7514.143   -1294.0674   -3674.4532   0.44707022  0.002415283  0.005237265 
 6372000    304.69455   -1074.0819    6016.3466    -8822.665    1407.3876    1208.8577    0.4470702  0.002415811 0.0052402147 
 6374000    292.90269   -1074.8097    3576.4342   -9170.1521   -860.02529   -1734.7241   0.44705963  0.002415279 0.0052392152 
 6376000    254.31421   -1073.7265    4361.6371   -7740.0489   -307.49188    1028.5053   0.44705925 0.0024144517  0.005238195 
 6378000    300.12302   -1073.5207    4308.3597   -8424.7818   -570.57395   -3554.2114   0.44708484  0.002413946 0.0052391074 
 6380000    268.73763   -1074.2597    1230.2146   -8905.6316   -1303.3782   -2099.4058   0.44714998 0.0024134499 0.0052395877 
 6382000    298.39476   -1073.8522    3507.1632   -9349.3384   -1787.2778   -980.59555   0.44717492 0.0024128195 0.0052393949 
 6384000      321.139   -1073.8744    1535.2337   -7546.7819   -725.20855   -298.12925   0.44719737 0.0024119916 0.0052400284 
 6386000     314.5664   -1074.5402    3313.6598   -10242.535   -1085.3263   -256.40406   0.44719342 0.0024117462 0.0052385087 
 6388000    291.92136    -1074.257    1997.9903   -9086.2765    1438.3309   -1215.4478   0.44717287 0.0024127164 0.0052374804 
 6390000    273.44879   -1074.4791    4189.3943   -6083.6866    855.92984   -1207.8602   0.44719388 0.0024121813 0.0052370752 
 6392000    332.84614   -1074.4119    892.69302   -8611.7059    717.46629   -1247.9734   0.44720089 0.0024117331 0.0052390882 
 6394000    316.26786   -1073.5094    4378.9183   -7278.0469    3376.4756    -2281.512   0.44722126  0.002412141 0.0052376432 
 6396000    280.06386   -1073.6048    4467.5162   -5959.6098   -1310.3297    2218.9045   0.44723898 0.0024117829 0.0052363579 
 6398000    308.80403   -1073.5735   -1023.1581   -9767.7136     479.6999    -3613.355   0.44724854 0.0024109158 0.0052347334 
 6400000    303.30415   -1074.4671    360.13925   -5424.8496    1534.3984   -2230.1219   0.44724874 0.0024104466  0.005234023 
 6402000    287.38533   -1073.7675   -291.20843   -8708.9362    4977.1193   -4091.1992   0.44724488  0.002410323  0.005238913 
 6404000    315.59908   -1074.4319    5063.1701   -8970.9275   -19.741576   -813.73722   0.44725863 0.0024131054 0.0052411013 
 6406000    309.90972   -1074.9547    1187.7265   -5864.3187   -1002.4318    1335.9924   0.44725188 0.0024146367 0.0052396592 
 6408000    327.72444   -1074.0839   -1657.1757   -8949.1538    2511.6055   -689.25916    0.4472549 0.0024153066 0.0052381703 
 6410000    286.55805   -1075.2091     1094.268   -7993.5626   -615.47939    211.38218   0.44723889  0.002414637 0.0052396405 
 6412000    324.07129   -1074.4251    5631.7687   -7374.1623    1496.4941   -361.09949   0.44725711 0.0024138702  0.005238179 
 6414000    309.01591   -1073.6667     1.782865   -11011.399   -657.82265    635.31963    0.4472778 0.0024138229 0.0052377198 
 6416000    293.79389   -1073.7942    3372.9015   -6070.6551   -1508.5783    4160.6886   0.44729552 0.0024133688 0.0052368314 
 6418000    312.26233    -1074.331    3056.6524   -7918.8125    908.37109   -4453.4301   0.44729594 0.0024127747 0.0052353719 
 6420000    300.59336   -1074.1222   -479.86335   -6583.2423   -58.731752   -268.85361   0.44731144 0.0024122948 0.0052344042 
 6422000    286.09645   -1074.8086   -3870.6884    -9006.796    2394.1825   -1675.8931   0.44732645  0.002411541 0.0052356809 
 6424000    305.80093    -1074.479     1248.594   -8066.8106   -2780.5896   -2645.6433   0.44732661 0.0024115608 0.0052349566 
 6426000    300.08618   -1074.3096    2007.5568   -6709.6392    4112.8359    857.46155   0.44729268 0.0024122778 0.0052374158 
 6428000    303.99263   -1074.1954    182.69992   -5947.2897     2129.036    -1279.152   0.44726505 0.0024181235 0.0052385664 
 6430000    307.89956   -1074.2201    6075.0552   -8814.2569    497.85717    618.93647   0.44724773 0.0024201605 0.0052373756 
 6432000    283.66642   -1073.7742    3294.5779   -6917.2676    470.56618    429.87423   0.44726163 0.0024186065 0.0052359145 
 6434000    282.57056    -1074.737    1594.4805   -11900.224    1645.4881   -2430.0575   0.44728763 0.0024181449 0.0052363052 
 6436000    312.01691   -1073.9282    6910.7112   -7130.3902   -243.24865   -2472.8946   0.44733441 0.0024177964 0.0052354002 
 6438000    313.32091   -1074.3894    1373.7461   -9504.6267    780.17299     -2321.59   0.44731976 0.0024172424 0.0052369478 
 6440000    271.75686   -1074.2067    2099.5692   -11110.688    2175.5474    716.22274   0.44730071 0.0024183495 0.0052372503 
 6442000    305.01375   -1074.0876    2465.9573   -6359.8625   -701.34213    163.26464   0.44728946 0.0024185372  0.005238788 
 6444000    301.07384   -1074.2234    1988.2013   -12001.865   -3196.3915    582.75645   0.44728603 0.0024178458 0.0052372591 
 6446000    301.92026   -1073.9647    1114.4827   -10004.587    -2042.229   -1240.3652   0.44730282 0.0024171803 0.0052358201 
 6448000    304.69901   -1074.3775     3746.273   -7591.9377   -1524.3531   -528.38273   0.44731653 0.0024165478  0.005234647 
 6450000     319.4351   -1074.6198    -436.8182   -7085.6717   -206.79777    1425.5135    0.4473265 0.0024160859 0.0052334329 
 6452000    305.63488   -1074.2685    3938.7732   -5302.1663   -1910.7248     2668.815   0.44734099 0.0024151661 0.0052325421 
 6454000    297.45967   -1074.2134    1691.8786   -6752.9389    2324.9889    -2525.448   0.44734498 0.0024182977 0.0052332237 
 6456000    281.94972   -1073.7832    1723.6399   -6846.0222   -210.84337   -697.13751   0.44733332 0.0024200352 0.0052364936 
 6458000    277.71098   -1074.8227    3526.8543    -7212.583    1513.8869      1509.04   0.44732358 0.0024200733  0.005234943 
 6460000    306.37722   -1074.7548    5995.7283   -5283.5471   -410.06548   -1682.1385   0.44732552 0.0024209958 0.0052335384 
 6462000    288.47054   -1074.4591    3670.1769   -11759.773   -630.90695    1737.4053   0.44733427 0.0024209285 0.0052329754 
 6464000    323.27854   -1074.7507    936.09534   -10895.791   -1882.7255   -3235.8339   0.44737578 0.0024202866 0.0052316189 
 6466000    275.81746   -1074.1129    4906.3136   -9341.8505   -1461.4219    -2329.923   0.44741256 0.0024197159 0.0052311605 
 6468000      276.091   -1074.0885    1003.2698   -7313.4219    1882.9565   -3935.2334   0.44740536 0.0024203677  0.005232751 
 6470000    328.20034   -1074.3964    4663.9386   -6778.6412    266.30592   -1768.0224   0.44737406 0.0024229305 0.0052327189 
 6472000    328.85555    -1074.609    5326.6311   -8452.5073    1851.4213    699.32818   0.44734038 0.0024242405 0.0052310797 
 6474000    293.01469   -1073.5958    2279.0297   -6971.5433    2667.7791   -2651.9129   0.44735153 0.0024240449 0.0052302261 
 6476000    285.09913   -1074.7728    963.86734   -7650.0529    1038.5154    1096.1136   0.44736266 0.0024244528 0.0052309834 
 6478000    299.31749   -1074.8728    2476.7955   -6799.9954   -141.96151    -1362.461   0.44741866 0.0024245326 0.0052306022 
 6480000    292.12607   -1074.2184    1749.2609    -8414.535   -1095.1961   -550.92297   0.44741488  0.002424149 0.0052299362 
 6482000    293.16114    -1073.571    1578.7254   -6800.8848    1243.5607   -1250.2631   0.44741466 0.0024242942 0.0052288064 
 6484000    304.59503   -1074.2938    598.73279   -8365.3279    1061.8553   -3580.1025   0.44740619  0.002430407 0.0052274916 
 6486000    296.16342   -1074.7762    1659.1489   -6018.9391    976.97234   -1663.2315   0.44740273 0.0024294141 0.0052285943 
 6488000    291.63536   -1074.0773    4426.9067   -7524.3739    302.55902   -1965.6661   0.44740101 0.0024291455 0.0052278494 
 6490000    278.56632   -1074.4575    2933.3588   -8757.4354     3031.466    249.88593   0.44740082 0.0024287824 0.0052264173 
 6492000    308.91313   -1073.6797    1665.2099   -6121.9833    3762.5932   -544.57952   0.44739466 0.0024299391 0.0052267812 
 6494000    284.96868   -1074.4871    5706.9177    -7369.728    407.04885   -2674.0961    0.4474006  0.002429086 0.0052256617 
 6496000     290.8394   -1074.4694    5648.6614   -7073.2388    515.84554    -800.6091   0.44743314 0.0024284956 0.0052274975 
 6498000    283.31811   -1074.7269    3909.6006   -8489.5838    569.69516    86.929162   0.44743625 0.0024293104 0.0052255881 
 6500000    280.99626   -1073.9354    2766.9219   -9277.0022   -28.404614   -217.32981    0.4474081 0.0024299001 0.0052253662 
 6502000    309.44124   -1073.8376    3015.6404   -9576.2225    1098.6469      2019.65   0.44741892  0.002429149 0.0052252205 
 6504000    308.20497   -1074.8089    3606.1667   -8796.2097   -531.19876   -6020.6432   0.44745105 0.0024293413 0.0052236102 
 6506000    290.80832   -1074.3277    1223.7544   -9599.4223    81.843615   -3231.9386   0.44745461 0.0024281267 0.0052233798 
 6508000     306.9242    -1073.867    1684.5845   -8590.0631   -2128.5776   -1237.1971   0.44748322 0.0024273353 0.0052230755 
 6510000    305.46318   -1073.9902    123.90489   -7016.7875    2881.4016   -950.22125   0.44747316 0.0024271835  0.005222241 
 6512000    281.06599   -1074.2123    1145.4643   -7889.8455   -966.66701    1082.6637   0.44744465 0.0024278245 0.0052214105 
 6514000    281.58275   -1074.9971    248.18315   -10224.425   -1239.5628   -2101.7725   0.44744341 0.0024301059 0.0052211271 
 6516000    300.85948   -1074.3981    2463.9331   -5210.7639   -864.51775     970.1807   0.44746415 0.0024295776 0.0052205205 
 6518000    259.34498   -1074.7042    2685.4041   -7142.4008   -1937.1352     400.3908   0.44749651 0.0024289707 0.0052227177 
 6520000    291.80984   -1073.5421    131.53059   -9664.5938    789.41939      -1846.7   0.44749958 0.0024282544 0.0052212998 
 6522000    308.72784   -1074.7596    312.33195   -7362.3717    1216.9438   -1179.4213   0.44748245  0.002428622 0.0052200839 
 6524000    319.61551   -1073.8511    1329.8673   -6845.4782   -2191.5632   -1051.6526   0.44747439 0.0024280621 0.0052207212 
 6526000    306.53438   -1074.5513    724.35011   -8787.3222    101.35467    752.80795   0.44747104 0.0024290006 0.0052228453 
 6528000    287.60692   -1074.5287    3677.8439    -8521.315   -285.52953   -557.99492   0.44750803 0.0024273004 0.0052210839 
 6530000    292.12437   -1073.6412    3721.1829   -6813.8515    773.98722    8.2289822   0.44749765 0.0024304664 0.0052208798 
 6532000    286.67013    -1074.146   -1178.0736   -10511.837   -2275.6889   -981.60077   0.44749347 0.0024298979 0.0052206433 
 6534000     270.4695   -1074.2524    5312.6777   -7610.9746   -3847.2665   -1208.0197   0.44750574 0.0024288387 0.0052193806 
 6536000    303.93203   -1075.3231   -1505.6173   -7350.1134    3924.5294   -689.25904   0.44751191 0.0024281051 0.0052194648 
 6538000     273.6687   -1074.3145    1332.4024   -5410.1788    922.03486    769.22663   0.44749997 0.0024291434 0.0052195574 
 6540000    309.74124   -1073.7649    2158.5941   -7361.6805    3287.2432    -1266.092   0.44749963 0.0024300551  0.005218981 
 6542000    332.73828   -1074.0825    3164.8072   -6512.1481     2436.067   -1323.6512   0.44748878 0.0024308275 0.0052184952 
 6544000    291.30124   -1073.8155   -1093.8612   -5311.7989    3308.5853   -1775.6017   0.44747373 0.0024303879 0.0052182356 
 6546000     311.2953   -1074.6816    393.32306    -6434.507   -630.22564   -4370.2538    0.4474908 0.0024300768 0.0052172539 
 6548000    311.99624   -1073.5522    582.00141   -6330.2289    685.69429   -1561.0288   0.44751235 0.0024292168 0.0052190194 
 6550000    296.56062   -1074.3823    2789.2839   -4896.6421    217.34794    1223.8817   0.44752769 0.0024284225 0.0052180643 
 6552000     277.1011   -1074.2955    507.47243   -5881.9603    2948.7789   -2253.9665   0.44752822 0.0024303269 0.0052164613 
 6554000    271.85877    -1074.028    7419.2089    -10525.49   -395.77051    1380.3991   0.44754144 0.0024300712 0.0052163925 
 6556000    311.57056   -1074.3004    5274.1548   -8951.1113   -289.08103   -3086.7206    0.4475679 0.0024293535  0.005218764 
 6558000    298.18655    -1073.839    728.85529   -7300.2997   -2406.7954   -625.37467   0.44758687 0.0024288748 0.0052190451 
 6560000    296.84526   -1073.9269    2387.4019   -6754.1999    1202.5092    72.921531   0.44757875 0.0024283674 0.0052175269 
 6562000     308.5289   -1073.8844    7060.5377   -7601.0606   -555.03652    2019.7491   0.44755813 0.0024292731 0.0052171563 
 6564000      293.767   -1074.3295    2824.0763   -8672.8914    2557.6898   -1680.9588   0.44755196  0.002428623 0.0052166024 
 6566000    331.15085   -1074.3363    3203.3828     -10217.2    2849.0202    136.03674   0.44756093 0.0024290049 0.0052155754 
 6568000    293.48657   -1074.3105    3359.7549   -8094.1204    997.19627    619.85317   0.44757155  0.002428218 0.0052175863 
 6570000    297.24431    -1075.123     299.2017   -7522.6583   -2854.0107   -2263.2775   0.44760408 0.0024279101 0.0052165498 
 6572000    291.23638   -1074.6172   -361.69687   -6501.8833   -320.44443   -2098.3277   0.44763352 0.0024268421 0.0052173789 
 6574000    308.18271   -1073.6369     2776.819   -4181.8032    -1025.316   -831.48036   0.44761466 0.0024263259 0.0052210839 
 6576000    301.34272   -1074.0635    1314.1182   -8121.6505   -1188.0758   -133.10725   0.44760064 0.0024255302 0.0052207552 
 6578000    308.50773   -1073.4635    1520.7768   -10555.185    1761.2729    657.18989   0.44761411 0.0024261517 0.0052209515 
 6580000    308.72838   -1074.1184    793.18779   -7976.7716    1316.8874    -723.1116   0.44761843 0.0024300805 0.0052195154 
 6582000    306.25676   -1074.3963    4079.5093   -8539.3915   -287.74217   -1064.1111   0.44761319 0.0024290709 0.0052190183 
 6584000    272.03022   -1074.4741    1911.2337   -7288.2177     3106.646   -818.37145   0.44761077 0.0024286362 0.0052175698 
 6586000    282.90237        -1074    1042.9396   -9648.2865   -2522.8694   -1426.0273   0.44759979  0.002429074 0.0052182298 
 6588000    286.12774   -1073.6939    4137.3747   -7045.9081    512.28743     334.9479   0.44759655 0.0024278752 0.0052176561 
 6590000    363.17193   -1074.5936    5550.4489   -11214.652   -767.94862    -1103.185   0.44762372 0.0024274919 0.0052160764 
 6592000    326.81748   -1074.5253   -3057.8662   -9658.7529    5847.7783    117.28729   0.44762601 0.0024266981 0.0052205541 
 6594000    280.62428   -1074.3381    3207.8857   -7883.3971    1503.8284   -1056.8108   0.44762648 0.0024265399 0.0052205743 
 6596000    290.08548    -1073.953      2948.44   -8998.3581    1491.2872   -99.475847    0.4476296 0.0024281556 0.0052193327 
 6598000    305.42417   -1073.9509    3260.2574   -8589.1836     423.5619    86.599799   0.44763391 0.0024275089 0.0052179312 
 6600000    294.30442   -1073.6786    1361.9196   -5254.7202    652.47436    1512.4989   0.44763471 0.0024269235 0.0052174268 
 6602000    304.55408   -1074.3097    1721.1098    -7678.368    2350.8522    2034.6216   0.44763668  0.002426363  0.005216681 
 6604000     319.6374   -1073.5964     918.1622   -9073.6149   -29.889407    -3889.288   0.44764411 0.0024257006 0.0052154238 
 6606000    287.59399   -1074.2281   -896.32904   -8040.1623   -1348.3709   -2718.9464   0.44762933 0.0024251054 0.0052171844 
 6608000    284.02131   -1073.6621   -3055.7217   -6742.7422    3503.4411   -1855.3539   0.44761485 0.0024257641 0.0052164134 
 6610000    308.74753   -1074.0433   -413.31138    -7242.621   -1608.7924    -4347.025   0.44760324 0.0024252749 0.0052162215 
 6612000    272.52153   -1074.6585    3474.2267   -7128.2868   -372.57349   -1571.7219   0.44762186 0.0024246464 0.0052154738 
 6614000    289.39272   -1074.1133    4963.2328    -7745.979    1047.2525   -2302.2084   0.44763822 0.0024240941 0.0052139841 
 6616000    337.23155   -1074.6805    1142.3191   -9624.0114    2264.7381   -993.22925   0.44763603 0.0024239064  0.005213699 
 6618000     301.7804   -1073.5719   -2684.3484   -6841.6763    1802.0652   -2303.5717   0.44763576 0.0024234224 0.0052143792 
 6620000    325.25393   -1074.4245    877.00198   -6942.7908    2369.2316   -1655.5034   0.44763568 0.0024227406 0.0052152305 
 6622000    324.58986   -1073.9622    5614.9993   -7372.2058    30.515107    1473.7732   0.44762588 0.0024225853 0.0052158956 
 6624000    283.23152   -1074.8246    2384.8659   -11287.621   -2378.0633   -1073.9232   0.44761381 0.0024219559 0.0052169815 
 6626000    281.66541   -1074.7999    5935.6579   -7451.5347    131.38525    -746.1382    0.4476306 0.0024215562 0.0052169672 
 6628000     292.0422   -1073.8763    5049.3728   -10622.524    2615.6076     3545.742   0.44761474   0.00242174 0.0052154046 
 6630000    275.20184   -1074.6706      4870.34   -7113.4127    3630.9703    1435.8893   0.44760828 0.0024213328 0.0052145657 
 6632000    294.36839   -1074.1683    782.50515   -7697.1119   -794.91938   -718.76576   0.44763328 0.0024208379 0.0052138904 
 6634000    271.03569   -1074.2652    4536.9522    -7196.647   -111.36961   -630.32738   0.44765154 0.0024202804 0.0052132553 
 6636000    261.41094   -1074.5019     537.2233   -7136.3173    842.75521   -1461.6241   0.44766627 0.0024194081 0.0052125474 
 6638000    278.89441   -1074.3523    3294.4657   -10808.847   -3492.1591     895.1843   0.44766717 0.0024193077 0.0052133469 
 6640000    288.70153    -1074.139    3186.9271   -7298.9938   -836.43819    4322.2091   0.44765168 0.0024187581 0.0052149805 
 6642000    277.82486   -1074.4617    7757.9889    -7246.094    212.15367     2405.701   0.44762931  0.002417929 0.0052151799 
 6644000    261.21125     -1074.23   -757.57591   -8211.6145    3642.0855    -150.1152   0.44762358 0.0024174431 0.0052141873 
 6646000    281.91362   -1074.4921    7952.4527   -9615.6078    2031.4362    2202.7104   0.44763074 0.0024181382 0.0052133812 
 6648000    299.54707   -1073.5558    822.94409   -10192.568    2008.0539   -2129.8387   0.44764053 0.0024173953 0.0052135375 
 6650000    346.53982   -1074.9629    4514.9969   -7952.2219   -527.95908    449.38192   0.44764187 0.0024170058 0.0052127472 
 6652000    274.66723   -1074.2049     4748.903   -6944.9803   -3212.3136   -1826.7264   0.44762175 0.0024169209 0.0052122351 
 6654000    279.70336   -1074.2445    16.539948   -10720.821    372.46008   -553.63504   0.44761807 0.0024164337 0.0052117233 
 6656000     285.8589   -1074.1702    2552.6236   -10372.996   -1169.9043   -204.64151   0.44765077 0.0024155493 0.0052117421 
 6658000    279.72032   -1074.3937     2410.449   -4713.7619   -700.71384   -1626.5359   0.44767599  0.002415199 0.0052121438 
 6660000    335.03671   -1074.0064    3689.7503   -9574.7779   -2391.7953    1747.3505   0.44769524  0.002415682 0.0052124972 
 6662000    307.26186   -1074.6206    736.97369    -8888.433    817.46102   -5193.0944   0.44772716 0.0024148139 0.0052130815 
 6664000    272.73028   -1074.4659     3257.018   -8577.7381   -1432.3166    164.30154    0.4477454 0.0024150189 0.0052130019 
 6666000    296.28399   -1074.0122    1804.1181   -7287.3255    2154.4796    434.44976   0.44771746 0.0024136297 0.0052121891 
 6668000    266.91764   -1075.0887    2031.7693   -8075.0371    3804.3812    45.479107   0.44770845  0.002412971 0.0052107759 
 6670000    306.07723   -1073.8365    5129.5339   -6187.6766    305.76179   -637.53397   0.44771431 0.0024124568 0.0052110695 
 6672000    292.91586   -1074.6861   -1416.4218   -6991.5481    5267.1268   -3425.5925   0.44768097 0.0024120781  0.005210664 
 6674000    294.85211   -1073.2352    235.12459   -8791.5724    748.83947   -1018.3349   0.44765857 0.0024148109 0.0052091877 
 6676000    278.58027   -1073.9234   -765.10803   -13475.159   -393.02574   -114.53035   0.44767624 0.0024139107 0.0052088561 
 6678000    256.99866   -1074.3306    1669.7363   -10153.635    -483.4878   -2052.4089   0.44771055 0.0024138493 0.0052081972 
 6680000     265.6103   -1074.1995    742.65054   -11454.953     1516.787    -1080.905   0.44772842 0.0024131417 0.0052075189 
 6682000    275.20555    -1073.794    2718.2001   -6614.9418   -405.76593   -2207.9017   0.44772952 0.0024124738 0.0052078262 
 6684000    282.92411   -1074.8203    4375.6434    -6627.603    682.03762    1178.8415   0.44774931 0.0024123939 0.0052064349 
 6686000    291.81989   -1074.5023    6741.1078   -4701.1639   -1717.8757   -751.55178   0.44775945   0.00241355 0.0052050797 
 6688000    265.36641   -1074.1302    1894.3083   -9027.4163    1189.2855   -2079.3083   0.44775993 0.0024135133 0.0052059028 
 6690000    295.93833   -1074.7737    423.49531   -6546.1068    326.28957    1456.2739   0.44775537 0.0024130193 0.0052107789 
 6692000    329.37129     -1074.25    4371.9926   -5982.8669   -1262.2515   -1690.3047    0.4477487 0.0024121434 0.0052105804 
 6694000    299.50309   -1074.3966    3650.1981   -10107.863    2442.4688    2117.8966   0.44775165 0.0024135632 0.0052091859 
 6696000    283.60209   -1073.6837    2022.4454    -7893.467    50.432658    861.56977   0.44775105 0.0024145329 0.0052077837 
 6698000     281.9315   -1074.0338    2742.7112   -10963.216   -1494.2558    -1333.794   0.44775561 0.0024137629 0.0052062689 
 6700000    316.02177   -1074.7599    2574.2178   -6320.3505    951.13423    968.20121   0.44775427 0.0024132933 0.0052065775 
 6702000    310.42067    -1073.165   -415.09166   -4431.8658    2266.3921   -1725.6618   0.44774011 0.0024123684 0.0052055933 
 6704000     334.0392   -1074.9695    3879.5716   -10260.086    1669.8626    587.99347   0.44770213 0.0024112953 0.0052041375 
 6706000     293.7538   -1073.8589   -1057.6665   -9684.7965    15.812797    1313.3092   0.44770709 0.0024105642 0.0052054434 
 6708000    314.95958   -1073.9735    4272.4825   -4928.0432   -2211.4549   -1210.4404   0.44773416 0.0024097054 0.0052059409 
 6710000    308.72136   -1074.4386    4836.7041   -9205.4785   -1507.1917    1906.5641   0.44773508 0.0024089904 0.0052045041 
 6712000    329.18462   -1073.5464    5328.8082   -5473.9983    2876.0538   -4325.2497   0.44774333  0.002414041 0.0052046871 
 6714000    305.83275   -1074.3463    3889.0046   -5760.2599   -3614.9346    -508.9235   0.44773913 0.0024129987 0.0052053687 
 6716000    277.08117   -1074.3026    4094.2424    -9881.794   -282.31808    1706.0286   0.44771419 0.0024123129 0.0052066284 
 6718000    321.52691   -1073.6283    5586.5642   -9889.9214    -2740.546    183.90183   0.44770531 0.0024119873 0.0052054406 
 6720000    285.84627   -1073.8709     5257.591   -6375.0693   -3328.1081   -206.10955   0.44774028 0.0024128555 0.0052052164 
 6722000    309.68595    -1075.237   -1706.9514    -9222.322    2014.1268    1368.2819   0.44774481 0.0024121184 0.0052034223 
 6724000    300.86206   -1074.4452    4557.3479   -6119.2089    1631.0471   -1655.2714   0.44772882 0.0024151357 0.0052034925 
 6726000     282.0172   -1074.4483     3451.352   -6093.2412   -132.32023   -1803.4613   0.44771343 0.0024176736 0.0052041904 
 6728000    281.52105   -1074.3351    1589.9087   -6908.9714    242.48781    -769.8252   0.44772393 0.0024171099 0.0052031841 
 6730000    321.46234   -1074.1509    3108.6395   -8818.2772     1996.896   -2877.4369   0.44770904 0.0024165344 0.0052021358 
 6732000    307.98687   -1074.1862    1901.3116   -7236.8336   -3044.6428   -1535.9269   0.44770527 0.0024158382 0.0052048473 
 6734000    295.27787   -1074.2489   -403.05757    -11578.67     371.3333   -361.89912   0.44771254  0.002415396 0.0052052095 
 6736000    279.03109   -1074.6671    602.07009   -10531.188    1156.2864    1143.4169   0.44772437 0.0024155028 0.0052038554 
 6738000    301.81994   -1074.4686    539.04261   -8005.1469   -887.90252    -1834.344   0.44775289 0.0024156287 0.0052025741 
 6740000      313.324   -1073.9098    3690.7878   -6912.1509   -1275.5478   -5307.1679   0.44775935 0.0024158888 0.0052054799 
 6742000    299.69427   -1074.2519   -1120.2589    -9140.375    1433.8008    1134.5021   0.44772503  0.002415208  0.005208228 
 6744000    288.67611   -1073.7718    -2227.167   -8282.8758    3530.0221   -2588.1751   0.44770942 0.0024148658 0.0052073849 
 6746000    259.64352   -1074.0999     4906.073   -8083.5845   -1145.0217   -1657.4508   0.44770801 0.0024150472 0.0052059208 
 6748000    264.16903   -1074.1629   -2049.0296    -6991.842    2909.2044   -2841.8517   0.44770629 0.0024151595 0.0052052474 
 6750000     308.7535   -1074.6162    2131.5007   -8762.1661    976.69535   -1179.5385   0.44772569 0.0024146635 0.0052072383 
 6752000    319.72698    -1073.686    3073.2639    -7350.455    205.36981    1570.9686   0.44775887 0.0024139553 0.0052066695 
 6754000    286.59245   -1074.7046     975.6906   -8379.2655     2371.547   -2724.7191   0.44777998 0.0024130878  0.005205908 
 6756000    282.90648   -1074.2849    4392.6705   -8527.8167    -2483.253    887.00606   0.44778219 0.0024132928 0.0052046616 
 6758000    320.25106   -1074.2596     1428.035   -8241.2489    34.111754   -3961.3092   0.44774147 0.0024137735 0.0052040452 
 6760000     309.4305   -1075.3276    3118.0512   -6964.2136    2001.3617    157.18776   0.44770258 0.0024167597 0.0052036424 
 6762000    301.13635   -1074.2101    4939.7721   -5979.7619   -490.05392    1404.1336   0.44769551 0.0024198079 0.0052018931 
 6764000     305.5409   -1073.7276    2801.8639    -6828.215    562.86367    -2417.031   0.44768892 0.0024193656 0.0052011304 
 6766000    295.35789   -1074.3402    -569.9195    -8280.836     118.9141    599.56589   0.44770104 0.0024186754 0.0052020988 
 6768000    303.11524   -1074.8592    1690.9195   -8199.1683    -1464.478   -3851.0444   0.44772079 0.0024179187 0.0052039397 
 6770000    276.52433   -1073.8291    4156.9444   -5089.5515    916.93346    2440.7559   0.44771474 0.0024179593 0.0052031911 
 6772000    299.62556   -1074.2669     416.5684   -8875.5223    1370.6311   -1948.4241   0.44769783 0.0024184455 0.0052019495 
 6774000    323.09188   -1073.9133     1868.638   -9283.0667    1102.6427   -1057.6062   0.44769409 0.0024210287 0.0052055142 
 6776000    309.98746   -1074.2892    866.97841   -11224.089   -898.37465    343.37845   0.44770451 0.0024204725  0.005205866 
 6778000    291.05411   -1073.0524    7317.9342   -9893.1733    -510.3753   -1073.2587   0.44772367 0.0024198514 0.0052056007 
 6780000    305.06883   -1073.7662    3402.5109   -5186.1118    2037.1302    2402.9428   0.44773815 0.0024197466 0.0052065392 
 6782000     297.9766     -1074.24    4686.7574   -6575.7834   -180.68111   -3657.5935   0.44773227 0.0024199417 0.0052058143 
 6784000    284.73684   -1074.0572    895.16533   -6325.7198     1510.191   -1831.5867   0.44773179 0.0024191179 0.0052056701 
 6786000    305.30253    -1074.342    1459.1116   -9316.4799    3219.8992   -1841.9371   0.44775257  0.002418756 0.0052049843 
 6788000    296.81638   -1073.5662    2314.0809   -7500.0174   -748.36317    889.68311   0.44774121 0.0024198568 0.0052059626 
 6790000    252.30201   -1073.5579    1005.7077   -8489.6881    1443.0284    902.71777   0.44772715  0.002418546 0.0052057963 
 6792000     279.3647   -1074.6271    2024.4041   -9047.2755    -1464.393   -222.35945   0.44771846 0.0024199218 0.0052073189 
 6794000    274.96704   -1074.0845    6408.6932    -6340.928   -572.99031    910.25385   0.44773197 0.0024186348   0.00520773 
 6796000    302.96014   -1074.5441   -1092.0834   -5056.0377    129.19711   -2163.8508   0.44774658 0.0024181979 0.0052075442 
 6798000    324.37926    -1074.345    1334.5858   -7214.5496    3912.9567    507.44002   0.44777342 0.0024182519 0.0052063845 
 6800000    317.99065    -1074.392    5197.1967   -4636.1003     356.9294   -1112.7105   0.44776894 0.0024201832 0.0052048909 
 6802000      284.762   -1074.0434    2864.5843   -5886.2679    232.31293   -136.32949   0.44775054 0.0024201439 0.0052035336 
 6804000    290.57982   -1074.7078    1846.0457   -9270.3084    932.36465    1153.1673   0.44773452 0.0024207185 0.0052023406 
 6806000    277.74102   -1073.2594     2540.712   -10726.582    2935.8843   -981.93403   0.44773595 0.0024198529 0.0052029358 
 6808000    305.95448   -1073.9308     3789.987   -8754.3581    786.60825   -1868.6174   0.44774598 0.0024191414 0.0052007325 
 6810000    328.25741    -1074.138   -225.04379     -7449.16   -2604.5769   -620.56814   0.44774693 0.0024187058 0.0052000264 
 6812000    281.90727   -1073.8434    5164.6603   -3723.3935    298.12187   -2252.3084   0.44773769 0.0024186701 0.0052000163 
 6814000    286.17239   -1073.6762   -471.05462   -6951.2473    559.24541   -4044.3743   0.44770816 0.0024181404 0.0052008243 
 6816000    303.10058   -1074.3093    1988.6473   -5649.8734    418.34133   -2738.6273     0.447684 0.0024184021 0.0052013823 
 6818000      306.139   -1074.3729   -748.05662   -9733.1532    623.96315   -1997.2632   0.44768937 0.0024190586 0.0052015274 
 6820000     274.3339   -1074.2271    635.83077   -5966.0484   -1222.4333   -2007.5138    0.4476784 0.0024188043 0.0051995899 
 6822000    314.09577   -1073.8752    5638.9149   -7256.5095    640.12702   -1144.9046   0.44770113 0.0024180143 0.0051998584 
 6824000    279.12457   -1074.1938    5626.2019   -10518.728   -3606.0805   -2132.9415   0.44772783 0.0024169916 0.0052001277 
 6826000    324.37896   -1074.0265    2114.8433    -6316.283    519.84896    1752.2079   0.44773855 0.0024163107 0.0051992651 
 6828000    314.75072   -1073.8743    1480.2641   -11812.448    2444.1072   -1476.3091   0.44773532 0.0024157635 0.0051981164 
 6830000    289.94538   -1073.8671    2969.3416   -7595.6557   -1505.5942    1399.5977   0.44774521 0.0024162056 0.0052013763 
 6832000    326.07027   -1074.2517    3719.5146   -9279.4611    755.11026    376.37636   0.44775575 0.0024151517 0.0052020626 
 6834000    279.07264   -1074.1039   -2148.0378   -10199.416   -1619.3212   -2794.7655   0.44776664 0.0024150593 0.0052003587 
 6836000    274.11777   -1073.7276    709.57383    -8189.436    1949.5165   -1847.5127   0.44778344 0.0024142581 0.0051992338 
 6838000     278.8648   -1074.2181   -507.54677   -11580.377    419.11828   -2767.2583   0.44775285 0.0024132422 0.0052010907 
 6840000    257.51001   -1074.0632     2706.827   -8051.4852    888.49242   -1613.1949   0.44776921  0.002413055 0.0052030146 
 6842000    302.26596   -1074.1842    2156.3576   -7327.6264   -441.13667    3246.5769   0.44779012 0.0024123021 0.0052022742 
 6844000    315.49476   -1074.0024    538.15614   -7576.3057    1371.0076   -191.50134   0.44778972 0.0024129323 0.0052014348 
 6846000    310.42281   -1074.6811    3978.6325   -8304.3218    214.78214   -160.41743   0.44778294 0.0024127556 0.0052014769 
 6848000    276.94845   -1074.0011    2501.5705   -4537.0387   -2898.7348   -3041.4698   0.44779234   0.00241217 0.0052034916 
 6850000    277.13139   -1074.7326    2559.5385   -10018.604    2046.2873   -2654.1225   0.44780212 0.0024122435 0.0052023262 
 6852000    273.07127   -1074.3178    1370.1516   -5131.9349    3160.1138   -1684.4461   0.44781288 0.0024107406 0.0052036088 
 6854000    314.20885   -1074.4988    1615.4471   -9371.4313    309.74292   -1592.4974   0.44783433 0.0024108692 0.0052031483 
 6856000    289.67323    -1074.157    2173.9061   -5794.1023    2163.5644    1875.1543   0.44782117 0.0024130415  0.005204039 
 6858000    290.78327   -1073.9329    3885.8758   -4921.2259    867.21047    528.39753   0.44779185 0.0024135265 0.0052029097 
 6860000    314.02862   -1074.8828    1755.4286   -8286.9464   -1973.1686   -2031.9294   0.44778871 0.0024153278 0.0052013662 
 6862000    272.57959   -1074.1833    6220.7521   -8464.0526    -444.9123       1273.5   0.44781744 0.0024149431 0.0052015703 
 6864000     291.8847   -1074.3341    4504.5165   -6997.9063     286.2703   -1835.5607   0.44783811 0.0024139373 0.0052014604 
 6866000     298.5301     -1074.31    2518.7636   -9162.0035   -2065.9681    1136.0901   0.44786142 0.0024133137 0.0052000816 
 6868000    265.28465   -1074.1439    970.36091   -4260.4165     470.3139   -2605.7625   0.44783837 0.0024130294 0.0051989961 
 6870000    294.49744   -1074.5525    2935.8961   -9033.7524    1753.7695   -1209.0849   0.44782014 0.0024138065 0.0051990963 
 6872000      294.525    -1074.111    1453.3552   -9025.4016    589.72861   -3500.0977   0.44781913   0.00241372 0.0052016178 
 6874000    333.42249   -1074.6087    3164.3423   -10267.551   -1771.3014   -2296.5842   0.44783996 0.0024133125 0.0052028236 
 6876000     327.4211   -1074.7503     2154.953    -9171.152   -335.27384    -683.2138   0.44785197 0.0024123815 0.0052041774 
 6878000    287.60077   -1073.9749    2360.6101   -7172.3641     2572.617   -2130.5905   0.44786939 0.0024128779 0.0052034368 
 6880000    295.89753   -1074.1875    2009.7998   -10662.388    82.211392    165.39915   0.44786205 0.0024138306 0.0052017698 
 6882000    299.15195   -1074.7708    4473.4213   -7190.7981   -835.41059   -361.85842   0.44783511 0.0024138881 0.0052012294 
 6884000    297.33826   -1074.8376    2528.8243   -5689.6958     -363.361   -1021.4609   0.44785254 0.0024140362 0.0052008599 
 6886000    332.02507   -1074.1451    1818.6519   -8959.3803   -467.13771   -796.88981    0.4478607 0.0024132471 0.0052015583 
 6888000     292.4368   -1073.6703    1702.9867   -5375.7378    395.78749   -1359.6157   0.44785589 0.0024135764 0.0052018735 
 6890000    306.61321   -1074.5616    1208.7519   -9998.1998    1455.9197   -1374.4454   0.44784281 0.0024133844 0.0052005938 
 6892000    309.53425   -1074.4463    4757.3901    -8630.064   -3267.5033   -114.49817   0.44785393 0.0024131241 0.0052012308 
 6894000      318.564   -1074.9038    4140.1885    -8528.709    -1051.949   -435.28243    0.4478709 0.0024123508 0.0051993734 
 6896000    264.34003   -1074.1388    3551.7329   -8557.2446    2125.8348   -3552.7377   0.44789944 0.0024116755 0.0051992051 
 6898000    302.73461   -1073.5998    2572.1198   -9609.9792    155.44923    3319.0482   0.44791562 0.0024111665 0.0051991476 
 6900000    265.28659   -1074.2324    1652.6625   -9801.5868    23.480269    758.54911   0.44790878 0.0024108081 0.0051996709 
 6902000     281.2893   -1073.8926    -4244.414   -10823.193      988.078    -2476.255   0.44788468  0.002410573 0.0051999375 
 6904000    295.73377   -1073.9769    2515.4312   -6951.8885   -1816.0795   -472.11836   0.44788968 0.0024106886 0.0051983563 
 6906000    302.12432   -1074.6197    5135.1463   -6844.5778   -695.66754   -1257.8103   0.44787789 0.0024091884 0.0051974998 
 6908000    302.12256   -1074.3536    1493.5214    -7396.893    2801.5681   -12.908388   0.44788314 0.0024098179 0.0051968859 
 6910000    313.58469   -1074.0595   -624.03774   -9544.8999    1845.3659   -1773.2435   0.44788368 0.0024091325 0.0051958132 
 6912000    303.49633   -1074.7764    243.13427   -5141.8077    1880.0983   -3687.3073   0.44789238 0.0024095549  0.005197119 
 6914000    304.36849   -1074.1256    5365.1389   -7397.1764     -1883.69   -264.21407   0.44789525 0.0024100795 0.0051970576 
 6916000    304.83153   -1074.1156    1296.7545   -6438.1929    3191.3923   -3579.0611   0.44791402 0.0024090734 0.0051965556 
 6918000    328.50452   -1074.7108    3251.9118   -6264.4242   -2081.2088    608.36968    0.4479301 0.0024088054 0.0051964618 
 6920000    285.84039   -1073.3933    3244.3953   -10312.443    -1439.249   -3282.6492   0.44791883 0.0024076308 0.0051959746 
 6922000       295.83   -1074.4905    3556.4852   -8498.6507   -892.40309   -1650.4814   0.44792688 0.0024086845 0.0051973763 
 6924000    313.64776   -1074.1204    3431.4971   -7344.5828   -2909.4057    -4937.398    0.4479211 0.0024081928 0.0051969871 
 6926000     309.3426   -1074.5925    2239.0308   -6804.9163    1213.2762    688.19012   0.44793172 0.0024072306 0.0051963659 
 6928000    264.41557   -1074.3439    4245.7612   -6744.4028    2396.6884   -1027.8713   0.44793997 0.0024083206 0.0051950546 
 6930000    262.11435    -1073.454   -2948.7704   -4476.4406    2306.3039    -2131.521   0.44791996 0.0024082174 0.0051935615 
 6932000    332.71824   -1074.2146    4353.7001   -9175.2918   -1640.4972   -2687.3452   0.44790606 0.0024084337 0.0051938696 
 6934000     320.2866    -1074.642      1294.56   -7591.0327    1808.2378   -5052.2642   0.44793252 0.0024077098 0.0051925528 
 6936000     315.7446   -1074.1275    1044.8917   -7195.7069    1214.7433   -1761.6997   0.44795421  0.002407317 0.0051964241 
 6938000    318.99449   -1074.6972    1273.5446   -7191.1121    3835.8372    141.44104   0.44799347  0.002407357 0.0051948437 
 6940000    331.03699   -1073.4865    4636.5853   -5960.1672    2857.1097   -1467.8593   0.44798679 0.0024076462  0.005194616 
 6942000    302.75706   -1073.6324    4373.9294   -8590.2541   -205.24863    2084.3884   0.44797383   0.00240709  0.005192503 
 6944000    291.15521   -1074.4869    4840.0904   -7495.7473    2176.7188    -1506.644   0.44796691 0.0024062865 0.0051938695 
 6946000     287.4507   -1074.0219    2065.5227   -8836.0409   -696.41082   -1007.6614   0.44797292 0.0024056435 0.0051960351 
 6948000    322.99755   -1074.4454   -2289.6424   -8627.5003   -160.78579    2195.1475   0.44799866  0.002405102 0.0051958432 
 6950000    295.32562   -1074.0675    1715.9683    -7392.866    325.42527    -1524.716   0.44799833 0.0024048958 0.0051948656 
 6952000    332.91943   -1074.1351    4624.2297   -6495.7036    404.04579     554.4306   0.44799783 0.0024043333 0.0051942196 
 6954000    296.86191   -1074.0419    3471.4779   -8604.8446    1332.9734     2488.576   0.44799822 0.0024037119 0.0051944706 
 6956000    311.62027    -1073.894    5086.4627   -7047.6386    1558.9444   -858.56804   0.44799815 0.0024038833 0.0051929359 
 6958000     290.5317   -1073.9689    2024.1177   -7425.2873   -1778.8551   -1525.8203   0.44798011  0.002404854 0.0051922067 
 6960000    274.35668   -1073.5032    5012.0717   -7388.4321    120.19713   -3254.9652   0.44799756 0.0024041305 0.0051925414 
 6962000    272.48922   -1073.9193    1748.3913   -7964.4424   -1302.9632    1604.4706   0.44801908 0.0024036436 0.0051924516 
 6964000    283.16817   -1074.5265    5104.6932   -11279.645   -1683.3408    -2080.702    0.4480492   0.00240309 0.0051911169 
 6966000    285.50142   -1074.8724    1070.6634   -6921.9059    427.01911    2297.9306   0.44804909 0.0024052676 0.0051900586 
 6968000    298.43386   -1074.2625    3713.8617   -9203.2322   -1549.9229    362.23627   0.44804708 0.0024056443 0.0051901475 
 6970000    330.51406   -1074.2039    3207.9082   -8420.9087   -2955.4461   -2382.0082   0.44803891 0.0024064035 0.0051900369 
 6972000    348.88666   -1074.3624    2928.3721   -6573.7843    346.09141   -1462.5506   0.44804688 0.0024054766 0.0051889043 
 6974000    300.63089   -1074.1536    898.12555   -8688.0302    3431.5077   -3817.0982   0.44805053 0.0024049414 0.0051876934 
 6976000    304.04565   -1074.7395    3928.6164    -9750.184    1106.2637   -1611.0826   0.44805954 0.0024043127 0.0051886973 
 6978000    301.09672   -1073.8696    571.98924   -7573.5855    1315.1831   -505.48905    0.4480725 0.0024037853 0.0051887231 
 6980000    288.96217   -1074.0614    1666.8948   -11163.582    69.838546   -1149.9161   0.44808944 0.0024037667 0.0051876235 
 6982000    299.02595   -1074.7621   -533.01467   -7352.4658    461.68367   -736.61412   0.44807011  0.002405966 0.0051882029 
 6984000    295.43882   -1073.5419    1511.0759   -8426.8422    1487.9995   -810.03977   0.44804767 0.0024059315 0.0051881643 
 6986000    308.21402    -1074.099   -2864.2042   -10447.551    2696.7714   -3906.1186   0.44802747 0.0024080237 0.0051863607 
 6988000    306.30127   -1074.5722   -2056.0747   -6406.6437   -313.61122   -819.47723   0.44801354 0.0024092445 0.0051861798 
 6990000    304.79345   -1073.9366    422.86013   -11014.967   -214.90735   -639.10429   0.44801625 0.0024085917 0.0051864048 
 6992000     346.5953   -1074.3336    3577.3702   -7271.3142    1533.4849   -1665.2242   0.44803179 0.0024079014 0.0051913082 
 6994000    342.62449   -1074.0188    6637.0126   -11169.546    1285.8245    2140.4595   0.44804739 0.0024073586 0.0051908643 
 6996000    284.35795   -1074.2685    3309.4281   -7385.8445     412.2438    -2153.417   0.44807777 0.0024074778 0.0051895036 
 6998000    273.64062    -1074.718    1929.1537   -6921.5454   -72.324599   -1587.5142   0.44805859 0.0024088701 0.0051893478 
 7000000    333.90587   -1074.4542      1585.91   -5782.1289    978.61694   -1407.8759   0.44803818  0.002408065 0.0051870686 
 7002000    277.24947   -1074.3433    3146.4599   -8679.7576    964.92174    106.21146   0.44804043 0.0024076139 0.0051874847 
 7004000    287.14329   -1073.8708    835.38182   -6849.8765    427.84073   -434.30925   0.44804628 0.0024069986  0.005187025 
 7006000    289.77378    -1074.076    1016.0992   -9383.2887   -217.09605   -4198.7534   0.44805155 0.0024065294 0.0051874015 
 7008000    335.08792    -1074.169   -565.75779   -11290.004   -510.24339   -1098.9378   0.44807646 0.0024059043 0.0051871887 
 7010000    287.95199   -1074.4716   -842.15447   -6368.1062    1559.3921   -2302.0506   0.44806939 0.0024050739 0.0051856633 
 7012000     345.6228   -1074.5383   -236.78915   -7260.3337    1267.0942    628.32637   0.44805147 0.0024062497 0.0051846749 
 7014000    262.87335   -1074.6989    926.98411   -9823.0048   -1286.0686   -3373.7654   0.44803998 0.0024080795 0.0051830184 
 7016000    268.40872   -1074.4558    1147.8247   -8842.3187   -554.69614   -2776.3086   0.44803357 0.0024079435  0.005184714 
 7018000    290.33105    -1074.166    5702.1131   -10038.577   -329.78027   -675.04325   0.44802682 0.0024077207 0.0051896432 
 7020000    302.45564   -1073.6742    6623.9708   -8159.7158    2270.7125     2537.411   0.44805814 0.0024070232 0.0051890447 
 7022000    313.12425   -1074.6168    2217.1335    -6308.362    484.78302   -2621.6579   0.44806675 0.0024062556 0.0051877357 
 7024000    288.85761   -1074.9338    2295.4074   -9030.5358     151.5296   -1452.1452   0.44807953 0.0024060738  0.005188456 
 7026000    292.39627   -1074.1972    1860.5902   -8950.3702    1675.5563   -1898.5856   0.44808121 0.0024053314 0.0051881947 
 7028000    299.08694   -1073.9372    1018.9823   -5923.2942     2335.651   -1803.8349   0.44807286 0.0024065485  0.005186803 
 7030000    299.17524   -1074.2971    1173.8561   -10447.816   -1414.2484    438.17058   0.44806773 0.0024067937  0.005187702 
 7032000    303.32245   -1073.9676   -567.78225   -9777.6335    208.64326    969.01626   0.44806608 0.0024071449 0.0051890308 
 7034000    266.99575   -1074.7293   -680.57992   -7359.3094   -8.3218476   -2957.6265   0.44806083 0.0024071332 0.0051872431 
 7036000    306.32121   -1073.9432   -2295.6615   -9911.0213   -438.59563   -4138.6672   0.44806306 0.0024068201 0.0051857723 
 7038000    305.49523   -1074.0095    -422.4266   -7152.0543    922.93669   -6421.2152   0.44807445 0.0024069346 0.0051846536 
 7040000    330.18772   -1074.2933    391.19963   -9300.5787    705.38309    804.82621   0.44806158 0.0024064897 0.0051852502 
 7042000    278.57332   -1074.2961    3359.3168   -9179.2227    1578.4875   -1429.2991   0.44808649 0.0024069498 0.0051864817 
 7044000    296.94192   -1074.0342   -1715.7391   -8308.6539   -127.62679    1337.6345   0.44808206 0.0024077061 0.0051869684 
 7046000    312.15797   -1073.3359    3187.7482   -7832.8775    2823.5739    1340.7538   0.44807004 0.0024073843 0.0051857559 
 7048000    278.74695   -1074.1206   -875.52505   -6561.9633    2335.7432    889.79124   0.44805408 0.0024075378 0.0051852265 
 7050000    311.75316   -1074.0713    4902.5209   -8868.5023   -1820.0688    1221.1885   0.44805938 0.0024080435 0.0051841304 
 7052000    305.39354   -1074.3039    1185.8773    -7587.472    88.863763   -3119.6457   0.44806702 0.0024071806 0.0051827075 
 7054000    319.70594    -1073.603    2275.2133   -7602.1662    1975.3644   -343.58381   0.44808167 0.0024063978 0.0051845704 
 7056000    318.10919   -1074.7075    1872.8298   -9441.8078    36.246283   -1936.3743   0.44811058 0.0024058279 0.0051869522 
 7058000    294.81412   -1074.5127    2672.3507   -6072.7516    455.67578   -1398.0542   0.44809889 0.0024066483 0.0051854077 
 7060000    302.65312   -1073.9849    2826.8824    -8466.489    4426.0431    2445.7183   0.44809965 0.0024083007 0.0051840586 
 7062000    315.27228   -1074.4745    3922.8359   -8235.2487    528.56649   -1428.8001   0.44808853 0.0024111083 0.0051825572 
 7064000    292.78144   -1074.5683    508.87419   -6160.8096    1684.6781     -1464.93   0.44808809 0.0024110188 0.0051838634 
 7066000    284.95687   -1074.6543    4411.6269    -8959.871    302.33087    851.74052   0.44810533  0.002409961 0.0051841327 
 7068000     316.7001   -1074.0361    658.29412    -6015.243    1315.3665   -4746.4068   0.44811432 0.0024093991 0.0051839216 
 7070000    314.95622   -1073.3552    1076.5747   -7624.1416      3009.17    99.528923      0.44813 0.0024085639 0.0051844285 
 7072000    306.92093   -1074.2144    1264.4867   -8741.3864   -1645.5958   -1281.1738   0.44813675 0.0024079686 0.0051833596 
 7074000    291.27534   -1074.0074     2574.545   -6852.1842    1774.2262   -2412.4413   0.44816899 0.0024071024 0.0051839607 
 7076000    285.03378   -1074.5846   -321.71454   -10794.939   -906.67973   -993.97677   0.44819146 0.0024067394  0.005183142 
 7078000    301.18078   -1074.2247   -1186.2332   -5549.3953    1593.0811    -3289.767   0.44819602 0.0024070129 0.0051848855 
 7080000    268.21747   -1073.2028    818.66676   -5729.0363    1493.9233   -1174.9067   0.44817407 0.0024101452 0.0051842234 
 7082000    284.06627   -1074.3519    2223.8483   -6687.2123   -1350.2689   -3226.9367    0.4481436 0.0024106797 0.0051827145 
 7084000    277.65209   -1074.1202    4603.5177   -8052.9283    2264.3469    2.4429765   0.44812516 0.0024103926 0.0051826035 
 7086000    290.68612   -1074.7631    2707.4384   -6130.2213    2169.1384   -3516.2118   0.44813951 0.0024101102 0.0051828556 
 7088000     277.3927   -1074.6358    5040.7948   -9973.1397    634.92217     551.2057   0.44817021 0.0024096244  0.005183541 
 7090000    327.94616    -1074.266    442.57631   -8775.8225    2373.7636    392.81802    0.4481699 0.0024089548  0.005181643 
 7092000    300.17978   -1074.9297    1014.0873   -8078.0464    776.99699   -749.63635   0.44816553  0.002410131 0.0051820011 
 7094000    274.51935    -1074.248     3970.648   -7542.6526   -775.03136   -1574.8321   0.44817068 0.0024085895 0.0051814257 
 7096000    313.32137   -1073.7726    2021.4678   -8279.2372   -527.74954    315.41245   0.44817985 0.0024079777 0.0051802866 
 7098000    301.61611   -1073.8227   -1039.9285    -6386.251   -825.51431   -1258.0206   0.44817018 0.0024075504 0.0051797318 
 7100000    277.53569   -1074.5983    2002.8536   -7543.0015    2017.8253   -2160.0027   0.44818045 0.0024069521 0.0051791291 
 7102000    296.81105   -1074.1873    2182.4041   -8038.0143   -1082.5318    282.11366   0.44819022 0.0024065746 0.0051791831 
 7104000    263.74384   -1074.0132    3120.7004   -8470.4064    3679.2337    1077.7717   0.44821196 0.0024061126 0.0051785705 
 7106000     325.3391   -1074.1687    3105.4913   -7827.7137    934.73046   -896.86824   0.44822095 0.0024080008 0.0051776034 
 7108000    268.79434   -1074.5159     5711.154   -9113.8986   -1934.2149      1041.28   0.44821718  0.002408119 0.0051762697 
 7110000     285.4412   -1074.0347    2091.0559   -6516.1323   -832.90702   -3982.3884   0.44822097 0.0024074895 0.0051780716 
 7112000    278.50021   -1074.1447    1162.7055   -12289.621    202.08291     3762.085   0.44821758 0.0024083757 0.0051783817 
 7114000    301.85751   -1073.6392    3396.2408   -8193.2902    329.27253   -2904.0859   0.44821942 0.0024074024 0.0051769452 
 7116000     319.5721   -1074.4155    789.28853   -9535.9587    2056.6163   -1187.2686   0.44823927 0.0024065485 0.0051765617 
 7118000    306.74451   -1073.8207    477.95389     -7439.15    2547.7637    1089.6126   0.44826108 0.0024074821  0.005175207 
 7120000    288.02295   -1074.3625    2563.0401   -7044.6647    1049.2866    170.71268   0.44824795 0.0024078704 0.0051743099 
 7122000    325.57473   -1074.3308     2912.131   -9327.3147   -1496.2878   -1373.9156   0.44823209 0.0024078364 0.0051759822 
 7124000    284.59545    -1074.024    2691.6771   -11312.718   -3007.7776   -1451.3726   0.44822142 0.0024072381 0.0051769625 
 7126000    304.73225   -1074.8737    3299.1088   -7845.5342    -167.3055    1635.0224   0.44822175 0.0024064045 0.0051754172 
 7128000    321.79028   -1074.1694    165.09257   -9045.7459    1117.2505   -933.51234   0.44825219 0.0024056841 0.0051757619 
 7130000    288.19533   -1074.0544    6064.4595   -7794.1021   -1454.2811    516.46738   0.44829002 0.0024052697 0.0051761258 
 7132000    274.53861   -1074.0149      2265.19   -4853.8505   -133.39013   -986.05354   0.44831445 0.0024044019  0.005175473 
 7134000    271.55439   -1074.7853    6275.6401   -6075.8424    957.63435   -1844.0851   0.44832164 0.0024036555 0.0051740381 
 7136000    274.81279   -1074.1059    5871.4127   -4490.3859    1536.6168   -391.31538   0.44828985  0.002405874 0.0051738037 
 7138000     305.7625    -1074.073    4136.4538    -10788.91    1024.7367    59.280655   0.44825118 0.0024059081 0.0051730706 
 7140000    294.14326   -1074.8615    3216.8915   -9781.4488    3635.6105   -413.06906   0.44822372 0.0024078837 0.0051734076 
 7142000    289.81701   -1074.3407    4375.9953   -6743.7815   -291.98235    2380.5802   0.44822505 0.0024082328 0.0051726019 
 7144000    328.29355   -1074.1594    5524.6944   -8527.1863    371.09235   -373.18121    0.4482218 0.0024082244 0.0051722961 
 7146000    269.89311   -1074.2961    516.44386   -6969.5108    2610.6407   -1251.1538   0.44825127 0.0024074742 0.0051708868 
 7148000    325.72822   -1074.4258    6530.7891   -6418.4049   -3373.6552    1363.2014   0.44826971 0.0024066347 0.0051695358 
 7150000    294.52598   -1074.2835    285.08302   -10079.442    1201.8094   -3553.1212   0.44827083 0.0024060031 0.0051686793 
 7152000    313.58388   -1074.0854    2397.0062   -10935.165   -1265.8006   -1308.7632    0.4482719 0.0024055295 0.0051698709 
 7154000    262.03863   -1074.3603    2545.8236   -6906.0051    1372.8796   -1344.3211   0.44828784 0.0024048469 0.0051704834 
 7156000    291.49261   -1074.0958   -107.70816    -5718.282    242.51564   -1884.0446   0.44826198  0.002409069 0.0051700708 
 7158000    276.95582   -1074.2492    1628.9487   -9003.3523   -540.07606    636.60524   0.44824235  0.002409698 0.0051696224 
 7160000    303.00114   -1074.5394    2089.0123   -5672.5842      2490.62   -437.13478   0.44826031 0.0024099194 0.0051682828 
 7162000    284.18721   -1074.5655    2780.7917   -10390.881   -792.60934   -1768.6023   0.44825743 0.0024092383  0.005167956 
 7164000    311.98967    -1073.664     2714.132   -8177.3236   -1736.2803   -650.37262   0.44827471 0.0024091504 0.0051709822 
 7166000      289.493   -1073.7877   -1163.0447    -8337.183    1252.3328   -2291.0456   0.44829856 0.0024083115 0.0051717384 
 7168000    274.92255   -1073.8914    3341.9972   -7257.7434   -868.03369   -762.62278   0.44830416 0.0024074588 0.0051708276 
 7170000    290.48955   -1074.1952    173.79125   -7591.1788    1875.7711   -4344.9661   0.44831069 0.0024074316 0.0051704607 
 7172000    315.07838   -1074.1036    2544.0139   -6008.1505    437.34603    -4209.312   0.44830495 0.0024071089 0.0051702587 
 7174000    293.12005   -1074.6368    607.46889   -7296.2808    -1805.954   -1064.1578   0.44830003 0.0024064912 0.0051687079 
 7176000    271.35904   -1074.2624    1835.7406   -10332.831   -17.984895   -110.14098   0.44829593 0.0024067987 0.0051676224 
 7178000    315.47842    -1073.668    3745.1964   -6436.3282    2333.9037   -3392.5561   0.44827375  0.002407229 0.0051690605 
 7180000    303.83062   -1074.4419     2213.151   -5414.4088   -871.46866   -725.47892   0.44825103 0.0024078649 0.0051671903 
 7182000    301.39583   -1074.3633     1624.747   -9118.9151    2734.1163    1288.7847   0.44823134 0.0024076828 0.0051671968 
 7184000     318.4066   -1074.0626    2255.2032   -9259.5192    3288.0343     2614.111     0.448236 0.0024071464 0.0051663914 
 7186000    290.13539   -1074.9368    3877.0992   -10352.879    1331.5717    1089.7896   0.44823217 0.0024075669 0.0051652031 
 7188000    260.47937   -1074.6254    3825.8635   -10413.437    1234.4108     101.2221   0.44825211 0.0024068837 0.0051640195 
 7190000    296.97458   -1074.6127     582.4002   -6483.4912   -3041.5607   -3180.1154   0.44826428 0.0024062771 0.0051656314 
 7192000    290.90044   -1073.7614    1015.9549   -8752.1133   -270.32152   -993.51638   0.44826328 0.0024061771 0.0051654404 
 7194000    269.61077   -1073.4287    305.11062   -7492.7392   -1041.4923   -2122.2493   0.44825232 0.0024055185 0.0051674159 
 7196000    297.23579   -1073.8853    644.54483   -6579.4233    472.82564    -921.2052   0.44826575 0.0024053035 0.0051701509 
 7198000    286.73209   -1073.9217    4177.2123   -7458.4061   -2598.0623   -3023.4353   0.44827677 0.0024045126 0.0051688949 
 7200000    290.28565   -1074.2355     3492.988   -7879.3267    2392.9123   -845.59724   0.44829814 0.0024046756 0.0051687373 
 7202000     288.5524   -1073.8723    1087.2469   -7605.0092    3410.0847   -2360.6847   0.44829795 0.0024044016 0.0051689894 
 7204000    290.86908   -1074.7714    3388.1574   -7683.5522    1825.3216   -1470.2503   0.44829963 0.0024032667 0.0051692791 
 7206000    320.19306   -1074.6262    5394.5014     -7260.32   -1239.8046   -1516.7594   0.44830349 0.0024033747 0.0051694694 
 7208000    296.03262   -1074.4268    5357.1999    -5414.908    1787.1725   -3615.9864   0.44829085 0.0024032755 0.0051686376 
 7210000    319.94457   -1074.6882   -853.93848   -8946.3896     1076.912   -1193.0897   0.44827732 0.0024028081 0.0051690888 
 7212000    316.16634   -1074.5821    1820.1117   -9423.4967    1201.3324   -1906.4282   0.44828273  0.002402923 0.0051684663 
 7214000    294.86669   -1074.3299    3066.2055   -6684.2198   -567.02513   -204.86361   0.44832176 0.0024026203 0.0051702361 
 7216000    301.84875   -1074.1534   -977.33179   -8678.0046     242.4669   -2365.3031   0.44832996 0.0024018296  0.005168608 
 7218000     254.7656   -1073.5216   -1726.7861   -9095.9205    551.75299    951.08094    0.4483425 0.0024022212 0.0051674208 
 7220000    305.19344    -1074.286   -36.994537    -9528.408   -2093.5336   -822.39058   0.44834239  0.002401583  0.005167317 
 7222000    274.91201    -1074.354    3310.3976    -8619.499   -2410.1406    -3204.622   0.44835789 0.0024012073 0.0051702412 
 7224000    298.69439   -1074.9411    1100.3193   -6905.2313     388.9645    902.09178    0.4483692 0.0024006982 0.0051696913 
 7226000    271.56676   -1074.0306    3036.4686   -8919.0155   -1216.0909   -692.49239   0.44836073 0.0024003318 0.0051683901 
 7228000    291.89896   -1074.0668    1473.5269    -10062.07    1111.4498   -812.11124   0.44833914 0.0024015036 0.0051681622 
 7230000    301.86475    -1074.538    5151.1752   -10060.494    211.28904   -1395.4846   0.44836057 0.0024006872 0.0051672572 
 7232000    303.20079   -1074.3876    3755.4916   -8617.4283   -1314.8115   -1698.3314   0.44838319 0.0024000597 0.0051671242 
 7234000     297.6918   -1074.2195    2651.6865   -6997.2308   -579.57287    -1823.854   0.44837217 0.0023995106 0.0051660968 
 7236000    308.11566   -1074.2226    507.42895    -10063.78    3359.2153   -1130.6577   0.44835236 0.0024004206 0.0051669737 
 7238000    299.78138    -1074.672    2345.7892   -5066.7855    3680.7414   -1915.6583   0.44833681    0.0024004 0.0051666286 
 7240000    283.38264    -1074.057     5595.142   -7327.7013  -0.88436033    -402.9051   0.44834119 0.0024002159 0.0051655459 
 7242000    327.03356   -1074.1907    784.92043   -8806.6131    521.03904   -668.49127   0.44836604 0.0023994527 0.0051654791 
 7244000     320.9669   -1073.7762    3939.6111   -6804.5021   -949.86611   -36.086896   0.44840025 0.0023987849 0.0051649579 
 7246000    282.42276   -1074.7107    3399.1021    -4261.355    420.98057   -1182.2129   0.44839424 0.0023982842 0.0051643935 
 7248000    295.72161    -1074.132    3460.2211   -9406.7621    3981.4466   -2068.6176    0.4483782 0.0023990206 0.0051642954 
 7250000    287.21211   -1073.7906    867.70455   -6852.7054   -2059.7151   -256.73958   0.44838315 0.0023984312 0.0051636298 
 7252000    319.08329   -1075.2989   -375.30577   -8100.0819    884.53679    76.639636   0.44836277 0.0023983998 0.0051681927 
 7254000    305.03506   -1073.6435    1758.5892   -8822.7141    665.44546    383.31257   0.44838477   0.00239784 0.0051668702 
 7256000    264.43465   -1074.1058    1689.7397   -6890.3753   -2294.0506    2259.8134   0.44841301 0.0023987884 0.0051656372 
 7258000    293.39871   -1074.4306    1866.7712   -7381.3587    3281.5291    2253.8583   0.44840698 0.0023992281   0.00516429 
 7260000    272.84648   -1074.1496    4743.7158   -7188.6562   -478.39517    163.53582   0.44840804 0.0024002439 0.0051660216 
 7262000    314.32994   -1074.7687    3787.0265   -9120.5403   -111.06822   -2052.4084   0.44840312 0.0024002915  0.005168402 
 7264000    305.92862   -1073.6442    5093.3885   -6407.6227    1922.6185    1785.7116   0.44841162 0.0023997619 0.0051674426 
 7266000     307.6984   -1073.7874     867.2235   -10796.292   -1024.5263   -1669.6326   0.44841898 0.0023990029 0.0051663922 
 7268000    287.60812   -1073.7304     7453.628   -9558.3632     198.5279    128.87636   0.44841645 0.0023987181 0.0051649551 
 7270000    319.39587   -1074.4086     2781.977   -6858.8758   -458.56389   -592.15824   0.44840939 0.0023990471 0.0051653076 
 7272000    332.72504   -1073.5384    6631.0696   -6848.5947    101.28586   -2181.2294   0.44842207 0.0023984569 0.0051644315 
 7274000    304.24092   -1074.5935    4260.6894   -7531.3148   -848.16123    2540.5255   0.44841906 0.0023989771 0.0051645069 
 7276000    305.21271   -1073.5744    2184.3793   -8466.1258    1093.0638   -2313.7532    0.4484233 0.0023977392 0.0051637938 
 7278000    309.95426   -1074.3154    1685.8048   -8732.6506    100.65129    2761.7775   0.44841943 0.0023989236 0.0051630475 
 7280000    253.89036    -1074.617    1092.9277    -8332.099    2705.7562   -1500.1175   0.44842115 0.0023995349 0.0051613428 
 7282000    308.70283   -1074.0702   -616.07158   -8371.9834    116.80345    2109.5358   0.44845762 0.0023991811 0.0051612526 
 7284000    312.85934   -1074.9328    4744.0484   -7178.7332   -2709.4669   -332.94312   0.44849384 0.0023988147 0.0051606265 
 7286000    334.53656   -1074.5279    1018.4045    -6255.029    124.81438    -972.2414   0.44848882  0.002400414 0.0051607831 
 7288000    305.31277   -1074.4009    2256.3877   -5430.0616    1133.4487    293.92134   0.44845562 0.0024027237 0.0051596806 
 7290000    251.93434    -1074.714     4170.524   -9431.3502   -929.11245   -3362.5117   0.44843413 0.0024056544 0.0051580865 
 7292000     299.8282   -1073.9477   -401.03138   -8684.9699   -1412.6799    761.77083   0.44843067 0.0024053444 0.0051572779 
 7294000    301.83228   -1074.0761     2591.625   -9662.8448    1079.4985   -1592.8838   0.44842479 0.0024048586   0.00515709 
 7296000    298.09016   -1073.6422     531.6698   -10081.136    2512.8471    2325.8207   0.44844442 0.0024042505 0.0051571985 
 7298000    283.27542   -1073.8939     3341.434   -5579.4021    14.450364    407.90017   0.44845446 0.0024034378 0.0051556281 
 7300000    286.52609   -1073.4094    2712.6196   -10520.627   -2367.3518    1207.2121   0.44843693 0.0024029685 0.0051557477 
 7302000    304.97853   -1074.5667    2198.1666   -7845.3601   -1094.2948   -127.83688   0.44843784 0.0024045226 0.0051556369 
 7304000    304.01878   -1073.6456     3835.293   -9668.5499    2283.2803   -3312.0552   0.44843275 0.0024044295 0.0051565972 
 7306000     312.3918   -1074.0174   -807.83919   -7393.9911    1477.3413    -651.5071   0.44842022 0.0024057848 0.0051553402 
 7308000    260.71877   -1073.7837     3376.048    -9820.188   -3677.9438   -1371.8952   0.44842958 0.0024062069 0.0051539039 
 7310000    323.50025   -1073.9532    3244.7093   -6289.2094   -908.56782   -1183.2027   0.44842748 0.0024058395  0.005153967 
 7312000    336.59847   -1074.6811   -636.34101   -9706.6826    310.37846   -3653.7308   0.44842604 0.0024055398 0.0051550875 
 7314000    332.39264   -1073.9604    -2017.601   -5666.3437    3471.2325   -1202.6229   0.44844496 0.0024055173 0.0051563312 
 7316000    316.83528    -1074.505    740.42549   -9339.7033   -1462.3321    1573.5917   0.44843818 0.0024063654  0.005155037 
 7318000    334.89086   -1074.5122   -4090.4924   -4910.8513    3124.3394    422.68012   0.44843202 0.0024091403 0.0051536929 
 7320000    319.70569   -1074.3244    191.50754   -9184.3379    2977.5335     248.3783   0.44841191 0.0024096719 0.0051535919 
 7322000    303.86806   -1073.9717    3336.5821   -8615.6673    904.80178    223.42448   0.44841456 0.0024091159 0.0051542303 
 7324000    305.01303   -1073.9639    1049.5785   -6770.9329      2815.46   -508.06629   0.44840761 0.0024081961 0.0051529044 
 7326000    303.90532   -1075.0146     2922.444   -11816.537   -770.53739     1222.945   0.44843951 0.0024078187 0.0051524915 
 7328000    306.23157   -1074.1992     1792.634   -9285.9361   -561.85769   -3143.8248   0.44846747 0.0024073238 0.0051524674 
 7330000    266.46418   -1074.4315    554.71384   -8166.3022    -980.5891   -888.56654   0.44846527 0.0024070971 0.0051518473 
 7332000    277.14197   -1073.8976    1373.1599   -8757.1136    2551.9572    2008.3051   0.44845042 0.0024106103 0.0051512736 
 7334000    294.78108   -1074.2545    4208.4336   -6185.4368   -74.435015   -854.64495   0.44843932 0.0024106814 0.0051502991 
 7336000     315.6676   -1075.0169    3661.2195     -8151.98    3214.9881   -467.86705   0.44843589 0.0024101053 0.0051504258 
 7338000    309.66173   -1073.5841    1123.2579   -10348.527    2723.3036     620.7978   0.44846583  0.002409422 0.0051509173 
 7340000    313.75121   -1074.4875    2308.9914   -6253.0177    67.957863   -365.20821   0.44851369 0.0024085814 0.0051498895 
 7342000    308.28129   -1073.6491   -2130.8852    -13428.58    484.37948    1706.4707   0.44850409 0.0024083821 0.0051500156 
 7344000    304.02585   -1074.7093     2763.054   -5469.8942    1172.7102    289.77733   0.44849127 0.0024099451 0.0051498162 
 7346000     295.9049   -1074.1824    3669.5537   -9450.1195   -4909.7105   -2530.2075    0.4484645  0.002413892 0.0051487664 
 7348000    340.91349   -1073.6067    4675.6448   -11209.359     227.2131    1527.1247   0.44846291 0.0024134433 0.0051478296 
 7350000    295.31759   -1073.6256    1066.2401    -4618.331    4106.6868   -1980.4703   0.44848937 0.0024126547 0.0051471412 
 7352000    298.63214   -1074.7334    1413.5163   -6443.7719   -810.03211   -1465.7172   0.44851609 0.0024118971 0.0051486459 
 7354000    282.45164   -1074.3402    3762.7359   -7451.2098     1281.824   -745.58822   0.44851687 0.0024112323 0.0051497032 
 7356000    305.93078   -1074.1571    216.11329   -9578.6064    134.85266   -114.66438   0.44850899 0.0024126572 0.0051479972 
 7358000    327.02044   -1074.1922    3929.4991   -10929.031    247.54341    436.49408   0.44850414 0.0024124933 0.0051472607 
 7360000    267.46257    -1074.679    3969.9629   -8244.4262    1805.6971   -3742.5729   0.44850772 0.0024125286 0.0051474316 
 7362000    226.08639   -1074.3929    3092.8862   -10401.355   -1129.3964    1805.7963   0.44851685 0.0024123101 0.0051470914 
 7364000    285.68817   -1073.9518    1314.6252   -7359.8728    2190.3746   -649.08157   0.44851712 0.0024116857 0.0051473245 
 7366000    276.83148   -1074.2836    4026.7817   -10823.411    686.97642     -2621.46   0.44850484  0.002412251 0.0051493441 
 7368000     282.7907   -1074.2092   -607.51447   -7632.2259   -2478.8009    1391.2286   0.44851775 0.0024119661 0.0051490364 
 7370000     277.9811   -1073.8987     2233.428   -8793.7369    262.89078    1375.8881   0.44854484 0.0024113447 0.0051476585 
 7372000    287.43826   -1074.1628    3498.7003   -8688.1768   -1232.1392   -1281.3014    0.4485858 0.0024108965 0.0051485103 
 7374000    289.81155   -1075.0768    5706.2055   -7016.0657    2670.8313    4373.5612   0.44860131 0.0024108392 0.0051463252 
 7376000    283.45821   -1073.9756    2643.3321   -1859.3328    1702.7424    -1086.212   0.44857811 0.0024104964 0.0051460227 
 7378000    303.77496    -1074.318    3708.1622    -9848.303     108.5714    1112.2061   0.44853238 0.0024104908 0.0051456143 
 7380000    334.28429    -1074.298    927.10165    -7616.693   -1460.1328    384.47812   0.44851585 0.0024121866 0.0051473112 
 7382000    305.07736    -1073.106    5403.3681   -5977.6938    2792.3754    -990.8378   0.44852006 0.0024110279 0.0051466974 
 7384000     283.6546   -1074.9029    2475.8923   -4197.1337   -1152.3179   -1240.2006   0.44852814 0.0024117567 0.0051454584 
 7386000    303.19688   -1074.2399      2018.77   -8829.8002    2037.8694   -2231.0613   0.44852479 0.0024109599 0.0051455224 
 7388000    302.71114   -1074.8635    -1639.518   -7043.6405    1966.9067    -36.71671   0.44851645 0.0024110426 0.0051442606 
 7390000    291.11328   -1073.5797    3271.9479    -8417.725   -2218.2097    -2604.278   0.44850375 0.0024105725 0.0051442794 
 7392000    289.11842   -1075.1592    1028.7324   -10353.348    1931.6421   -490.78869   0.44850166 0.0024099335 0.0051446114 
 7394000    290.25089   -1074.0273    7208.3007   -8877.8973   -1203.8209     1936.214   0.44850148 0.0024110565 0.0051433707 
 7396000     277.3454   -1074.1741    5062.4798   -6972.8545    -721.0842   -2113.9495   0.44849669 0.0024107279 0.0051420222 
 7398000    279.04939   -1074.2247     4331.984   -7859.8859   -466.49092   -963.72584   0.44849943 0.0024121022 0.0051411589 
 7400000    283.36814   -1074.8619    3247.7413    -5894.845    410.78156   -1263.0309    0.4485064 0.0024114684 0.0051447927 
 7402000      314.261   -1074.0782    1961.8772   -10975.171   -3996.0241   -401.65608   0.44851826 0.0024106379 0.0051442784 
 7404000    320.47919   -1073.9531    1622.3836   -7714.1353    2435.7074   -310.76843   0.44853178 0.0024106412 0.0051435531 
 7406000    310.78677   -1074.5418    2425.9498   -7320.1541    557.71992   -391.30787   0.44852191 0.0024099015 0.0051436084 
 7408000    322.50444   -1074.3696    2663.6497   -8317.2806    736.28429   -607.70341    0.4485176 0.0024097723  0.005142236 
 7410000    320.75501   -1073.8704    1038.3003   -7975.5417    1707.5608    2654.4176   0.44854764 0.0024091849 0.0051417652 
 7412000    290.74226   -1074.2371     505.1751   -6862.5836    1551.9813   -526.90074   0.44855917 0.0024089916 0.0051419949 
 7414000      295.728   -1074.1825    3211.3538   -8257.5768   -1420.4125    3351.4722   0.44854432 0.0024097941  0.005141671 
 7416000    324.67075   -1074.4863   -226.35431   -8447.4323    2471.7184    928.30546   0.44851955 0.0024110462  0.005140159 
 7418000    314.62986   -1073.2547    1801.1327   -10321.046    -1378.898   -517.49874   0.44850319 0.0024131831 0.0051398728 
 7420000    299.91548   -1074.8663    938.63624   -7659.5349    3932.1253    1507.4581   0.44851611 0.0024116922  0.005142398 
 7422000    269.70388    -1074.482    2844.3842   -8665.9441   -1900.9137   -2918.1253   0.44851808 0.0024110751 0.0051425011 
 7424000    292.75843   -1074.5008   -1487.3006   -8645.7108    2078.5259   -1352.3097   0.44851202 0.0024107517 0.0051448544 
 7426000    314.43548   -1073.5165    4878.2918   -7373.9942    2968.9375   -1835.6938   0.44851697 0.0024108434 0.0051458048 
 7428000    319.57728   -1074.5608     2347.116   -7567.3113   -457.97971    2671.4273   0.44853144  0.002412863  0.005144739 
 7430000    309.92934   -1073.8416    3462.5892   -8762.2101    3381.1465   -206.71864   0.44853475 0.0024119657 0.0051436839 
 7432000    287.30582   -1074.6657    4931.3234   -9309.5527   -977.62156   -2483.0494   0.44854762 0.0024119986 0.0051450308 
 7434000    291.43161   -1074.1982    1816.9843   -7815.8672   -282.68131    1034.2872   0.44855921 0.0024122092 0.0051459485 
 7436000    305.33908   -1073.9705    2564.6574   -8672.2824   -997.11525    2120.1297   0.44854754 0.0024111375 0.0051453007 
 7438000     302.3549   -1074.3895   -1021.1035   -2557.9027    -389.1664   -2255.6487   0.44853096 0.0024104242 0.0051438927 
 7440000    266.90602   -1073.9227    2165.2987   -9174.4591   -446.96712   -2152.0999   0.44851914 0.0024100472 0.0051458435 
 7442000    313.63775   -1074.3788    1297.0688   -9007.6521   -1016.8947    -460.4995   0.44851903 0.0024098662 0.0051453752 
 7444000    339.03687   -1074.4587    4257.0813   -8997.4268   -2580.6525    1051.5884     0.448527 0.0024101556 0.0051442729 
 7446000    323.11956   -1074.1492    8439.0871   -9770.3128   -2654.5698   -693.12841   0.44853931 0.0024100901  0.005144393 
 7448000    305.51422   -1074.2615    2143.3268    -8404.721    2153.6445   -667.95776   0.44855166 0.0024097419 0.0051449599 
 7450000    284.55037   -1074.4085     3647.703    -7769.014    1725.6309    876.07859   0.44856006 0.0024090856 0.0051469676 
 7452000     286.5397   -1074.1957    3822.8131    -6508.922    639.91857   -1892.3758   0.44856836 0.0024100193 0.0051461634 
 7454000    282.38723   -1074.8647    441.76854   -5857.7839   -209.78796    -3384.828   0.44858264 0.0024087639 0.0051448935 
 7456000    261.03787   -1074.7373    1136.6696   -9088.6451    3438.9515   -2269.5458   0.44858874 0.0024088129  0.005145724 
 7458000    324.60937   -1074.5359   -1847.5418   -5721.4831    1374.1976    689.51276    0.4485725 0.0024110594 0.0051462427 
 7460000     308.7335   -1074.4575    5169.0772   -8665.5891    1371.4807    372.37334   0.44855984 0.0024108771  0.005144904 
 7462000    306.70437   -1075.0454     364.4509   -7579.9167   -1042.6603   -440.90971   0.44857824 0.0024108272 0.0051438588 
 7464000     268.8999   -1074.0753   -166.36918   -8395.9348    1820.5268   -4218.4701   0.44859472  0.002409202 0.0051468708 
 7466000    308.65791   -1074.9444    634.56133   -7077.4616    2908.5278    830.71701   0.44859178 0.0024082316 0.0051510904 
 7468000     291.0645   -1074.2274    3190.8988   -9538.0779    2034.1385    1671.7837   0.44859067 0.0024083405 0.0051509545 
 7470000    267.35166   -1074.0287    1445.5404   -9816.3998    919.08172   -442.03123   0.44858699 0.0024091744 0.0051493919 
 7472000    283.43424   -1074.8023    959.33284   -11733.734   -457.91071    885.35545   0.44858362 0.0024105105 0.0051491216 
 7474000    311.61767    -1073.867    1562.3321   -6557.8349    1682.4604   -3057.1678   0.44859268 0.0024096766 0.0051490962 
 7476000     295.1709   -1074.6919    2603.8054   -8214.4277    2716.3003    1660.9955   0.44859923 0.0024089832 0.0051486947 
 7478000    315.10803   -1073.6719    2610.5642   -8698.4294   -1068.0883    172.59258   0.44859789 0.0024085268 0.0051487551 
 7480000    321.65729   -1074.5797    3436.9026    -6207.052    2635.3102   -476.06907   0.44859122 0.0024086235 0.0051473379 
 7482000     312.1171   -1074.3088    6077.6072   -10731.692   -1993.6182   -3259.1518   0.44857696 0.0024092665 0.0051477425 
 7484000    328.07279   -1074.5819    1277.3218   -7814.5093    4514.2724   -696.52788     0.448575 0.0024101983 0.0051481228 
 7486000    286.28371   -1074.6543    279.17766   -6612.5331    1779.0489   -5136.5063   0.44860216 0.0024100123 0.0051477481 
 7488000    318.54674   -1074.2491    1960.4056   -9888.1767    4531.3689    357.35608   0.44862641   0.00240978 0.0051467709 
 7490000    298.60324   -1074.1034     1587.302   -4227.1461     3737.694    720.48747   0.44861496 0.0024086238  0.005147235 
 7492000    270.16473    -1074.427    2335.7069    -9584.624   -1419.6359    55.713534   0.44861369 0.0024082203 0.0051461616 
 7494000    297.99608    -1073.952   -1462.3209    -6740.319    4698.1877    619.94062   0.44860457 0.0024086154 0.0051448405 
 7496000    312.58075   -1074.2402      3679.92   -4463.6862   -89.147581   -277.12831   0.44861076 0.0024101115  0.005144962 
 7498000    320.24521    -1074.813    4169.0332   -9097.7243     613.3165    821.56558   0.44860521 0.0024094826 0.0051435414 
 7500000    282.31178   -1074.4155    5107.1736   -5065.2242   -1369.4935   -2857.2089    0.4486045 0.0024092769 0.0051439221 
 7502000    280.35075   -1073.9856    4877.0985   -5867.3112     3161.033     1580.033   0.44859997 0.0024092903 0.0051433131 
 7504000    251.44829   -1074.4902    4917.1111   -8183.9399   -2997.6696   -517.31069   0.44862059 0.0024087298 0.0051423768 
 7506000    326.65574   -1074.2614    234.47268   -8261.3859    2465.9811   -2306.5645   0.44862995 0.0024079823 0.0051426478 
 7508000    298.69297   -1075.0451    3567.8393   -8504.4768   -1139.3023    1542.5538   0.44865336 0.0024074703 0.0051438342 
 7510000    273.41172   -1074.1356    2416.4862   -10073.823   -3400.0357   -1668.1951   0.44867323  0.002407112 0.0051425447 
 7512000    286.75712    -1074.565    2188.8601   -9395.9309   -268.82048   -3909.8378   0.44867908 0.0024067829 0.0051416361 
 7514000    300.51767   -1073.9629    1452.8742   -6000.0709   -391.53063   -1844.7621    0.4486605 0.0024074207 0.0051449042 
 7516000    294.57123   -1074.7084    2709.9142   -6923.2116    1477.8628   -4242.0448   0.44863513 0.0024068663 0.0051460341 
 7518000    302.22805   -1074.0816    2412.2048   -6546.3439    2774.4747    4323.2532   0.44860479 0.0024061706 0.0051483041 
 7520000    306.06177   -1074.6325    4257.6855   -10826.783   -804.64985   -1679.0133   0.44862157 0.0024057054 0.0051471309 
 7522000    295.28822    -1074.052    3066.9445   -7384.9124   -3976.2492    1033.1972   0.44864519 0.0024050779 0.0051467729 
 7524000    265.30816    -1074.343    3822.8957   -8023.1317   -1592.6397   -4115.9802   0.44867181 0.0024046233 0.0051472125 
 7526000    319.51018    -1073.941   -1369.0044   -8780.5152   -106.02257   -63.388099   0.44869747 0.0024040883 0.0051468858 
 7528000    281.01058   -1073.9276    2770.6278   -6945.3756    5420.8993   -3760.4952   0.44866043 0.0024067168 0.0051461519 
 7530000    310.25071   -1074.0388   -797.28555   -8030.3904    806.50863    191.44228   0.44863358 0.0024091651 0.0051451092 
 7532000    285.80375   -1074.5216   -673.00979    -6834.033    2832.0632    1249.4261    0.4486206 0.0024087617  0.005144913 
 7534000    315.96353   -1073.9909    2597.7283   -7085.9076   -1846.9031   -1422.0261   0.44861822 0.0024085222  0.005144647 
 7536000    275.32783   -1074.1494    2719.0422   -11156.708    1235.3999    2473.7095    0.4486293 0.0024076577 0.0051458319 
 7538000    294.35876   -1075.0463    3749.4457   -6941.3245   -749.66005   -2150.4834   0.44865937  0.002407335 0.0051443272 
 7540000    287.92578   -1074.7589    4110.5466    -10400.98    2967.7037   -249.96278   0.44867679 0.0024076837 0.0051432438 
 7542000    304.55815   -1074.4197     3524.594   -7780.5735    2933.0987     921.6746   0.44865268 0.0024076594 0.0051422545 
 7544000    281.35324   -1074.1076    5116.3887    -6651.947    1252.7002   -601.92951   0.44864673 0.0024089266  0.005142512 
 7546000    298.41493   -1074.1715    2961.0724   -6947.3929    1886.7245   -1642.2094   0.44863906 0.0024079791 0.0051422294 
 7548000    285.19951   -1074.3303    4957.3573   -9176.5425    1605.7773   -979.36447   0.44865459 0.0024077555 0.0051414205 
 7550000    253.13285   -1073.6237     910.1728   -11207.031    662.87487    1329.4367   0.44867386 0.0024072127 0.0051430722 
 7552000    292.59885   -1074.4545    2700.2277   -7094.2761   -1036.8358    1114.6952   0.44868881 0.0024067584 0.0051419143 
 7554000    324.43372   -1074.4968    1212.1319   -6601.6031    622.55786     511.6937    0.4486753 0.0024085691 0.0051407778 
 7556000     259.3813    -1073.971   -1544.4444   -6372.4049    2579.8637   -4038.4349   0.44868297 0.0024099739  0.005139422 
 7558000    287.03115   -1073.9347   -3448.9829   -6426.4778    1760.7306   -189.01026   0.44868339 0.0024102432 0.0051414255 
 7560000    286.78238   -1074.7587    3019.8996   -7945.9197   -73.583071   -1359.6582   0.44868268 0.0024093836 0.0051411237 
 7562000    301.99813   -1074.2701    812.33657   -1519.1088    1856.4849   -665.93603   0.44867926 0.0024088407 0.0051412852 
 7564000    309.80021   -1073.9911    4038.1855   -5683.2625    3138.6331    1211.7643   0.44866779  0.002409418 0.0051416444 
 7566000    283.31477    -1074.199    1975.3765   -7206.7092   -1654.6172   -400.44808   0.44865838 0.0024111774 0.0051403279 
 7568000    289.39364   -1074.8986    6757.2579   -10842.769    1253.5599    1255.5994   0.44865974 0.0024109913 0.0051394343 
 7570000    269.88504   -1073.6431     5143.617   -5831.9981   -1407.3674    663.68682   0.44866527 0.0024114524 0.0051391642 
 7572000    282.20226    -1074.412    3473.1604   -6875.4627     1257.604   -224.58662    0.4486644 0.0024107319 0.0051388273 
 7574000     294.2245   -1074.6001     1004.941   -9986.7257   -98.652926   -350.65284   0.44865992 0.0024101246 0.0051381727 
 7576000    306.31367    -1074.028    3613.0616   -3761.1756    986.14589   -1945.0436   0.44866238 0.0024100337 0.0051384242 
 7578000    283.69847   -1074.3097   -1552.2216   -7299.0865    4307.7119   -317.97243   0.44864805 0.0024095306 0.0051391123 
 7580000    301.34197   -1074.3971    177.53503   -7743.9612    1109.8868   -1387.2074   0.44866396 0.0024105117 0.0051379246 
 7582000    281.95118    -1073.867   -101.43802   -6325.3946    1697.1175   -375.07121   0.44866741  0.002410786 0.0051373264 
 7584000    282.28692   -1073.7297   -2672.9811    -9348.042    2137.5811   -2678.8662    0.4486584 0.0024101129 0.0051362716 
 7586000    296.82878    -1074.557    2812.6986   -9824.4229   -1256.3251   -95.497586   0.44868125 0.0024095036 0.0051357218 
 7588000    328.20965   -1074.2691     4382.628   -6543.0224    857.96212   -74.657493   0.44868059 0.0024090307 0.0051349152 
 7590000    326.23441   -1073.9614    3683.3573   -9208.0495    1142.5777     133.2176   0.44866968 0.0024091541 0.0051335982 
 7592000    281.65121   -1074.2464    3437.4553   -6794.8334    2856.9022   -1150.7203   0.44865426 0.0024092066 0.0051327616 
 7594000    280.00113   -1074.8196    3738.5627   -7335.3279    71.505031   -983.77326   0.44863102 0.0024099636 0.0051332918 
 7596000    299.67577   -1074.3029     1676.158    -7901.831    36.577848    467.33897   0.44861468  0.002410638 0.0051345892 
 7598000     294.0943   -1074.0999    3790.2474    -10057.05    17.329884   -1986.2972   0.44864073 0.0024102351  0.005132633 
 7600000    265.00981   -1074.4308    2444.0175   -9669.2194   -1644.9241   -1298.2809   0.44867464 0.0024096698 0.0051318121 
 7602000    336.03952   -1074.1659    517.03917   -5008.4535    3316.5658   -2302.4696   0.44867702 0.0024089987 0.0051304564 
 7604000    290.73983   -1073.6145    2374.5271   -7180.0507    1407.2046    1773.0313   0.44866847 0.0024093294 0.0051294492 
 7606000    288.30196   -1074.2816   -418.61946   -5494.1188     2117.498   -749.57245   0.44864807   0.00241072 0.0051280483 
 7608000    302.72513   -1074.1776     1474.855   -8418.3592    1637.9793   -1705.2176   0.44862981 0.0024122355 0.0051285541 
 7610000    286.68254   -1073.9527    4955.2084   -6529.7269    2621.8201   -1348.3236   0.44865251 0.0024120817 0.0051305888 
 7612000    275.75981   -1074.3352    5189.3312   -7970.7858    201.87564    1523.0798   0.44865817 0.0024114512 0.0051301331 
 7614000    326.96897   -1074.4419    1620.1759    -10716.76    1469.5698    1115.5676   0.44866919 0.0024118002 0.0051295402 
 7616000    282.27539   -1074.0853    1259.6576   -7240.7244   -2013.6748    1283.7778   0.44868607 0.0024115934 0.0051282355 
 7618000    309.89553   -1073.7252   -3147.5536   -4254.8055    1799.6085   -1529.5831   0.44868331 0.0024111405 0.0051275876 
 7620000      291.996   -1074.2212    2490.9247   -8277.3732    -988.6781    2175.4672   0.44868465 0.0024110877 0.0051281716 
 7622000    324.55552   -1073.7983    3943.9606   -7019.0472   -1495.8113   -1973.9072   0.44868882  0.002410275 0.0051279668 
 7624000    303.02072   -1074.9875    4224.2702   -8220.7415   -3446.7342    311.16301   0.44869374  0.002410004 0.0051281026 
 7626000    292.41155   -1074.4172    1341.1085   -8372.7161    1809.5189    -1780.564   0.44868979 0.0024099656 0.0051275733 
 7628000    256.12597   -1074.3547    1878.0954    -9448.164   -2146.1373   -1570.5599   0.44868436 0.0024094198 0.0051259121 
 7630000    297.31354   -1074.0138    4636.0644   -5610.3081    622.45142     -1082.01   0.44870287 0.0024085568 0.0051247092 
 7632000    282.33119   -1073.7915    -1492.453   -8833.5937   -1068.1459   -2433.0679   0.44871713 0.0024078379 0.0051234417 
 7634000    311.84723   -1073.8978    7324.5527   -7534.5163    29.979783    1630.0906   0.44873542 0.0024077255 0.0051229728 
 7636000    328.32536   -1075.2136    381.34666   -7558.4126    3281.4764    275.51061   0.44872225 0.0024082276 0.0051219042 
 7638000    317.75143   -1074.0101    1516.7622   -7397.9907    689.82771   -1214.4774   0.44870388  0.002407855 0.0051243516 
 7640000    263.57817   -1073.8229    1155.5618   -11654.096   -3742.4596    1512.7523   0.44869572 0.0024078652   0.00512516 
 7642000    318.15579   -1073.7982    3965.5316   -8261.4624    2829.4006   -1287.0173   0.44869148 0.0024076225 0.0051245661 
 7644000    325.82351   -1074.6417    3550.0419   -6145.9955   -724.99332    1701.9479   0.44869182 0.0024072137 0.0051232238 
 7646000    256.64138   -1074.3376    2096.5004   -8259.2571    1840.1415   -1937.2047   0.44869042 0.0024068803 0.0051256941 
 7648000    288.07505    -1074.047    3981.1041    -7750.358   -1104.2467    2719.4231   0.44870265 0.0024063579 0.0051243497 
 7650000    281.33997   -1074.0094    1941.7018   -5522.0091    485.04451   -1922.9649   0.44870123 0.0024062501 0.0051230043 
 7652000    282.50638   -1074.5434    3822.2543   -8856.6516    482.08918   -1548.6622   0.44870224 0.0024077455 0.0051230391 
 7654000    301.03018   -1074.2549     3462.656   -9073.3199   -282.34496    -3807.336   0.44872117 0.0024071964 0.0051228195 
 7656000    279.83688   -1074.7172    3443.2094   -8630.0645   -2288.1838   -1818.3298    0.4487595 0.0024066565 0.0051233927 
 7658000    264.40328   -1074.6574    1794.5288   -7723.7924    3501.6294   -951.05421   0.44874984 0.0024060122 0.0051223788 
 7660000    286.19234   -1074.0705    964.99133   -9823.3935    2684.2713    -2629.703   0.44874517 0.0024062117 0.0051222686 
 7662000    289.84714   -1075.2168    3266.2387   -6174.7148    2475.7787   -3087.3443   0.44872045 0.0024073213 0.0051239042 
 7664000    309.86245   -1074.2115    4511.2124    -8876.815    361.68101   -359.23274   0.44872493 0.0024068346 0.0051249368 
 7666000    306.95271   -1074.5857    744.57495   -9383.5678   -1381.3738   -2001.1071    0.4487351 0.0024068325 0.0051249641 
 7668000    297.13397    -1074.089   -1716.3883   -5402.9688   -610.13219   -2233.0923   0.44875066 0.0024065332 0.0051234837 
 7670000    277.27487   -1074.3631    5493.5375   -9097.3742   -635.93942    3537.0235   0.44874419 0.0024058632 0.0051243589 
 7672000     298.7644   -1074.8876    1684.1568   -8152.4409    893.16289   -948.56265   0.44874205 0.0024057087 0.0051233679 
 7674000    308.95045   -1073.8483     3128.567   -10249.412   -3318.8198   -1026.3434   0.44873883 0.0024054365  0.005122637 
 7676000    291.29917   -1074.1991    485.29654   -8558.0168    -93.60333   -1035.9422   0.44877521 0.0024047801  0.005122235 
 7678000    312.67607   -1074.4433    4470.3458   -9678.2022    1541.4884   -3073.0557   0.44880403 0.0024043516 0.0051223611 
 7680000    290.65932   -1074.1932    2317.8508   -9036.7371     2074.737   -978.20346   0.44880403 0.0024041171 0.0051233395 
 7682000    283.68006    -1074.069    5142.2937   -8955.2063   -1410.3935   -2805.8193   0.44878972 0.0024031738 0.0051227798 
 7684000     311.3386   -1074.9849    516.04097   -7882.2644    2121.5804   -900.23236   0.44879096 0.0024028979 0.0051215275 
 7686000     289.4865   -1073.7977    1853.8917   -10220.154    716.69234   -4131.8037   0.44879832 0.0024022753 0.0051212811 
 7688000    320.53925   -1074.6425     5110.866   -6499.2574     2970.773    916.11451    0.4488063 0.0024019767 0.0051254133 
 7690000    310.13237   -1073.6657   -579.21344   -7269.7535   -253.52343   -1680.6464   0.44882225 0.0024021579 0.0051241229 
 7692000    308.61742   -1074.2345    6927.6464   -7346.1321   -945.62546    1361.4704   0.44881236 0.0024032695 0.0051228591 
 7694000    329.26422   -1074.0943    1002.7425    -8350.083    958.49071   -305.18364   0.44881756 0.0024027298 0.0051225454 
 7696000    280.25196    -1074.369   -1103.1688   -7534.7608    643.14675   -5264.0546   0.44882784  0.002402608 0.0051222352 
 7698000    328.71039   -1074.0245    6787.0004   -4556.8395   -3501.4416   -2250.7469   0.44883385 0.0024025725 0.0051241656 
 7700000    314.15566   -1074.3063    7768.7601   -5960.4528    3869.4557    4205.4604   0.44885286 0.0024019211 0.0051223558 
 7702000    313.65919   -1074.4755   -775.63599    -10817.85      864.502   -1036.8229   0.44884822 0.0024018274 0.0051219205 
 7704000    338.05201   -1073.9744    3423.2872   -6296.3215   -1074.4114    1207.5823   0.44885457  0.002402208 0.0051215886 
 7706000    322.55545   -1073.9417     1740.074   -8743.5982    1334.7522   -4848.2104   0.44884498 0.0024020667 0.0051203716 
 7708000    262.79332   -1073.6461    1814.5096   -9621.5074    1197.9485     1235.738   0.44884941 0.0024013308 0.0051211024 
 7710000    295.52541   -1073.5536    292.97693   -8850.4199    -974.4359   -1195.1859   0.44885084 0.0024007659 0.0051209736 
 7712000    315.54585    -1073.956    4489.0906   -7725.1064    3595.4763   -191.12563    0.4488432 0.0024004459 0.0051213232 
 7714000    306.45652   -1074.2428    5452.9333   -6088.7264    1932.0344   -275.47708   0.44883535 0.0024029769 0.0051197763 
 7716000    329.71231   -1073.5778     332.6055   -9135.6565   -64.131431   -2016.9008   0.44884207 0.0024040141  0.005119134 
 7718000    273.88891   -1074.3737    2929.8309   -7737.9966    1680.6365    2191.2692   0.44887923 0.0024035649 0.0051181501 
 7720000    318.77432   -1074.1133    1393.4316   -6327.2619    1895.8581   -4907.4589   0.44889898 0.0024029313 0.0051172845 
 7722000    290.51049   -1074.4063    5608.0285   -9724.0701   -1178.3576   -283.99188   0.44889243 0.0024025256 0.0051187734 
 7724000    318.34262   -1074.1843   -923.32002   -3218.6438    3039.2764   -1033.8701    0.4488814 0.0024019584 0.0051175422 
 7726000    289.01123   -1074.8894     3304.626   -8036.1218   -264.91826     3533.779    0.4488678  0.002402125 0.0051170309 
 7728000    293.79722   -1073.5148    4344.9965   -7482.6582    1267.5464     691.0284   0.44885563 0.0024021509  0.005117291 
 7730000    329.25925   -1074.2687     3840.052   -7600.9659   -1710.0952    122.47508   0.44885047 0.0024032056 0.0051178184 
 7732000    273.66862   -1073.7474    5229.4775   -7715.0102    430.37414    -182.8545   0.44884865 0.0024028794 0.0051162957 
 7734000    272.89295   -1074.2458    2045.3303   -6727.9101   -863.84694   -1912.4348   0.44885913 0.0024029716 0.0051157099 
 7736000    329.83501   -1074.1301    2462.0685   -9513.9372    -2370.397   -3520.7211    0.4488528 0.0024026777 0.0051150301 
 7738000    308.91027   -1074.6683    5367.0912   -9957.1804   -2899.0255   -1153.8874   0.44886088 0.0024019617  0.005115914 
 7740000    273.70122   -1074.2635     3049.369   -6770.8381    145.94735   -2092.3821   0.44886631 0.0024011173 0.0051154104 
 7742000     274.7629   -1074.1603    5041.7577   -6842.8119    3527.2207      1213.21   0.44886265 0.0024007858 0.0051142327 
 7744000    304.24819   -1074.9118    1560.0724   -5741.7517    2487.4259    1852.9561   0.44884589 0.0024041295 0.0051136109 
 7746000    322.30077   -1074.9505   -124.14518   -9762.6676    19.195449   -2879.4577   0.44883449 0.0024052169 0.0051127634 
 7748000    305.60573   -1073.8197    1673.3798   -7111.4661    2678.4526   -531.41655   0.44885539 0.0024046491 0.0051128173 
 7750000    281.30599   -1074.5851    870.90402   -6876.4915   -1044.9848   -1489.2736   0.44886627 0.0024040176 0.0051123397 
 7752000    307.10665   -1074.2035   -2259.7399   -10164.084   -1127.1532   -1478.2067   0.44886582 0.0024034751 0.0051129197 
 7754000    313.54605   -1073.7693    332.90307   -8098.4018    1058.9193    1706.1328   0.44886132 0.0024031123 0.0051116912 
 7756000    288.64751   -1074.4794    2049.3121   -7856.2378    2871.5603   -1446.3663   0.44886086 0.0024043592 0.0051104466 
 7758000    282.31461    -1074.502    1543.7733   -4924.2127    2116.4933    647.65439   0.44884812 0.0024040191  0.005110819 
 7760000     308.7585   -1073.5937     3986.989   -10534.822   -1337.7731   -1496.0909    0.4488468 0.0024045246 0.0051112823 
 7762000    312.65076   -1074.0324    519.27649   -8667.2225    2246.0334   -1740.8948   0.44888187 0.0024035444 0.0051106251 
 7764000    300.78403   -1074.1972    951.50197   -9810.1279    1096.1641    639.90162   0.44888451 0.0024026019 0.0051107467 
 7766000    298.07539   -1073.8742    3720.1372   -8361.0068   -1071.7947     -21.5119   0.44889838 0.0024020684 0.0051099021 
 7768000    298.56298   -1074.8436    4750.7086   -9351.1869   -3985.1945   -615.58174   0.44890521 0.0024016802 0.0051094599 
 7770000    314.02375    -1073.531    3085.8084   -4936.4506    1294.6525   -1963.9931   0.44889919 0.0024016981 0.0051094321 
 7772000    302.24431   -1074.3844   -302.79156    -8868.085   -2423.7849   -3515.2823   0.44890413 0.0024015505 0.0051097215 
 7774000    289.56423   -1074.2429    1139.3768    -6197.497    3303.5062     690.2281   0.44891542 0.0024018339 0.0051081237 
 7776000    280.78925   -1073.9451    2126.9148   -10229.359   -55.151808   -3780.3665   0.44891777 0.0024017097 0.0051080221 
 7778000    347.76946   -1074.5968    343.21569   -9147.6737    2321.8783   -1414.8477   0.44892843 0.0024011249 0.0051083918 
 7780000    303.19135   -1074.2798    279.76294   -8943.9045   -2488.2325   -214.13668   0.44894116  0.002400443 0.0051081896 
 7782000    295.84261   -1073.8731    484.22031   -7281.2512    3054.1325    87.023557   0.44893965 0.0023996465 0.0051071207 
 7784000    314.04493   -1074.0702    3270.8297   -7862.2128   -246.98673   -2575.0901   0.44893652 0.0024014955 0.0051085558 
 7786000    309.96542   -1074.1858    7144.3276   -6789.7769   -965.31495    323.65379   0.44892545 0.0024020255 0.0051082206 
 7788000    309.93417   -1073.9007    1041.4756   -11322.143    899.19525     293.7259    0.4489093 0.0024016507 0.0051067794 
 7790000    284.27538   -1074.2257    1409.4051   -7578.8863    352.28468   -637.73723   0.44890513 0.0024028135 0.0051073373 
 7792000    284.00192   -1074.2306    3797.7771   -10200.466   -153.05539   -556.48652   0.44892519 0.0024024507 0.0051070339 
 7794000    318.12498   -1074.1412    3177.1434   -11943.673     1766.298    2221.0762   0.44895814 0.0024019467  0.005106532 
 7796000    292.54892   -1074.1873    3986.4729   -8577.5471    793.82546   -3765.0239    0.4489746   0.00240125 0.0051079987 
 7798000      320.155   -1074.2129    3229.5003   -7395.5529    3150.0904     1985.571   0.44896408  0.002402024 0.0051072181 
 7800000    312.07487   -1074.3238    3067.3056   -5137.6755    1224.6655   -1052.8481   0.44895868 0.0024038344 0.0051059762 
 7802000    312.67303   -1074.8567    5061.3597   -5583.1556    1507.9476    687.23859   0.44895832 0.0024030296 0.0051052713 
 7804000    291.63057   -1074.3002    2537.2715   -7155.1244   -1846.1242    365.92097   0.44895363 0.0024029174 0.0051046974 
 7806000    324.10891   -1074.2088    2422.0462   -9272.2333   -65.066218   -872.46824   0.44894694  0.002402485 0.0051039508 
 7808000    308.04908    -1074.364    1451.2024   -7690.5062   -966.04468   -2025.9754   0.44897327 0.0024022648 0.0051039755 
 7810000    282.72016   -1074.0154    171.49536   -12314.464    389.14206    122.15678   0.44899944 0.0024033269 0.0051055818 
 7812000    300.55343   -1074.4796    1167.3301    -7360.656    1572.1581   -258.03873     0.449024 0.0024015842 0.0051037735 
 7814000    286.34648   -1074.7044    278.40743   -7396.2989    527.92918   -670.53625   0.44901788 0.0024016236 0.0051042367 
 7816000    306.10228   -1074.1184     2991.168   -8895.3769    1441.5255     3296.422   0.44901519  0.002401011 0.0051049905 
 7818000    313.57361   -1074.2287    2762.3191   -6544.3187   -1946.0378    596.97105   0.44899175 0.0024018468 0.0051032295 
 7820000     293.5322   -1074.5821    4412.5142   -7801.0868   -68.817888   -872.30093    0.4489806 0.0024031596 0.0051024989 
 7822000    281.87674   -1074.5572     877.8595   -11733.337    1137.8047   -1164.1931   0.44897867 0.0024031407 0.0051015177 
 7824000    280.35246   -1074.7516    3471.9987   -9175.5263    473.32775    -3602.713   0.44900329 0.0024024864 0.0051014357 
 7826000    307.13022    -1074.642    4557.1037   -7787.3985    1299.4808   -4163.6175   0.44901956 0.0024019926 0.0051031573 
 7828000    230.70924   -1073.7569    68.118762   -6131.6224    1493.0996    360.31856   0.44902943 0.0024014465 0.0051030177 
 7830000    269.38476   -1073.8365     1632.179   -9964.1568    491.61972   -2962.5111   0.44901344 0.0024031247 0.0051017933 
 7832000    282.14593   -1074.7295    3884.2888   -4433.0862    2114.2708   -3536.1844   0.44901009 0.0024039288 0.0051034169 
 7834000    320.11041   -1073.6397    1384.4825   -10581.804    2907.1641     2255.297   0.44902272 0.0024035371 0.0051047004 
 7836000    320.37364   -1074.4617    3327.8061   -6719.5348   -1403.0748   -3577.0304   0.44904691 0.0024031927 0.0051035029 
 7838000     299.5353   -1074.2055    6683.0337   -7611.5276    3264.8274   -200.46015   0.44905182 0.0024038533   0.00510452 
 7840000    308.07772   -1074.7004    2281.7262   -7568.2535    1253.5757    -707.6576   0.44903326 0.0024035671 0.0051034809 
 7842000    303.27798   -1074.3996    3591.9356   -6984.7237   -1392.8479    -934.2308   0.44904191 0.0024030188  0.005102371 
 7844000    302.96734   -1074.6418    953.53261   -9447.6518    -289.5505    995.24511   0.44905809 0.0024024757 0.0051034681 
 7846000    283.22131   -1074.1573    1356.3423   -9039.4811     1613.481    98.852891   0.44905497 0.0024030057 0.0051035574 
 7848000     306.4875   -1073.9313    2970.1163   -5591.0705    3588.2379   -690.78788   0.44904805 0.0024037408 0.0051018392 
 7850000    320.83267   -1074.5955    4089.0799   -9667.3633   -2490.0026    427.21777   0.44904413 0.0024035654 0.0051026004 
 7852000    288.20914   -1074.4557    684.86391   -9703.7159    2338.8519    36.926932   0.44903128 0.0024048739 0.0051033696 
 7854000    320.93292    -1074.077    3079.8104   -9002.9641   -1857.8905    4306.9405   0.44904318 0.0024039664 0.0051021149 
 7856000    257.31227   -1074.4229    3078.3562   -4001.6902   -861.76543   -988.31228   0.44905299 0.0024034103 0.0051015411 
 7858000     300.5916   -1073.6908    2964.6381   -8400.2624   -140.27614   -2858.9665   0.44905291 0.0024049266 0.0051007346 
 7860000     335.4154   -1074.0405    4131.7992   -7164.1023   -4204.0136    1971.7289     0.449041  0.002405118 0.0051011103 
 7862000     304.8569   -1073.4333    1828.1362   -8329.9437    1497.9379   -1962.4932   0.44904103 0.0024049025 0.0051000435 
 7864000    298.46847   -1074.0811    4346.8975   -8123.1706   -700.68461   -1834.7031   0.44904935 0.0024058678 0.0051005767 
 7866000    313.98966   -1074.1046    2319.6026   -7770.2143    782.03467   -1621.5853   0.44905228  0.002405308 0.0050990461 
 7868000     292.0528   -1074.4192    370.98136   -9365.9311    1742.0404    -834.0496   0.44906048 0.0024049934 0.0050992371 
 7870000    303.00406   -1073.5273    1234.7264   -4853.8771   -2145.7401    89.583592   0.44905097 0.0024052156 0.0050992241 
 7872000    279.83345   -1074.4477     6316.091   -6106.4072   -1201.8732   -1603.6453   0.44907582 0.0024045006 0.0050990638 
 7874000    285.88322   -1073.9345    1813.9309   -11143.556    4265.6657   -741.04135   0.44910087 0.0024038273 0.0050985592 
 7876000    300.71214    -1074.567   -96.576946   -8768.9148    613.40676    1678.2585   0.44911211 0.0024034074   0.00509752 
 7878000    318.75089   -1073.7076    1522.9306   -3461.1178    2604.2848   -2522.7714   0.44910667 0.0024034086 0.0050967653 
 7880000    308.58976   -1074.3817    4148.2049   -10822.529    524.03339   -459.41275   0.44909608 0.0024032133 0.0050960446 
 7882000    312.36292   -1074.0412    1515.5976   -8802.5955    1634.6355   -64.106666     0.449087 0.0024029388 0.0050953125 
 7884000    266.49494   -1074.1572    3987.2243   -7230.6243    67.140483   -1756.9713   0.44907344 0.0024026174 0.0050947893 
 7886000    324.22375   -1074.2025    2444.5846   -7964.4818   -1325.6962   -2208.3629   0.44907153 0.0024028783 0.0050934995 
 7888000    283.22194   -1074.8756    2969.7917   -7237.5448    3034.4406   -2480.8998   0.44908642 0.0024023428 0.0050938635 
 7890000    321.31014   -1074.0166    5146.9712   -9048.4929     5.824172    860.98753   0.44908588 0.0024021238 0.0050933712 
 7892000    295.32733   -1074.0913    5036.3511    -8390.938   -584.21888   -3176.8204   0.44911299  0.002401457 0.0050920803 
 7894000    298.45591   -1074.4706    3493.9903   -8343.8641    442.04806    3325.7455   0.44912183 0.0024008186 0.0050933596 
 7896000    293.44275   -1074.7834    1616.8363   -6179.1925   -51.885646    617.98222   0.44911638 0.0024004165 0.0050918806 
 7898000     313.9608   -1074.1127    584.38159   -7605.8558    1173.5256   -1719.7084   0.44908859 0.0024014731 0.0050916909 
 7900000    289.63213   -1074.3168    4070.7183   -7156.4297   -152.31908     611.2767   0.44907576 0.0024018626 0.0050927698 
 7902000    307.39427   -1074.0823    376.71495   -9682.1151    1348.9698     -3693.39   0.44909675 0.0024010964 0.0050919665 
 7904000    310.79505    -1074.486    4400.1877   -7494.7566    389.16979    1352.0516   0.44909239 0.0024004334 0.0050927779 
 7906000    282.64423   -1074.6885   -1828.9556   -6749.9784     4783.742    908.12013   0.44907933 0.0024026576  0.005091036 
 7908000    305.67922   -1074.1791    5363.9775   -9083.3974   -1252.4228    391.61416   0.44905714 0.0024031818 0.0050900898 
 7910000    277.01684   -1073.8651    5154.0027   -10262.235   -562.45545     -1414.64   0.44906162 0.0024021113 0.0050903339 
 7912000    322.10068   -1074.5093    3570.2926    -8085.474     626.4907    671.44154   0.44905985 0.0024020744 0.0050913258 
 7914000    297.32023   -1073.0716    3092.8207   -7303.7784   -2526.5535   -1218.3009   0.44905794 0.0024027055 0.0050914413 
 7916000    293.53149   -1074.7319    4501.9854   -7948.8053   -1957.6363    486.39405   0.44905074 0.0024019441 0.0050900896 
 7918000    311.05244   -1074.7679   -773.22601   -8717.8515   -2109.0431   -3361.7976   0.44905143 0.0024013707 0.0050905565 
 7920000    303.17974   -1074.4956    1722.9617   -7058.2921    -1703.981    -2038.275   0.44905859 0.0024007501 0.0050910369 
 7922000    304.88016   -1074.6978     2530.078   -8983.8194   -308.90319    105.04018   0.44906924 0.0024002674  0.005090493 
 7924000    323.09445     -1074.21    2189.6894   -5279.4724   -2148.3508   -1593.8787   0.44905505 0.0024003584   0.00508996 
 7926000     293.0092   -1073.9372    2023.2925   -5597.8423   -1543.5318    1116.7589   0.44902789 0.0024039647 0.0050899975 
 7928000    311.67462   -1074.7682    4331.0304    -7642.128   -2469.8423   -2885.1685    0.4490118 0.0024038754 0.0050885832 
 7930000    304.10566   -1074.0388   -665.20805   -7915.3202    509.12851   -1795.3909   0.44900822  0.002403184 0.0050942852 
 7932000    303.89224   -1074.2232    5826.2535   -10317.384   -2132.5397   -339.25062   0.44902058 0.0024031451 0.0050945962 
 7934000    310.71764   -1073.8959    5832.5882   -7734.9275   -716.06543   -1927.8596   0.44903847 0.0024022605 0.0050952628 
 7936000    279.90634   -1074.1984   -753.98001    -9236.833    2155.6468    -364.1192   0.44903448 0.0024018211 0.0050942645 
 7938000    264.64176   -1074.0176    2511.7398   -8574.6673    2217.9769    687.67142   0.44901671 0.0024016913 0.0050931788 
 7940000     337.3393   -1074.6971    2353.5463   -8586.2206   -916.02202   -517.28323   0.44901264 0.0024014655 0.0050926905 
 7942000    289.94861   -1073.8504   -574.83029   -9013.9277    567.61148   -1461.2804    0.4490326 0.0024024032   0.00509217 
 7944000    312.38285   -1074.9703    4332.8137   -8572.0765   -1263.5189    1576.9648   0.44903536 0.0024029653  0.005093276 
 7946000    288.18532   -1073.8072    2150.8304   -6695.4987    1359.5482    1608.5674   0.44902061 0.0024030361 0.0050921306 
 7948000    292.85046   -1074.5483    635.69518   -10950.063   -367.53214   -802.54015   0.44899606 0.0024025761 0.0050917302 
 7950000    299.19454   -1074.1676    4229.6563   -7023.4798   -1743.5096   -672.26209   0.44900128  0.002401961 0.0050906228 
 7952000    302.17076   -1073.9133   -734.62873   -9485.7673    1284.4483    -3285.825   0.44901365 0.0024016269 0.0050912181 
 7954000    308.47494   -1073.3565    4931.7328   -6502.2773    5333.6472    4.6496845   0.44902017 0.0024026046 0.0050949842 
 7956000    312.22774   -1074.2566    330.60624   -7243.5483    624.03011   -2383.2877   0.44903063 0.0024027157 0.0050947147 
 7958000     282.5168   -1074.1069     3553.818   -6662.1689    2146.3276    1469.7298    0.4490403 0.0024016909 0.0050938666 
 7960000    297.19695   -1073.9326    3701.6694   -6163.6014   -1155.4892    109.36639   0.44903903  0.002401105 0.0050927937 
 7962000    274.95913   -1074.0975    3151.1919   -6958.2101     3272.065    694.50544   0.44904015 0.0024008506 0.0050917339 
 7964000    308.54276   -1074.5917    2600.7963   -8259.7837    2522.2239    2482.9363   0.44902573 0.0024016662 0.0050903188 
 7966000    239.69594   -1073.8366    4769.4769   -8662.5232   -2002.8695   -2020.6522   0.44903095 0.0024021823 0.0050896955 
 7968000    295.33504   -1074.4952    4556.2147   -7842.0428    -955.6135   -1508.0261   0.44904072 0.0024028115 0.0050903378 
 7970000    296.34729   -1074.5329    2818.2629   -6659.3123    482.13332   -467.60454   0.44903749 0.0024024349 0.0050904733 
 7972000    287.07444   -1074.7408    2213.6902    -7116.509   -859.92804   -125.03246   0.44900488 0.0024029305 0.0050905218 
 7974000    279.60797   -1074.0862   -500.08787   -8002.8659    201.27934   -1990.8416   0.44898175 0.0024024646 0.0050900141 
 7976000    280.92189   -1075.0124    1350.6304   -9696.8675   -4123.5938    -1962.156    0.4489848 0.0024018693 0.0050910471 
 7978000    296.78638    -1073.971    3433.1714   -8905.9969   -868.21817    826.60079   0.44902529   0.00240143 0.0050912577 
 7980000    322.14298   -1074.1007    1206.5072   -6574.8453    -2247.066    672.02644   0.44905599 0.0024008658 0.0050917368 
 7982000    294.98499   -1074.4895    4865.3523   -7721.4787   -2648.6381    218.58578   0.44906229 0.0024004143 0.0050901117 
 7984000    268.45851   -1073.9871    2077.7002   -4612.4848    212.96401   -4779.7016   0.44905498  0.002400823 0.0050891294 
 7986000    302.51013   -1074.3444   -1609.2637   -5091.6768    2235.8231    1462.6713   0.44901516  0.002400652 0.0050890942 
 7988000    350.45851   -1074.4273    3091.1436   -11126.397    780.39558   -460.78218   0.44901093 0.0024002689 0.0050887422 
 7990000    314.52198   -1074.4513   -1240.3781   -10272.851   -2124.2669    2389.8486   0.44905305  0.002400138 0.0050896433 
 7992000    330.99943   -1074.0983    6322.9006   -6390.7815    1.8486004   -774.85548   0.44906932 0.0023995346   0.00508974 
 7994000    303.38737   -1074.3715    1868.1581   -4616.7423    753.91649    -2321.903   0.44906191 0.0024008887 0.0050901686 
 7996000    285.61451   -1074.0053    4912.9275    -9012.033    1010.8297   -2818.5389   0.44905006 0.0024021845 0.0050892935 
 7998000    331.03585   -1073.7217    2826.9904   -9374.5404   -852.63148   -3162.2785   0.44903872 0.0024016722 0.0050889235 
 8000000    269.97239   -1074.5887    3731.8596   -11642.692    1457.5015    1129.9442   0.44905525 0.0024008484 0.0050881489 
Loop time of 46873.1 on 1 procs for 8000000 steps with 160 atoms

Performance: 1.475 ns/day, 16.275 hours/ns, 170.673 timesteps/s
100.0% CPU use with 1 MPI tasks x no OpenMP threads

MPI task timing breakdown:
Section |  min time  |  avg time  |  max time  |%varavg| %total
---------------------------------------------------------------
Pair    | 42485      | 42485      | 42485      |   0.0 | 90.64
Bond    | 73.83      | 73.83      | 73.83      |   0.0 |  0.16
Kspace  | 3136.4     | 3136.4     | 3136.4     |   0.0 |  6.69
Neigh   | 37.424     | 37.424     | 37.424     |   0.0 |  0.08
Comm    | 968.17     | 968.17     | 968.17     |   0.0 |  2.07
Output  | 1.1491     | 1.1491     | 1.1491     |   0.0 |  0.00
Modify  | 109.97     | 109.97     | 109.97     |   0.0 |  0.23
Other   |            | 61.48      |            |       |  0.13

Nlocal:    160 ave 160 max 160 min
Histogram: 1 0 0 0 0 0 0 0 0 0
Nghost:    7322 ave 7322 max 7322 min
Histogram: 1 0 0 0 0 0 0 0 0 0
Neighs:    118531 ave 118531 max 118531 min
Histogram: 1 0 0 0 0 0 0 0 0 0

Total # of neighbors = 118531
Ave neighs/atom = 740.819
Ave special neighs/atom = 1.5
Neighbor list builds = 5296
Dangerous builds = 0
variable     ndens equal count(all)/vol
print        "average viscosity: $v [Pa.s] @ $T K, ${ndens} /A^3"
average viscosity: 0.15218141522782 [Pa.s] @ 298 K, 0.0108345924667925 /A^3
Total wall time: 14:23:48
