LAMMPS (16 Mar 2018)
dimension 3
boundary p p p
atom_style full
units metal
kspace_style pppm/cg 1.0e-4
kspace_modify pressure/scalar no
bond_style harmonic
angle_style harmonic

neighbor 2.0 bin
neigh_modify delay 0 every 1 check yes

region box1 block -40.0 40.0 -40.0 40.0 -40.0 40.0
create_box 4 box1 bond/types 2 extra/bond/per/atom 2 angle/types 1 extra/angle/per/atom 1 extra/special/per/atom 10
Created orthogonal box = (-40 -40 -40) to (40 40 40)
  1 by 1 by 1 MPI processor grid

molecule cat_ion cation_mol.txt
Read molecule cat_ion:
  3 atoms with max type 4
  2 bonds with max type 2
  1 angles with max type 1
  0 dihedrals with max type 0
  0 impropers with max type 0

mass    1  86.8 #anion
mass    2  67.0 #ring
mass    3  15.0 #methyl
mass    4  29.0 #ethyl

create_atoms 1 random 20 1340 box1                     #at least 40
Created 20 atoms
  Time spent = 0.00276899 secs
create_atoms 0 random 20 2345 box1 mol cat_ion 1234    #at least 40
Created 60 atoms
  Time spent = 6.19888e-05 secs
#create_atoms 1 single  10.0 0.0 0.0
#create_atoms 0 single 0.0 0.0 0.0 mol cat_ion 1234
group anion type 1
20 atoms in group anion
group ring type 2
20 atoms in group ring
group methyl type 3
20 atoms in group methyl
group ethyl type 4
20 atoms in group ethyl

bond_coeff 1 87.729 2.689748837
bond_coeff 2 87.729 3.04931147
angle_coeff 1 87.729 144.1868904
pair_style lj/cut/coul/long 30.0
pair_modify mix geometric
################### properties to change
pair_coeff 1 1   2.1896383186706   1.8000977517107
pair_coeff 2 2   1.930596285435    7.0933528836755
pair_coeff 3 3   1.8670576735093   0.54643206256109
pair_coeff 4 4   4.7800586510264   2.747311827957


#create_bonds single/bond 1 2 3
#create_bonds single/bond 2 2 4
#create_bonds single/angle 1 3 2 4


set type 1 charge -1.0
  20 settings made for charge
#set type 2 charge  0.408675
#set type 3 charge  0.317505
#set type 4 charge  0.273820


########################################

write_data solid.data pair ij
PPPM initialization ...
  using 12-bit tables for long-range coulomb (/home/conda/feedstock_root/build_artifacts/lammps_1526417570236/work/src/kspace.cpp:321)
  G vector (1/distance) = 0.0714995
  grid = 8 8 8
  stencil order = 5
  estimated absolute RMS force accuracy = 0.000312959
  estimated relative force accuracy = 2.17338e-05
  using double precision FFTs
  3d grid and FFT values/proc = 2197 512
Neighbor list info ...
  update every 1 steps, delay 0 steps, check yes
  max neighbors/atom: 2000, page size: 100000
  master list distance cutoff = 32
  ghost atom cutoff = 32
  binsize = 16, bins = 5 5 5
  1 neighbor lists, perpetual/occasional/extra = 1 0 0
  (1) pair lj/cut/coul/long, perpetual
      attributes: half, newton on
      pair build: half/bin/newton
      stencil: half/bin/3d/newton
      bin: standard

thermo_style	custom step temp pe ke ebond press density

##################################
variable    T equal 298.0
variable    V equal vol
variable    dt equal 0.0001
variable    p equal 400     # correlation length
variable    s equal 5       # sample interval
variable    d equal $p*$s   # dump interval
variable    d equal 400*$s   
variable    d equal 400*5   

# convert from LAMMPS real units to SI

variable    kB equal 1.3806504e-23    # [J/K/** Boltzmann
variable    bar2Pa equal 100000.0
variable    A2m equal 1.0e-10
variable    ps2s equal 1.0e-12
variable    convert equal ${bar2Pa}*${bar2Pa}*${ps2s}*${A2m}*${A2m}*${A2m}
variable    convert equal 100000*${bar2Pa}*${ps2s}*${A2m}*${A2m}*${A2m}
variable    convert equal 100000*100000*${ps2s}*${A2m}*${A2m}*${A2m}
variable    convert equal 100000*100000*1e-12*${A2m}*${A2m}*${A2m}
variable    convert equal 100000*100000*1e-12*1e-10*${A2m}*${A2m}
variable    convert equal 100000*100000*1e-12*1e-10*1e-10*${A2m}
variable    convert equal 100000*100000*1e-12*1e-10*1e-10*1e-10
timestep     ${dt}
timestep     0.0001
variable    tdamp equal ${dt}*10.
variable    tdamp equal 0.0001*10.
variable    pdamp equal ${dt}*100.
variable    pdamp equal 0.0001*100.
thermo       $d
thermo       2000

variable  ILdens equal density
variable  ILstep equal step
variable  ILtime equal time*1.0e-12 #from ps to s
variable  ILtemp equal temp
variable  ILpe equal pe
variable  ILke equal ke
variable  ILpr equal press

##################################
fix             333 all print 2000 "${ILstep} ${ILtime} ${ILdens} ${ILtemp} ${ILpr} ${ILpe} ${ILke}" file density.dat screen no
dump 1 all dcd $d minim.dcd
dump 1 all dcd 2000 minim.dcd
dump 2 all custom $d dump.atom id mass type x y z
dump 2 all custom 2000 dump.atom id mass type x y z

##################################
##################################
#  Minimize initial
##################################

velocity     all create $T 102486 mom yes rot yes dist gaussian
velocity     all create 298 102486 mom yes rot yes dist gaussian
minimize 1.e-4 1.0e-6 1000 10000
PPPM initialization ...
  using 12-bit tables for long-range coulomb (/home/conda/feedstock_root/build_artifacts/lammps_1526417570236/work/src/kspace.cpp:321)
  G vector (1/distance) = 0.0714995
  grid = 8 8 8
  stencil order = 5
  estimated absolute RMS force accuracy = 0.000312959
  estimated relative force accuracy = 2.17338e-05
  using double precision FFTs
  3d grid and FFT values/proc = 2197 512
  PPPM/cg optimization cutoff: 1e-05
  Total charged atoms: 100.0%
  Min/max charged atoms/proc: 100.0% 100.0%
Per MPI rank memory allocation (min/avg/max) = 10.09 | 10.09 | 10.09 Mbytes
Step Temp PotEng KinEng E_bond Press Density 
       0          298    885643.37    3.0430423   0.12310245     11107660  0.012830258 
     242          298   -76.765482    3.0430423  0.057149599   -8.3885966  0.012830258 
Loop time of 0.212081 on 1 procs for 242 steps with 80 atoms

100.0% CPU use with 1 MPI tasks x no OpenMP threads

Minimization stats:
  Stopping criterion = energy tolerance
  Energy initial, next-to-last, final = 
         885643.372244     -76.7597682328     -76.7654818224
  Force two-norm initial, final = 8.65232e+06 5.94384
  Force max component initial, final = 3.72573e+06 3.60985
  Final line search alpha, max atom move = 0.0255117 0.0920936
  Iterations, force evaluations = 242 418

MPI task timing breakdown:
Section |  min time  |  avg time  |  max time  |%varavg| %total
---------------------------------------------------------------
Pair    | 0.025683   | 0.025683   | 0.025683   |   0.0 | 12.11
Bond    | 0.0021183  | 0.0021183  | 0.0021183  |   0.0 |  1.00
Kspace  | 0.17705    | 0.17705    | 0.17705    |   0.0 | 83.48
Neigh   | 0.0012894  | 0.0012894  | 0.0012894  |   0.0 |  0.61
Comm    | 0.0030749  | 0.0030749  | 0.0030749  |   0.0 |  1.45
Output  | 0          | 0          | 0          |   0.0 |  0.00
Modify  | 0          | 0          | 0          |   0.0 |  0.00
Other   |            | 0.002862   |            |       |  1.35

Nlocal:    80 ave 80 max 80 min
Histogram: 1 0 0 0 0 0 0 0 0 0
Nghost:    349 ave 349 max 349 min
Histogram: 1 0 0 0 0 0 0 0 0 0
Neighs:    954 ave 954 max 954 min
Histogram: 1 0 0 0 0 0 0 0 0 0

Total # of neighbors = 954
Ave neighs/atom = 11.925
Ave special neighs/atom = 1.5
Neighbor list builds = 12
Dangerous builds = 0

reset_timestep 0
fix 1 all npt temp $T $T ${tdamp} iso 1.0 1.0 ${pdamp}
fix 1 all npt temp 298 $T ${tdamp} iso 1.0 1.0 ${pdamp}
fix 1 all npt temp 298 298 ${tdamp} iso 1.0 1.0 ${pdamp}
fix 1 all npt temp 298 298 0.001 iso 1.0 1.0 ${pdamp}
fix 1 all npt temp 298 298 0.001 iso 1.0 1.0 0.01
run             800000
PPPM initialization ...
  using 12-bit tables for long-range coulomb (/home/conda/feedstock_root/build_artifacts/lammps_1526417570236/work/src/kspace.cpp:321)
  G vector (1/distance) = 0.0714995
  grid = 8 8 8
  stencil order = 5
  estimated absolute RMS force accuracy = 0.000312959
  estimated relative force accuracy = 2.17338e-05
  using double precision FFTs
  3d grid and FFT values/proc = 2197 512
Per MPI rank memory allocation (min/avg/max) = 8.968 | 8.968 | 8.968 Mbytes
Step Temp PotEng KinEng E_bond Press Density 
       0          298   -76.765482    3.0430423  0.057149599   -8.3885966  0.012830258 
    2000     341.4133   -84.190264    3.4863594   0.11508542    71.152612  0.019436758 
    4000    278.72361   -111.66165    2.8462005  0.070438405   -125.42205  0.039189655 
    6000     286.9481   -153.69033    2.9301853   0.11095308   -453.18728  0.074749454 
    8000    321.80177   -223.24798    3.2860953   0.16017656  -0.79841382   0.14365037 
   10000    316.17898   -299.64735    3.2286779   0.13048877   -690.89921   0.22650092 
   12000    321.17954   -378.29702    3.2797414   0.28341939   -929.53657   0.32448452 
   14000     318.7391   -466.48831    3.2548207   0.41463226    4386.4832   0.43651279 
   16000    316.24597   -560.26308     3.229362   0.53277168     2671.768   0.55706371 
   18000      316.156   -633.91136    3.2284432   0.96028669   -1971.7111   0.66077802 
   20000    319.24287   -712.69074     3.259965    0.8810562    1372.8369   0.78039813 
   22000    310.77337   -782.34696    3.1734783   0.75640321    2186.5781   0.87604549 
   24000    322.80458   -829.63105    3.2963356    1.1937123   -3559.8593   0.91190976 
   26000    336.64896   -864.66183    3.4377081    1.5745438   -11111.065   0.93187805 
   28000    291.84783   -886.50901    2.9802192    1.3579549   -1890.4082   0.95444987 
   30000    285.68622   -894.68727    2.9172996    1.6902446   -1602.3732    0.9835286 
   32000    329.37281   -911.72845    3.3634074    1.2493278    13113.711   0.99641323 
   34000    292.50171   -920.19889    2.9868963    1.7538968   -2091.6989   0.99571718 
   36000    323.76952   -926.97337    3.3061891    1.7072125    4125.3711    0.9992845 
   38000    324.67189   -934.37907    3.3154037    1.7261489    3979.3247       1.0004 
   40000    336.46414   -938.38545    3.4358209    1.5324906    10781.345    1.0081627 
   42000    260.80833   -946.64532    2.6632577    2.2137775   -11858.839    1.0027443 
   44000    294.09962   -947.71964    3.0032134    1.7024615    962.11741    1.0065679 
   46000    285.22552   -949.13548     2.912595    1.6110888    2438.0655    1.0129299 
   48000    315.46293   -948.39097    3.2213659    1.3791087    5643.8839    1.0090402 
   50000      305.986   -948.62869    3.1245918    1.6277223    891.32119    1.0119634 
   52000    287.06041   -948.20639    2.9313322     1.663518    2506.6349    1.0100948 
   54000    332.35545   -947.97858    3.3938647     1.454429    9893.4879    1.0119609 
   56000    349.21743   -950.32484    3.5660517    2.2197489   -6233.3106    1.0111097 
   58000    280.56417   -950.02003    2.8649955    1.5475421    7103.0814    1.0147824 
   60000    302.81436   -950.12869    3.0922044    1.7909156    -3000.173    1.0077424 
   62000    258.53199   -951.75553    2.6400127    1.7839943   -1010.7586    1.0100594 
   64000    339.00125   -951.69923    3.4617287    2.0809091   -10964.703    1.0066925 
   66000    265.22855   -950.68349    2.7083949    1.5477193    -3386.781    1.0049783 
   68000    281.36895   -951.21029    2.8732135    1.5962239   -3203.0502    1.0100993 
   70000    254.26509   -951.53246    2.5964411    2.1554708    -11722.72    1.0057419 
   72000    266.06469   -951.82241    2.7169332    1.7672644   -68.732924    1.0096249 
   74000    304.63681   -951.50781    3.1108144    2.1169029   -9202.1705    1.0044621 
   76000    295.09796   -952.23189     3.013408    1.7933345    2013.8825    1.0069556 
   78000    276.48851    -951.7699    2.8233766    1.7224626    4394.0449    1.0080074 
   80000    303.02238    -951.8374    3.0943286    2.1269505   -2941.3121     1.003996 
   82000    296.80316   -952.25135    3.0308208    2.4727441   -9860.1369    1.0067348 
   84000    305.84588   -952.53881     3.123161     2.035888   -5347.2789    1.0055556 
   86000    275.65487   -952.62812    2.8148639    2.1647904   -4027.4814    1.0033646 
   88000    273.83368   -952.06922    2.7962667    1.9238643    9658.1055    1.0118574 
   90000    316.88663   -952.25587    3.2359041    2.4164032   -6418.6917    1.0026963 
   92000    270.51116   -952.37808    2.7623386    1.9107904   -2275.8794    1.0052552 
   94000    300.41613   -952.66419    3.0677148    2.0698351   -8127.2425      1.00587 
   96000    300.91452   -952.41754    3.0728041    1.8620142    2959.8484    1.0054631 
   98000    280.19032   -952.31535    2.8611779    1.8428156    10751.534    1.0109801 
  100000    341.75839   -951.83564    3.4898834      2.02779   -597.80538    1.0075443 
  102000    282.29097   -951.81111    2.8826287    2.0287998   -3123.8757    1.0051178 
  104000     277.8262   -952.19949    2.8370366    2.4595211    2158.7892    1.0120242 
  106000     285.0294   -951.84067    2.9105924    2.1570694     -4538.92    1.0067252 
  108000    277.20592   -952.06987    2.8307025    1.9435775     704.0614    1.0066229 
  110000    306.29709   -952.40674    3.1277684    1.9907587    1816.2754    1.0050539 
  112000    276.62215   -952.13366    2.8247414    1.7642325    9424.8346    1.0091962 
  114000    258.78972   -952.05624    2.6426445    2.1777155    -14574.31    1.0026045 
  116000    293.21794   -952.50885    2.9942101      1.98423   -7491.8447    1.0052687 
  118000    268.25586   -952.54726    2.7393085     1.523403    13923.978    1.0101449 
  120000    253.78825   -951.99572    2.5915718    1.9253548    3517.5351    1.0063804 
  122000    268.03676   -951.87366    2.7370712     1.670079    6773.5971    1.0041034 
  124000    340.89575   -952.40278    3.4810745    2.1228161   -5170.2064    1.0055679 
  126000    287.18091    -952.4158    2.9325626    2.2810379   -8624.6793    1.0074002 
  128000    279.80523   -951.62959    2.8572455    2.4640477   -5136.3403    1.0065957 
  130000    296.44803    -952.4669    3.0271943    2.0278267    3878.9223    1.0127833 
  132000    276.68028   -952.10687    2.8253349    1.9783142      1827.76      1.00706 
  134000     275.5649   -952.85557    2.8139452    2.1176562   -7082.0105    1.0056355 
  136000    331.70665   -952.25217    3.3872395    2.2404249    -8826.762    1.0045154 
  138000    302.01538   -952.10698    3.0840456    2.3500788   -4387.3993    1.0040356 
  140000    295.09437   -952.24498    3.0133713    2.2152766   -1734.3604    1.0062627 
  142000    307.73402   -951.92582    3.1424418    2.6585323   -9582.1337    1.0036104 
  144000    265.51462   -951.92605    2.7113162    2.0383082    1150.3392    1.0043862 
  146000    305.46294   -951.73713    3.1192506    2.5425611   -2694.9967    1.0125478 
  148000    271.31502   -952.45416    2.7705473    2.0618137   -5331.9816    1.0037037 
  150000    266.95453   -952.36889    2.7260199     1.738691    1939.6468    1.0039788 
  152000    263.11202   -952.44113    2.6867819    2.0660236   -1344.5834    1.0110031 
  154000    283.59615   -951.89556    2.8959566    1.4147342    5183.2438    1.0044113 
  156000    281.95057   -951.90179    2.8791528    2.5617625   -7451.6665    1.0119252 
  158000    307.35614   -952.29598    3.1385831    2.2807482    -4918.641    1.0037214 
  160000    296.74837   -952.34858    3.0302613    2.2019454   -9633.3986    1.0036132 
  162000    336.28874   -952.28357    3.4340298    1.9879996   -1226.6105    1.0051875 
  164000    294.35413   -952.18508    3.0058124    2.5435748     -8170.78    1.0034726 
  166000    321.44593   -952.31983    3.2824616    2.2332466     4406.388     1.013055 
  168000    350.02154   -952.34087    3.5742629     1.960469    3335.5328    1.0074143 
  170000    302.90658   -952.01881    3.0931461    1.9775322    6728.2731    1.0091963 
  172000    239.87275   -952.16104     2.449473    1.6492729    6218.4725    1.0119585 
  174000    331.09887   -951.95651    3.3810332    2.1869617    7353.3955    1.0082812 
  176000    274.92834   -952.07894    2.8074448    1.6019808    14247.153    1.0127791 
  178000    273.26569   -952.18483    2.7904667    1.6551089    9957.7039     1.010787 
  180000    314.32353   -952.10703    3.2097309    2.6094901   -5714.7731    1.0071666 
  182000    257.31695   -951.82343    2.6276053    2.6191972   -4213.1518    1.0121384 
  184000    272.72573   -952.09383    2.7849528    2.0226444    608.03842    1.0094231 
  186000    290.16235   -952.26647    2.9630078    2.2070841   -5681.4263    1.0032704 
  188000    268.50831   -952.14022    2.7418864    2.1297443    1074.0138    1.0088403 
  190000     313.3985    -952.2052     3.200285    2.0935807    6479.4639    1.0096169 
  192000    266.70547   -952.41615    2.7234767    1.6550503    8902.4355    1.0126913 
  194000    276.30096   -952.12644    2.8214614    1.9641182    15192.553    1.0124534 
  196000    283.55149   -952.29499    2.8955006    2.2597847   -1321.7258     1.009129 
  198000    261.17312   -952.56405    2.6669828    2.6873233   -5892.4151    1.0075707 
  200000    285.56677    -952.1414    2.9160798      2.37105   -5647.5519    1.0046117 
  202000    288.68368   -951.97433    2.9479082    2.0693121     8398.713    1.0122852 
  204000    258.77964   -952.49542    2.6425416    2.1006734   -1823.2997    1.0087447 
  206000    336.15665   -952.09027    3.4326809    2.3096145     1197.579     1.006234 
  208000    279.90157   -952.10726    2.8582293    1.5084394    18135.255    1.0117974 
  210000    269.05105   -951.72482    2.7474286       2.1287   -5443.0252     1.007194 
  212000     261.3927   -952.45833     2.669225    2.7755183   -7120.0941     1.006623 
  214000    290.52301   -952.41889    2.9666907    2.6314663   -10259.583    1.0057711 
  216000    297.48614   -952.48249     3.037795    1.7627536    9237.0187    1.0103894 
  218000    267.75427   -951.79236    2.7341865    1.7040347    2005.5647    1.0028703 
  220000    307.26123   -952.35022    3.1376139     1.931871    1167.5745    1.0115412 
  222000    253.44414   -952.50938    2.5880579    2.3093301   -7706.1984    1.0066388 
  224000     294.0057   -951.47417    3.0022544    2.7865597   -11048.849    1.0042105 
  226000    296.28252   -952.09586    3.0255042    1.9985942   -3195.2424    1.0067142 
  228000    228.89981    -951.8062    2.3374221    2.0302971    6506.4625    1.0072279 
  230000    307.85604   -952.23482    3.1436878    1.8363077    12310.766    1.0097054 
  232000    287.52397   -952.45683    2.9360658     2.016364    1530.9534    1.0129285 
  234000    302.51684   -952.01014    3.0891662    2.9099666   -11085.991    1.0066914 
  236000    258.80497   -952.12251    2.6428003    2.8380134   -7260.8025    1.0052016 
  238000    262.96684   -951.71834    2.6852994    1.5971092    9272.6221    1.0079925 
  240000    299.15951   -952.29482    3.0548827    2.3703605   -4728.2301    1.0085325 
  242000    314.50813   -952.43618    3.2116159     2.096312    -2304.848    1.0042489 
  244000     297.0053    -951.8552    3.0328849     1.969502   -2645.4725    1.0024041 
  246000     346.3359   -952.14761    3.5366269    2.5505183   -3463.5209    1.0074761 
  248000    312.16005   -952.02574    3.1876384    2.3810879   -7693.8257    1.0045612 
  250000    297.53201   -952.06025    3.0382634    1.6705136    3444.0507    1.0052335 
  252000    313.60572   -952.75356    3.2024009    1.8188012    3290.3485    1.0084488 
  254000    376.77604    -951.8342    3.8474679    2.2890541   -5131.5346    1.0039461 
  256000    303.40433    -952.2718    3.0982289    2.1627208   -11950.938    1.0026189 
  258000    293.77306   -951.76778    2.9998788    2.2925159   -8193.9607    1.0053558 
  260000    271.29518   -951.75224    2.7703447    1.8835452    8047.8512    1.0097164 
  262000     297.4735   -952.07658    3.0376659    1.8958689   -6689.9833    1.0037163 
  264000    315.19935    -952.2317    3.2186743    2.7121778   -10443.976    1.0055832 
  266000    269.28118   -952.12592    2.7497786    1.3940014    10082.755     1.010341 
  268000    294.99568   -951.79173    3.0123636    2.2782503    -670.6389    1.0071615 
  270000    305.42111   -951.85269    3.1188234    2.3959094    3496.7128    1.0086632 
  272000    301.22955   -952.21891    3.0760211    1.4450683     7688.929    1.0077497 
  274000    231.20802   -951.87108    2.3609926    2.0192697    6256.1486    1.0127212 
  276000    292.24147   -952.31473    2.9842389    2.5155077   -8043.8135    1.0075836 
  278000    342.24627   -952.57774    3.4948653    1.9163851   -4078.9563    1.0050107 
  280000    277.38366   -951.66254    2.8325175    2.0755503   -3869.3762    1.0075086 
  282000    307.85342   -952.28235     3.143661    1.7888139   -4073.2422    1.0028274 
  284000    313.71048   -952.29768    3.2034707    2.0003016   -7413.5695    1.0060105 
  286000    314.18048   -952.08108    3.2082702    2.4039795    1542.2754    1.0114604 
  288000    268.12458   -952.86269    2.7379679    1.7883283    244.54428    1.0069871 
  290000    316.65162   -951.79463    3.2335043    1.7425997    8330.1118    1.0109257 
  292000    278.51333   -952.14699    2.8440532    2.3010245   -8804.7188      1.00198 
  294000    245.72213   -951.94111    2.5092042    2.0670295    1091.2512    1.0049236 
  296000    337.44844   -951.90483    3.4458721    2.7429197   -16798.445    1.0012168 
  298000    298.24865   -952.45992    3.0455815    2.3493201    4644.6751    1.0122378 
  300000    288.73614   -952.13453     2.948444    2.1281994    904.11869     1.007108 
  302000    308.59318   -952.47683    3.1512152    2.1902705    1695.1879    1.0115624 
  304000    300.25011   -951.91439    3.0660195    1.7825953    1641.8738    1.0048468 
  306000    307.37574   -951.94587    3.1387832    2.7836692   -2618.0315    1.0081998 
  308000    311.82437   -952.17464    3.1842106    2.2455267   -3808.3666    1.0049595 
  310000    330.14997   -951.93401    3.3713434    2.0683047    -4583.905    1.0072787 
  312000     310.6151   -951.74353    3.1718621       2.2443   -3914.6366    1.0041092 
  314000    294.66299   -952.60457    3.0089663    2.0934863    7296.4591    1.0120729 
  316000    331.18912   -952.50392    3.3819548    1.6917561    2824.7151    1.0040913 
  318000    264.58709   -951.43663    2.7018446    2.0175834    14617.774    1.0111985 
  320000    300.43439   -952.07397    3.0679013    1.4421542    2603.4867    1.0049901 
  322000    284.88166   -952.02649    2.9090837    2.1174611    5287.5793    1.0118093 
  324000    308.58267   -951.67199    3.1511078    2.4897821   -3949.2891    1.0060048 
  326000    358.93393   -952.09602    3.6652723    2.7123857   -4219.5161    1.0097595 
  328000    311.67971    -952.2856    3.1827334    2.8216514   -12912.275    1.0062293 
  330000    339.00688   -952.02038    3.4617862    2.7712843    -11230.23    1.0038235 
  332000    317.26565   -952.30739    3.2397745     2.213095    799.88975    1.0091811 
  334000     283.0958    -952.4863    2.8908473    1.9052627    1036.3744    1.0088309 
  336000    334.09075   -951.84901    3.4115849    2.1547703    1961.7059     1.007596 
  338000    252.07865   -951.87045    2.5741141    2.3571717    1853.9858    1.0079901 
  340000    301.02129   -951.86829    3.0738944    2.0368655    10376.582    1.0093504 
  342000    300.89737   -951.91658     3.072629    2.2027893   -7362.2389    1.0054544 
  344000    308.21392    -952.1219    3.1473423    2.2725843   -5556.8453    1.0065978 
  346000    293.65746   -952.32858    2.9986983    1.9744738   -2078.9423    1.0057345 
  348000    308.68003   -951.99948     3.152102    2.9926608   -12146.701    1.0049782 
  350000     319.3897   -951.78338    3.2614643    2.5716666   -4171.9121    1.0088294 
  352000    267.49868   -951.94859    2.7315766    1.9717175   -2049.8954    1.0076415 
  354000    244.89892    -952.4793    2.5007979    1.9294193   -4811.8962     1.005788 
  356000     320.5064    -952.6222    3.2728676    2.1760217   -2378.3975    1.0070247 
  358000    261.48672   -951.95362    2.6701851    1.9837038     15376.96    1.0120487 
  360000     285.6775   -952.20204    2.9172105    2.5022447    433.11805    1.0120524 
  362000    333.84825   -952.17316    3.4091085    1.8109326    6504.0559    1.0099616 
  364000    304.11128   -952.62994     3.105448    2.0803425    2567.5309    1.0073952 
  366000    313.75756    -951.9765    3.2039515    2.1590028   -4366.1678    1.0071164 
  368000     242.8172   -952.09809    2.4795403     3.177372   -10993.377     1.007282 
  370000    336.65026   -952.13168    3.4377215     2.077794    7373.2902    1.0108878 
  372000    289.39641   -951.98458    2.9551863    2.2376332    6274.7287    1.0121191 
  374000    303.81657   -952.21944    3.1024385     1.984379     1562.201    1.0076786 
  376000    300.08897   -952.01762    3.0643739    2.6240256    10561.194    1.0148907 
  378000    266.41484   -952.23897    2.7205089    2.0551434   -3482.4518    1.0052679 
  380000    302.52419   -951.75028    3.0892413     2.964817   -11898.197    1.0041354 
  382000     286.9998   -952.08862    2.9307132    2.2862085   -5654.6609    1.0057616 
  384000    304.93819    -952.2655    3.1138921    2.1169149    541.96006    1.0080273 
  386000    300.40435   -952.31373    3.0675945    1.9849861    677.69654    1.0082174 
  388000    297.09339   -951.79646    3.0337845    2.3942781    7975.2076    1.0100632 
  390000    263.07842   -952.10602    2.6864389    2.0793893    3783.6982    1.0078539 
  392000    271.05275   -951.91302    2.7678691    2.3718349   -3140.0572    1.0060426 
  394000    237.13745   -952.23813    2.4215413    2.0249849    -2068.077    1.0077292 
  396000    275.26288   -952.16784    2.8108611    1.7794628   -4915.6292    1.0029769 
  398000    302.08429   -952.56412    3.0847493    2.1068069   -1202.3441    1.0056511 
  400000    331.67587   -952.07281    3.3869252    2.1345931    3906.6006    1.0079182 
  402000    330.45449   -952.47646     3.374453    2.2545392    1598.9818    1.0064909 
  404000    288.23437   -951.73619    2.9433201    1.7609704     10318.07    1.0089362 
  406000    271.29792   -952.12229    2.7703727    2.7780022    -2566.541    1.0065463 
  408000    298.12532   -952.24657    3.0443221    1.7771726    2982.1831    1.0088272 
  410000    304.36633   -952.09588    3.1080524    1.7048998    3143.3636     1.006948 
  412000    284.07452   -952.31708    2.9008416    2.0020307    4771.4494    1.0071562 
  414000    323.54479   -952.03311    3.3038943    2.9733631   -12346.921    1.0076457 
  416000    317.04856   -952.37759    3.2375577    1.9083178    2080.0703    1.0061807 
  418000    259.75671   -952.43506     2.652519     1.792382   -3117.3778    1.0066967 
  420000    284.14662   -951.99222    2.9015779    1.3982405    12003.573      1.01308 
  422000    284.85472   -952.23564    2.9088086    2.5305548   -7763.9302    1.0072146 
  424000    311.73094   -952.60262    3.1832566    2.1330061    7275.9102    1.0080066 
  426000    262.00531    -951.9584    2.6754807    1.9713655    17754.016    1.0149146 
  428000    294.75922   -952.23409     3.009949    1.8009893    3114.3522     1.008198 
  430000    242.66704   -952.13358     2.478007    2.8375099   -14456.004    1.0035774 
  432000    306.01805   -952.38299    3.1249191    2.2436953   -4430.9697    1.0076835 
  434000    302.73623   -952.13607    3.0914066    2.8613462   -3884.1527     1.007626 
  436000     271.2047   -951.64008    2.7694208    2.3625722    -2898.921    1.0090038 
  438000    315.62608   -952.34657     3.223032    2.2129198   -207.85694    1.0098615 
  440000    348.53624   -952.16185    3.5590957    1.5872746    4456.2123    1.0115187 
  442000    315.08395   -951.85667     3.217496    2.1251957    4149.9439    1.0116623 
  444000    288.67966   -951.93014    2.9478672    1.8469249    1219.7807    1.0088991 
  446000    298.66379   -952.47145    3.0498207    1.9025335   -1678.9179    1.0078639 
  448000    285.10321   -952.20162    2.9113461    2.0837339    5987.6207    1.0078704 
  450000    290.42423   -951.49995    2.9656819    2.2119514    5544.3496    1.0157444 
  452000    300.97882   -952.01028    3.0734607    2.1880809    5939.2891    1.0110914 
  454000    299.97075   -952.16003    3.0631667     2.354576   -2484.4507    1.0039485 
  456000    324.70042   -952.34067    3.3156951    2.1127725   -3449.8472    1.0054879 
  458000    279.70549   -952.17732     2.856227    1.9726259   -2689.7215    1.0065759 
  460000    300.18647   -952.45836    3.0653696    2.0666185    2177.0003    1.0081315 
  462000    273.94703   -952.41311    2.7974242    1.8614647    6988.6715    1.0097818 
  464000    286.63284   -951.96419     2.926966    2.4039998   -11080.858    1.0041886 
  466000     289.4319   -952.32649    2.9555487    2.5327977   -8272.2276    1.0074988 
  468000     265.6395    -952.2635    2.7125915    1.5301493    9036.7666    1.0085509 
  470000     310.7867   -951.27794    3.1736144     2.405672    657.40704    1.0108299 
  472000    318.84476   -952.48736    3.2558996    1.8838226     1404.863    1.0095712 
  474000    308.11942   -952.30156    3.1463773    2.8844815   -18787.845    1.0016851 
  476000    331.16501    -952.1497    3.3817085    2.4146078   -4766.5141    1.0082987 
  478000    266.89216   -952.13114     2.725383      2.69811   -6929.1388     1.005176 
  480000    294.39059   -952.16673    3.0061847    2.3424275   -7338.6878    1.0056735 
  482000    249.12835   -952.61001    2.5439869    2.2055778   -3697.4837     1.006535 
  484000    310.38004   -952.00497    3.1694618    2.4177597   -4285.1857    1.0099324 
  486000     337.2306   -952.25342    3.4436476    1.5978815    5088.2272    1.0070149 
  488000    226.50437   -952.32712     2.312961    2.0704702    3145.0854    1.0117005 
  490000    330.89327   -952.44169    3.3789337    1.9132189    6027.3725    1.0056123 
  492000    307.52549   -952.71727    3.1403124    1.7319438    1337.5139    1.0038249 
  494000    301.10227   -952.41225    3.0747213    1.5786051    -1230.378    1.0092778 
  496000    289.03583   -951.84064    2.9515042    2.3874846   -9434.8157    1.0045227 
  498000    297.57677   -952.13614    3.0387205    2.2735837    211.42851    1.0102181 
  500000    310.41592   -952.32896    3.1698282    2.2281082   -3647.2378    1.0054903 
  502000    255.93328   -952.02896    2.6134758    1.9264891    11371.892    1.0106912 
  504000    287.43366   -951.99458    2.9351436    2.5789113   -3092.1792    1.0091594 
  506000    271.06217   -951.79918    2.7679653    3.1382361   -18956.195    1.0033489 
  508000    300.38424   -952.64418    3.0673891    1.5269643    5759.0583    1.0067151 
  510000    323.39657   -952.49281    3.3023807    2.3234423   -5232.1465    1.0062048 
  512000    347.34736   -952.53919    3.5469554    2.4280101   -11052.533    1.0046774 
  514000    315.81814   -952.20461    3.2249932    2.5850233   -10238.823    1.0038141 
  516000    300.45546   -951.79519    3.0681164    2.6662916   -5589.4472    1.0097422 
  518000    290.22355    -951.9163    2.9636327    1.7450816    8263.3021     1.007772 
  520000    300.48895   -952.29133    3.0684583    1.9987677   -3640.7371    1.0079299 
  522000    300.28113   -952.33643    3.0663362     2.111238    4359.6231     1.007335 
  524000    280.35052   -952.38816    2.8628137    2.7827917   -5117.0955    1.0086449 
  526000     273.2691   -952.11363    2.7905015    2.1830666   -4852.6834    1.0018388 
  528000    300.00942   -952.48154    3.0635616    1.6600595    704.83985    1.0104213 
  530000    252.36649   -952.18817    2.5770534    1.8022738    12234.825    1.0078952 
  532000    321.73932   -952.05506    3.2854576    1.7144844    6676.2814    1.0068982 
  534000     335.6282   -952.69868    3.4272846    1.9644497    44.561406    1.0075219 
  536000    318.22265   -952.27019     3.249547    2.1098912   -4423.4312    1.0058083 
  538000    331.80385   -952.13564    3.3882321     1.819658    4176.4046    1.0099121 
  540000    285.50931   -952.25508     2.915493    1.7106274   -2727.8281    1.0028573 
  542000    264.54907   -951.98948    2.7014565    2.1252842    1060.3137    1.0067283 
  544000    334.55559   -952.38839    3.4163317    2.1836846   -7766.2445    1.0025554 
  546000    241.93994   -952.39578    2.4705822    1.9653613    6142.2263    1.0119729 
  548000    296.44224   -951.71587    3.0271352    2.9783023   -16969.018    1.0016506 
  550000    291.55816   -952.35779    2.9772611    2.0782297   -4423.4426    1.0073325 
  552000    273.92462   -952.46297    2.7971954    2.2708874      2263.54    1.0094134 
  554000    292.57158   -952.16374    2.9876098    3.1706138   -11645.285    1.0069178 
  556000    297.74853   -952.50405    3.0404744    2.3648148   -3729.2931    1.0057212 
  558000    288.06063   -952.35523     2.941546    2.1989952    124.44014    1.0083986 
  560000    250.64615   -951.73459    2.5594861    1.9995576   -505.36437    1.0090003 
  562000    279.39529   -951.75208    2.8530594    2.5155394   -10694.358    1.0049972 
  564000    328.11405    -952.0458    3.3505535    1.9918326    3427.9267    1.0085612 
  566000    285.98978   -952.14406    2.9203993     2.425866    -11381.24    1.0052662 
  568000    309.20412   -952.11732    3.1574538    2.0075562   -18.835068    1.0051325 
  570000    308.91352   -952.35448    3.1544863    2.2599006    2939.9141    1.0125348 
  572000    325.06173   -952.12214    3.3193846     2.115562     4657.776    1.0093148 
  574000    295.49168   -952.31064    3.0174285    1.7632718    14444.429    1.0141071 
  576000    291.33639   -952.32032    2.9749965    1.9127581    4525.1438    1.0119101 
  578000    271.13754   -952.29738     2.768735    1.8226822    12461.758    1.0099182 
  580000    301.73914   -952.44217    3.0812248    2.2819561   -7317.1329    1.0062683 
  582000    301.38515   -951.77059      3.07761    2.1814326   -6503.9666    1.0065044 
  584000     321.0632   -952.30695    3.2785534    2.3760028   -882.73729    1.0041565 
  586000    349.01751   -952.36448    3.5640103    2.1966357   -1723.5394    1.0090895 
  588000    280.53666   -952.06838    2.8647145    1.4333447    9061.5523    1.0105728 
  590000    275.76892   -952.44176    2.8160285    1.7579334    6755.5645    1.0100616 
  592000    279.97087   -952.05503    2.8589369    2.1862764     1803.474    1.0072596 
  594000    298.64743   -951.98721    3.0496536    2.1180526   -679.21901    1.0058543 
  596000    310.92604    -952.4534    3.1750372     1.939032    8277.4291    1.0102619 
  598000     337.4653   -951.97083    3.4460443    2.1085086    9550.3698    1.0104509 
  600000    322.69981   -952.02025    3.2952657    2.6732216     -8985.54    1.0047879 
  602000    312.24058   -951.77382    3.1884607    1.8317902    4041.4398    1.0100243 
  604000     272.0473    -952.1313     2.778025    2.3365279     -7672.69    1.0042403 
  606000    287.97464   -951.50012    2.9406679    2.6348306   -9553.7992    1.0084579 
  608000    339.80349   -952.08108    3.4699209    2.4513676   -7311.4278    1.0033582 
  610000    305.97436   -952.35654     3.124473    1.9900967     7161.636    1.0122421 
  612000    289.91927     -951.959    2.9605255    2.2698221   -3263.1141    1.0063592 
  614000    289.38125   -951.87695    2.9550316    2.3391913   -1875.3877    1.0084429 
  616000    261.92338   -951.72324    2.6746441    2.2000065    1564.3439     1.006493 
  618000    298.59884   -952.19341    3.0491574    1.7088018    4010.3123    1.0053495 
  620000    284.01298   -951.92403    2.9002132    2.0035102   -7548.9531    1.0032146 
  622000     320.6327   -951.96844    3.2741573    2.3703416   -678.89713    1.0082721 
  624000    254.91007   -952.35785    2.6030273    2.0450637    154.58833    1.0080246 
  626000    280.48726   -952.42887    2.8642101    2.2809515   -1107.4952    1.0081142 
  628000    251.07081   -952.38835    2.5638225    2.2753682   -84.509424      1.00627 
  630000      304.849   -951.80444    3.1129812    1.4807392    10903.774    1.0103136 
  632000    351.10708   -951.74125     3.585348    2.0952293   -4392.0428    1.0047343 
  634000    330.45539   -952.12752    3.3744622    2.2897173    2826.4633    1.0082038 
  636000    317.95528   -952.36848    3.2468167    2.0587856    4712.4696    1.0068001 
  638000    306.96902   -952.12644      3.13463       2.4913   -6284.0432    1.0017737 
  640000    289.02723   -952.16536    2.9514164    2.1981242    -11155.66    1.0041486 
  642000     302.4449   -952.45772    3.0884317    1.9081678   -3213.2766    1.0071308 
  644000    271.46615   -952.39439    2.7720906    2.3635787   -5744.3539    1.0084273 
  646000    312.54834    -952.5978    3.1916034    2.3126591   -1124.0426    1.0066831 
  648000    288.82389   -952.53937      2.94934    1.8351378    4951.2503    1.0074092 
  650000    272.96451   -951.45048    2.7873911    1.9087454    8516.1486    1.0073106 
  652000    359.64575   -952.38335     3.672541     1.711294    10518.584      1.01193 
  654000    298.06189   -952.73096    3.0436743     2.460245   -6111.7599    1.0051711 
  656000    299.90453   -951.97997    3.0624905    2.2206804     3898.693    1.0111711 
  658000    310.36355   -951.73279    3.1692933    2.1983544   -788.44005    1.0093313 
  660000    331.83412   -952.29187    3.3885412    2.2854372   -5718.4031    1.0090887 
  662000    290.09416   -952.04914    2.9623115    2.2011409    544.53429    1.0067818 
  664000    285.93838   -952.48364    2.9198745    2.0331569    4821.9434    1.0104163 
  666000    325.31962    -952.3725    3.3220181    2.1934535   -5397.8703    1.0031772 
  668000    331.99938   -951.85461    3.3902287    2.0024136   -4700.6932     1.000505 
  670000    284.30942   -952.18279    2.9032403     1.789081    3341.0074    1.0055015 
  672000    273.57679   -952.35231    2.7936435    1.5615009    13190.489    1.0113374 
  674000    310.79639   -952.67146    3.1737133    1.9677083    2128.5014    1.0085773 
  676000    313.25894   -952.26578    3.1988598    2.0735206    7983.7889    1.0109651 
  678000    304.74854   -951.86662    3.1119554    2.0947218    -291.8196    1.0044647 
  680000    326.30957   -952.07974     3.332127    1.8694277   -1262.4517    1.0062402 
  682000    306.19497   -951.99877    3.1267257    1.9563486   -4757.8403    1.0052765 
  684000    257.25853   -952.41604    2.6270087    2.0216534    850.82517    1.0080506 
  686000    303.78096   -952.11924    3.1020749    2.4641903   -4448.7478    1.0094641 
  688000    330.22779   -952.26225    3.3721381    2.0862537   -2223.1782    1.0093232 
  690000    247.14743   -952.06962    2.5237587    1.9618034    1664.4342    1.0106454 
  692000    272.51513   -951.97627    2.7828023    1.6402235    4956.1454    1.0111683 
  694000    355.42869   -952.45113    3.6294784    1.8793265   -964.27002    1.0049904 
  696000    291.99876   -952.33575    2.9817603    1.7589771    699.68816    1.0080631 
  698000    311.94951   -952.18058    3.1854884    2.3080463   -8584.1751    1.0052548 
  700000     263.9237   -951.97096    2.6950705    1.8335351   -1569.2218    1.0060784 
  702000    251.63478     -952.099    2.5695815    1.6011979    14564.223    1.0130958 
  704000    318.14083   -951.45219    3.2487115    2.5748378   -2027.2209    1.0096967 
  706000    337.91293    -951.7606    3.4506153    2.7653355   -8946.2988    1.0025417 
  708000    294.02923   -952.26537    3.0024946    2.4876611   -195.02879    1.0079753 
  710000    275.60439   -952.59923    2.8143485    2.8466786   -4497.9064     1.010309 
  712000    296.97838   -952.35254      3.03261     1.975713    3309.3086    1.0074477 
  714000    282.14495   -951.97636    2.8811376    2.4889498   -2345.3002    1.0104508 
  716000    346.58703   -952.17432    3.5391913    2.3882609   -4021.5242    1.0057075 
  718000    296.71973   -951.91824    3.0299688    2.4834658   -7153.8704    1.0084146 
  720000    331.15764   -952.50342    3.3816333    2.5206103   -8304.1134     1.006526 
  722000    265.84208   -951.98669      2.71466    2.4001196   -2526.4553    1.0102611 
  724000    263.13055   -952.40704    2.6869712    1.6173852    12658.989    1.0135814 
  726000    335.34597   -952.87387    3.4244026     1.874799    3285.5568     1.007192 
  728000    312.38461   -952.11588    3.1899315    2.2740962    5901.6875    1.0122803 
  730000    312.73113   -952.20382    3.1934701    2.6257504   -9539.3156     1.004609 
  732000    296.31243   -952.34052    3.0258097     2.452037   -995.68599    1.0094474 
  734000    300.23237   -952.18969    3.0658383    2.2866308   -672.21696    1.0086243 
  736000    333.05445   -952.06701    3.4010027    1.7058123   -3923.7766    1.0045734 
  738000    303.75311   -951.85253    3.1017905    1.9590441   -2295.6628    1.0069174 
  740000    307.82554   -952.37602    3.1433763    2.4960221   -6550.7198    1.0064308 
  742000    322.00016    -952.3149    3.2881212    1.9169578   -779.61868     1.006105 
  744000    264.36776   -952.42829     2.699605    1.4820269    2623.4809    1.0050571 
  746000    284.11953   -952.09692    2.9013012    1.9860432   -3586.6454     1.008134 
  748000    308.24048   -952.02686    3.1476136     2.034347     6413.166    1.0092956 
  750000    279.37838     -952.186    2.8528867    2.2246947   -6928.4945     1.004892 
  752000    278.89522   -951.88962    2.8479529    2.5986714   -4760.2593    1.0046891 
  754000    267.68587   -952.11133     2.733488    2.3496955   -4091.1852    1.0076415 
  756000    292.92476   -952.30513    2.9912162    2.3934716    2327.9194    1.0083846 
  758000    336.83123     -952.528    3.4395695    2.0070118    1012.5661    1.0081095 
  760000    290.98013   -952.15056    2.9713586    1.4004582    9766.6319    1.0094781 
  762000    296.58352   -952.96782    3.0285779    1.7086262   -1747.4697    1.0037358 
  764000    285.69963    -952.1675    2.9174365    2.3950372    3915.7329    1.0089332 
  766000    297.60498   -951.72351    3.0390086    2.2604871    5100.4822    1.0096574 
  768000    249.02738    -951.7874    2.5429559    2.4635108    96.466435    1.0056232 
  770000    290.87773   -952.39518    2.9703129    2.1946428    807.00835    1.0074284 
  772000    235.68745    -951.8426    2.4067345    2.2863298   -942.54215    1.0069132 
  774000    317.96564   -951.96883    3.2469225    1.7381759   -6680.8636    1.0030669 
  776000    318.99991   -951.78574     3.257484    2.2393451    1492.7737    1.0099508 
  778000    296.39926   -951.24906    3.0266963    2.6141856   -12559.486    1.0058289 
  780000    315.98828   -951.97876    3.2267305    2.1726587   -3176.8723    1.0060102 
  782000    286.96201    -951.4207    2.9303273    1.7277986   -751.04408    1.0049831 
  784000    289.09634   -952.34801    2.9521222    1.8998118    8870.8502    1.0108448 
  786000     277.8107   -951.96024    2.8368783    2.3988331   -995.00677      1.00907 
  788000    325.10843   -951.81316    3.3198615    2.9457231     -19233.2    1.0005081 
  790000     348.8221   -951.98658    3.5620148    2.5731818   -5368.0971     1.003767 
  792000    305.17883   -952.12441    3.1163493    3.0943638   -20303.986    1.0043728 
  794000    307.45748   -952.33798    3.1396179    1.9185928   -141.36542    1.0068462 
  796000    315.10223   -952.41864    3.2176827    1.8115627    9176.8832    1.0086664 
  798000    338.59893   -952.79519    3.4576204    2.2504755    -3014.924    1.0058694 
  800000     307.4257   -952.22139    3.1392933    2.1940491    -10226.06    1.0045395 
Loop time of 2836.83 on 1 procs for 800000 steps with 80 atoms

Performance: 2.437 ns/day, 9.850 hours/ns, 282.005 timesteps/s
100.0% CPU use with 1 MPI tasks x no OpenMP threads

MPI task timing breakdown:
Section |  min time  |  avg time  |  max time  |%varavg| %total
---------------------------------------------------------------
Pair    | 2287.9     | 2287.9     | 2287.9     |   0.0 | 80.65
Bond    | 4.3476     | 4.3476     | 4.3476     |   0.0 |  0.15
Kspace  | 327.44     | 327.44     | 327.44     |   0.0 | 11.54
Neigh   | 1.5436     | 1.5436     | 1.5436     |   0.0 |  0.05
Comm    | 82.149     | 82.149     | 82.149     |   0.0 |  2.90
Output  | 0.061202   | 0.061202   | 0.061202   |   0.0 |  0.00
Modify  | 128.48     | 128.48     | 128.48     |   0.0 |  4.53
Other   |            | 4.866      |            |       |  0.17

Nlocal:    80 ave 80 max 80 min
Histogram: 1 0 0 0 0 0 0 0 0 0
Nghost:    6803 ave 6803 max 6803 min
Histogram: 1 0 0 0 0 0 0 0 0 0
Neighs:    67298 ave 67298 max 67298 min
Histogram: 1 0 0 0 0 0 0 0 0 0

Total # of neighbors = 67298
Ave neighs/atom = 841.225
Ave special neighs/atom = 1.5
Neighbor list builds = 528
Dangerous builds = 0
unfix 1
unfix 333
fix 1 all nvt temp $T $T ${tdamp}
fix 1 all nvt temp 298 $T ${tdamp}
fix 1 all nvt temp 298 298 ${tdamp}
fix 1 all nvt temp 298 298 0.001

reset_timestep 0
variable     pxy equal pxy
variable     pxz equal pxz
variable     pyz equal pyz
fix          SS all ave/correlate $s $p $d              v_pxy v_pxz v_pyz type auto file S0St.dat ave running
fix          SS all ave/correlate 5 $p $d              v_pxy v_pxz v_pyz type auto file S0St.dat ave running
fix          SS all ave/correlate 5 400 $d              v_pxy v_pxz v_pyz type auto file S0St.dat ave running
fix          SS all ave/correlate 5 400 2000              v_pxy v_pxz v_pyz type auto file S0St.dat ave running
variable     scale equal ${convert}/(${kB}*$T)*$V*$s*${dt}
variable     scale equal 1e-32/(${kB}*$T)*$V*$s*${dt}
variable     scale equal 1e-32/(1.3806504e-23*$T)*$V*$s*${dt}
variable     scale equal 1e-32/(1.3806504e-23*298)*$V*$s*${dt}
variable     scale equal 1e-32/(1.3806504e-23*298)*6539.40617516188*$s*${dt}
variable     scale equal 1e-32/(1.3806504e-23*298)*6539.40617516188*5*${dt}
variable     scale equal 1e-32/(1.3806504e-23*298)*6539.40617516188*5*0.0001
variable     v11 equal trap(f_SS[3])*${scale}
variable     v11 equal trap(f_SS[3])*7.94709363935764e-12
variable     v22 equal trap(f_SS[4])*${scale}
variable     v22 equal trap(f_SS[4])*7.94709363935764e-12
variable     v33 equal trap(f_SS[5])*${scale}
variable     v33 equal trap(f_SS[5])*7.94709363935764e-12
variable     v equal (v_v11+v_v22+v_v33)/3.0
fix          333 all print $d "${ILstep} ${ILtime} ${ILdens} ${ILtemp} ${ILpr} ${ILpe} ${v}" file visco.dat screen no
fix          333 all print 2000 "${ILstep} ${ILtime} ${ILdens} ${ILtemp} ${ILpr} ${ILpe} ${v}" file visco.dat screen no
thermo_style custom step temp pe press v_pxy v_pxz v_pyz v_v11 v_v22 v_v33
run          8000000
PPPM initialization ...
  using 12-bit tables for long-range coulomb (/home/conda/feedstock_root/build_artifacts/lammps_1526417570236/work/src/kspace.cpp:321)
  G vector (1/distance) = 0.0937255
  grid = 4 4 4
  stencil order = 5
  estimated absolute RMS force accuracy = 9.98047e-05
  estimated relative force accuracy = 6.93105e-06
  using double precision FFTs
  3d grid and FFT values/proc = 729 64
Per MPI rank memory allocation (min/avg/max) = 9.207 | 9.207 | 9.207 Mbytes
Step Temp PotEng Press v_pxy v_pxz v_pyz v_v11 v_v22 v_v33 
       0     307.4257   -952.21781   -10220.837    643.61033    21630.612   -38855.623 1.6459792e-06 0.0018591565 0.0059990999 
    2000    313.38573   -952.62013   -1772.1728     -5412.83    17667.666   -34538.926  0.022068342    1.5564359    4.4609159 
    4000      268.558   -952.17009   -2069.4935    -4926.828    32702.376   -37378.128  0.033696091    1.6459441    4.2373113 
    6000    332.09463    -952.0045   -10603.165    1283.0237    25210.903   -38854.792  0.026804117    1.6371129    4.2309933 
    8000    249.84929   -952.26734    -2975.022   -7690.8337    20444.272   -38438.625  0.031814082    1.6264841    4.3250783 
   10000    394.98188   -952.28672   -8921.6229   -3635.3822    24011.909   -29874.603  0.032889772    1.6537931    4.4206623 
   12000    345.29514   -952.06087     -3919.93    -4602.839    20802.566   -36702.967  0.031368131    1.6502732    4.3223784 
   14000    274.49921    -952.4252   -4144.8606   -6892.3032    26328.695   -41123.292   0.03174712    1.6358674    4.3579328 
   16000    334.68345   -952.36391   -6485.3745   -124.70138    22941.563   -36465.941  0.029832502    1.6229888    4.4349098 
   18000    299.55844   -951.82009     3541.301   -1709.6417     23682.86   -32417.949  0.032632034    1.6368252    4.3786382 
   20000    308.36402   -951.56368   -4425.0088     1351.229    20426.736   -36101.113  0.033649122    1.6411839    4.3813737 
   22000    251.09622   -952.47758   -5777.9668   -6771.5319      13882.7   -34693.004  0.032642523    1.6343025     4.429799 
   24000    284.27035   -952.42126   -6035.9622   -6283.3468    20801.107   -37468.404  0.032366961     1.629802    4.4087189 
   26000    304.02493   -951.98825   -1091.3136   -2879.2872    26067.353   -35587.584  0.032529599    1.6392643    4.4040179 
   28000    282.31239   -952.39205   -4920.8035    814.39213    26509.926   -34109.261  0.033009283    1.6393552    4.4077246 
   30000     301.5469   -951.95686   -5992.4737   -4103.7325    22362.704   -36725.993   0.03301794    1.6324554    4.4124715 
   32000     282.3822   -951.99965   -6240.1405   -90.224837    24941.973   -35292.821  0.032118558     1.633944     4.402266 
   34000    299.35384   -952.01846    -6316.441    868.82783    21906.001   -36743.119  0.032256734    1.6348306    4.4023954 
   36000    347.08612   -951.99011   -4491.3951    -1538.485    26567.623   -34404.307  0.032344047    1.6349449    4.4400662 
   38000    284.40097   -952.18554   -7914.7082   -6634.9409    20379.118   -32397.592  0.032635654    1.6453701     4.437195 
   40000     313.2738   -952.33546    1892.9869     2846.261    21984.842   -33509.498  0.032609489    1.6432309    4.4207333 
   42000    283.04451   -951.59721   -13421.136    -1954.481    23082.657   -37874.293  0.032441359    1.6438148    4.4415286 
   44000    264.80287   -951.25125   -4227.1282   -885.48871    15593.283   -42225.929  0.032836062    1.6473807     4.451245 
   46000     295.6454   -952.40159    -2578.573   -5680.7405    23361.068   -32080.037  0.033489529    1.6435755    4.4284756 
   48000    267.74564   -952.37608   -10631.537   -2345.5533    17639.085   -35248.427  0.033334422    1.6422187    4.4204677 
   50000    293.72842   -952.16615    4477.6529    367.50033    27062.957   -45791.761  0.032896085    1.6403947    4.4340591 
   52000    317.31253   -952.31749    51.729159   -2706.8714    21266.408   -34753.754  0.033196199    1.6420441     4.438432 
   54000    311.62904   -952.37229    674.06511    3135.9752    24015.309   -41137.558  0.033031138    1.6470891    4.4234713 
   56000    325.17054   -951.83838   -5209.4108   -7148.6658    18865.907   -40827.234   0.03264068    1.6471503    4.4336846 
   58000    276.98975   -952.10865   -5871.4123   -2723.4758    17834.202   -39119.479  0.032692169    1.6465397    4.4410604 
   60000    292.38267   -951.88843    5451.0744    -2570.227    24218.505   -32132.784  0.032585097    1.6490779    4.4426346 
   62000    306.84883   -951.39099   -7229.0061   -13013.003    19788.274   -35878.367  0.032660318    1.6473476     4.431364 
   64000    303.52371   -951.93151   -10588.868   -2165.2658    17175.507   -38927.236  0.033078107    1.6450437    4.4380455 
   66000    236.20425     -951.737   -3089.3886   -6636.4112    22744.422   -37300.272  0.032812032    1.6452628    4.4426436 
   68000    307.09357   -951.78378   -5723.5623   -4813.8593    21980.955    -32450.98  0.032766756    1.6499332    4.4423052 
   70000    305.19314   -952.02145   -4015.0642   -3291.1921    22283.934   -32942.873  0.032796496    1.6486136    4.4501067 
   72000    271.77453   -951.69245   -2267.9654   -5503.3532    24592.596   -35291.421  0.032615034    1.6468003    4.4563004 
   74000    331.62886   -951.74877    10492.749   -5666.0971    24755.694   -32053.431  0.032522536    1.6476421     4.448818 
   76000     317.4647   -951.69542   -9212.5394    -7355.418     19665.37   -29386.461  0.032815219    1.6468955    4.4453141 
   78000    270.35749   -952.09283   -2633.0486   -9628.5896    20141.217   -44435.433  0.033119618    1.6478957    4.4413242 
   80000    281.88407   -951.81391   -3063.9469   -3981.6128    21508.491    -34096.98  0.033064431    1.6489545    4.4472974 
   82000    279.24016   -951.61373    514.94433   -3435.0495    18014.244   -35169.563  0.033218393    1.6469918    4.4381549 
   84000    237.48686   -951.62267     4589.133   -3553.9192    20289.309   -39271.517  0.033199632    1.6459844    4.4437784 
   86000    335.12513   -951.91254   -248.15281   -2834.2475    17482.714   -33191.576  0.032823963    1.6448793    4.4495613 
   88000    268.90774   -951.68955   -700.08623   -6042.9771    20806.397   -34386.752  0.033586844    1.6480637    4.4429714 
   90000    263.96758   -952.05915   -3661.9916   -1171.5543    21733.068   -44210.801  0.033369126     1.645316    4.4388719 
   92000    273.58236   -951.91542   -2126.7848   -11343.179    28292.658   -35197.862  0.033201977    1.6428633    4.4512572 
   94000    316.62035   -951.97044   -9099.4783   -5444.7095     26131.47   -36196.795    0.0330354    1.6437564    4.4464567 
   96000    290.76946   -951.90813   -6573.7261   -6270.5777    26754.057   -37391.127  0.033050997    1.6445777    4.4445625 
   98000    322.31962   -951.54719   -1510.6937    49.704034    19443.688   -40877.057  0.032938188    1.6417425    4.4464112 
  100000    263.30706   -952.10371   -3603.6567   -638.21503    23621.967    -34578.01  0.033324997    1.6435006    4.4507129 
  102000     337.9608   -951.99924   -753.62851   -2947.1229     26960.02   -34090.394   0.03328088    1.6424727    4.4406801 
  104000    280.23918   -952.34781   -5552.3975   -3870.2539    22926.164   -31059.508  0.033235581    1.6419887    4.4421931 
  106000    277.50426   -952.44903   -5889.5939   -2277.0342    29240.864    -43007.47  0.033027409    1.6406783    4.4430051 
  108000    283.14932   -952.05193   -3269.3898   -4377.2556    23490.936   -31462.618  0.033194927    1.6432542    4.4451152 
  110000    265.19022   -951.89261   -9183.0036    -11134.52    25225.795   -37523.172  0.032847613    1.6406305    4.4390313 
  112000    342.48133      -951.88   -7149.0805   -5836.0197    20612.741   -41640.895  0.033024077    1.6408764    4.4419383 
  114000    325.59681   -952.34853   -9488.7491   -3444.1587    26392.382   -34846.929  0.032827132    1.6409145    4.4414078 
  116000     350.2743   -952.07422    5457.6556     1842.757    24537.845   -32760.312  0.032968715    1.6431951    4.4422808 
  118000    303.60629   -951.97976   -11788.246   -6832.9416    24548.652   -36341.793  0.033030583    1.6426887    4.4396982 
  120000    314.11663   -952.05671   -1176.5103   -8126.4251     26266.37   -33986.259  0.032888461    1.6414193    4.4406884 
  122000    299.91925   -952.43575   -1734.8972    2136.8756    19914.941   -37818.485  0.032810917    1.6418287    4.4386367 
  124000    304.70512   -952.12518   -1933.7844   -1044.6788    14584.229   -48464.457  0.033019523    1.6436774    4.4408755 
  126000    322.02402   -952.19659   -2177.2971   -8165.1718    24379.919   -38701.855  0.032852321    1.6410469    4.4427212 
  128000    299.11638   -951.63833     4257.948   -9019.1792    17571.071   -32091.063  0.032753785    1.6408754    4.4407881 
  130000     315.0856    -953.0217   -3605.3439   -5308.2372    27606.614   -41314.475  0.032815019    1.6408135    4.4360078 
  132000    268.22289   -952.05573   -8495.4569     -586.277    19836.962   -40448.744  0.032830591    1.6415983    4.4426078 
  134000    354.68585   -951.94602   -4774.3184    3619.9832    21870.479   -32382.176  0.032582683    1.6365128    4.4427223 
  136000    297.48565   -950.92694    765.80756   -6207.0362    31878.323   -38225.718   0.03291094    1.6382201    4.4355193 
  138000    286.68932   -952.04794   -10039.994    231.56799    26175.155   -33434.839  0.033098559    1.6422217    4.4433556 
  140000    288.08113   -952.40083   -3396.8751    -3416.051    22108.058   -36457.995  0.033015587    1.6406476    4.4494775 
  142000    321.82178   -952.14893    2973.7818   -7638.1754    20555.117   -33865.946  0.033112594    1.6393989    4.4446038 
  144000    292.03129   -951.94406   -2675.1076   -988.70869    18322.778    -36130.09  0.033016119    1.6399921    4.4435106 
  146000    347.33396   -952.15823   -8689.4134   -5723.6084    32186.493   -41544.884  0.033173668    1.6399321    4.4499761 
  148000     282.2509   -951.71172   -3140.3596    -3448.137    17315.718   -31994.493  0.033319491    1.6446007    4.4552047 
  150000     304.3628   -952.52712   -8690.2117   -2694.1736    23196.654   -29201.823  0.033034783    1.6410979    4.4469235 
  152000    313.68583   -952.27606   -4073.1351   -5239.7964    27272.276   -41089.442  0.033101997    1.6408969     4.443621 
  154000    319.65259   -952.04754   -3881.2252   -7127.2909    22430.958   -37506.457  0.033302057    1.6427332    4.4535141 
  156000    314.09217   -952.24329    1759.8244   -5049.8463     18252.33   -37530.276   0.03345805      1.64279    4.4528209 
  158000    325.05822   -952.08168   -13610.572   -7608.5681    20101.652    -34605.68  0.033540789    1.6428021    4.4482969 
  160000     326.8259   -952.58441   -4131.2271   -2781.9038    21360.295   -41594.593  0.033471784    1.6420305    4.4516006 
  162000    292.92411   -952.35788   -5092.4089    -2418.407    20247.491   -40137.146  0.033507646    1.6426146    4.4533315 
  164000    317.32682   -952.16085   -476.48492   -432.05558    21062.987   -37277.456  0.033694597     1.644978    4.4519395 
  166000    274.47375   -952.28988   -8587.6742   -3477.0314    20761.339   -37049.106  0.033608111    1.6460733     4.452021 
  168000    330.94882   -952.17041    -4789.094     3931.425    23918.423   -34163.198  0.033465739    1.6455469    4.4519532 
  170000    272.92976   -951.80138    845.61339   -4679.0006    26590.553   -41011.737  0.033588811    1.6445814    4.4517023 
  172000    344.79108    -951.8969   -2524.8898   -3158.4786    25402.575   -40952.211  0.033957644    1.6450524    4.4475832 
  174000    310.60226   -951.67475   -8799.7696   -294.12561    20774.231   -47532.172   0.03380481    1.6445248    4.4495063 
  176000    325.05219   -952.10261   -3948.6285   -7281.1364    20141.448   -37752.818  0.033713064    1.6440536    4.4509784 
  178000     314.5781   -952.08031    3238.2052   -371.32935     19648.83   -32723.731  0.033773995    1.6448711    4.4469729 
  180000    286.53238   -952.29824   -10752.394   -3511.7949    19033.581   -37123.993  0.033722698    1.6434299    4.4499926 
  182000    308.33857   -952.13472   -5837.3056   -10068.543    26788.779   -39760.338  0.033869868    1.6439203    4.4535012 
  184000    284.55338   -952.36765    -8087.762   -2163.9571    23275.401   -37183.207  0.034042737    1.6449433    4.4516761 
  186000    312.83252   -952.48353   -11715.315   -2287.4055    23710.665   -31980.121  0.033793704     1.642139    4.4506345 
  188000    266.03275   -952.23787   -361.79725   -8496.7008    19598.398   -44904.174  0.033990648    1.6425776    4.4535668 
  190000    267.63739   -951.48914   -2557.4738   -7257.1092    17995.458   -33653.558  0.034066045    1.6434195     4.454467 
  192000    224.20799   -951.45329   -600.23053     5520.389    20532.716    -34884.16  0.033875721    1.6411013    4.4499683 
  194000    301.86931   -952.30387   -4827.8616   -658.02828    19366.994   -37265.812  0.033978819    1.6423948    4.4510575 
  196000    278.17105    -951.9558    3799.2029   -235.41898    24788.508   -38952.991  0.033917596    1.6418636    4.4519257 
  198000    309.98663   -952.33757   -720.45037    1879.1687    20339.961   -34873.806  0.033971995    1.6417388     4.452768 
  200000    342.19722   -952.00935   -2547.5966   -5985.4927    17934.031   -37941.742  0.034048314    1.6409606    4.4485326 
  202000    295.59274   -951.85832   -6811.6593   -5545.3795     19259.02     -33810.6  0.034188331    1.6403818    4.4532762 
  204000    289.65669   -952.33934   -2509.7779   -3370.8737    25276.786   -32575.168  0.034150228    1.6417635    4.4562526 
  206000    297.09323   -952.27174    4438.9806   -1503.2052    24576.214   -33249.065  0.034202078    1.6411513    4.4534057 
  208000    348.64888   -952.33728   -1733.7723   -1935.5257    22814.961    -34825.24  0.034168409    1.6400993     4.453681 
  210000    254.58535   -952.26139   -7064.2383   -2789.6114    25255.493   -43663.296  0.034168885    1.6402085    4.4568022 
  212000    303.52386   -952.02291   -6800.5101   -2692.5531    22388.543   -37948.944  0.034361312    1.6417511    4.4568482 
  214000    279.63412   -951.91912    -5897.228    316.89465    23539.085    -30077.96  0.034329013    1.6432818    4.4573219 
  216000    298.77746   -952.30445   -6298.9979   -4671.1755    21867.474   -34767.531  0.034324885    1.6412358    4.4563285 
  218000    343.56737   -952.07515   -4232.1222    -2326.472      24684.6   -38456.958  0.034335737    1.6405718    4.4554065 
  220000    320.98788   -952.50787    1248.0109    -4522.551    18439.455   -35839.127  0.034358317    1.6416768    4.4551905 
  222000    303.31843   -952.18536   -4614.0006   -5769.2896     23383.47   -41383.818  0.034523592    1.6411649    4.4576924 
  224000    318.75834   -952.13201    3321.0126   -5753.0486    25960.547   -40695.959  0.034295643    1.6410143    4.4571672 
  226000    291.00814   -952.16424    -6336.312   -6310.4614    25178.721   -34186.038   0.03440053    1.6407423     4.455704 
  228000    275.04181   -951.62595   -2927.9547   -6746.0657    19846.011   -42106.344  0.034331583    1.6408584    4.4577049 
  230000     308.7021   -952.17763    182.05035   -7233.4197    21092.445   -37076.019  0.034316441    1.6404782    4.4578232 
  232000    267.27018   -951.98339   -5609.7506    1706.9641    23781.926   -42093.238  0.034432377     1.640264    4.4542943 
  234000    345.68674   -952.36474   -3590.4578   -1341.9681    20881.609   -39270.612  0.034271545    1.6405077    4.4538239 
  236000    259.79864   -951.69527   -597.76292   -4350.2204    23777.148   -33434.888  0.034286758    1.6396728    4.4548834 
  238000    354.53294   -952.20045   -8595.8015   -4748.5715    16829.075   -34546.908   0.03435846    1.6398921    4.4532047 
  240000    316.33972   -952.27072   -3335.6991   -4200.9946     25678.76   -43334.396  0.034286006    1.6394763    4.4522744 
  242000    228.21309   -951.56023     892.1663   -4823.3758    27144.747   -37576.551  0.034366187    1.6395017    4.4543388 
  244000     282.3079   -952.58979   -7371.0669   -1348.1765        24228    -41272.99  0.034253765    1.6391344      4.45535 
  246000    263.22526   -952.18732    1807.4899   -3828.1559    24684.132   -34580.436  0.034297431    1.6402215    4.4564074 
  248000    336.55667   -952.20638    -896.2524    -4958.329    19412.525   -33035.636  0.034251341    1.6392692    4.4523313 
  250000    301.95516   -952.14116    3256.1925   -373.34576    24059.812   -37581.695   0.03420786     1.639231    4.4549109 
  252000    328.31287   -952.16365    1758.8485    326.60079    19895.236   -42260.316  0.034104579    1.6385196    4.4533559 
  254000    307.17968   -952.10706   -4951.2209   -3642.4422    18044.627   -42966.743  0.034094246     1.640267    4.4533824 
  256000    283.63212   -952.20751   -7730.2954   -3262.4071    23507.914   -41020.337  0.034034743    1.6394662    4.4541216 
  258000    297.99639   -952.11042   -6478.7086   -8431.2994    16552.981   -34671.554  0.034063352    1.6397833    4.4566175 
  260000    267.95857   -952.35943   -6577.3158   -3912.1698    22836.754    -33365.74  0.033937692    1.6399572    4.4554715 
  262000    261.32805   -951.83174    1815.7286    3697.0327    16384.401   -41790.106  0.033849335    1.6402163    4.4573909 
  264000    311.97618   -951.76401   -8318.9868   -6569.9202    27029.501   -38999.702   0.03378779    1.6393505    4.4577658 
  266000    295.02633   -952.14694   -3218.7387   -5503.0516    24798.479   -38768.889  0.033851865    1.6400364     4.459069 
  268000    283.93184   -952.62538      -904.61    1250.0305    23624.496   -33735.792  0.033839332    1.6400864    4.4577689 
  270000      332.349   -951.89661    3575.3133   -1537.7413    16435.452   -35823.101  0.033903282    1.6407706     4.458388 
  272000    294.96557   -951.97104    3043.3617    1498.1389    18655.326   -40446.631  0.033764988    1.6394897    4.4584106 
  274000    295.17187   -952.15545   -7047.6411   -11841.535    28190.498   -35816.401  0.033696748    1.6392898    4.4579083 
  276000     283.9275   -951.89739   -252.59969   -9953.5956    22781.138   -38332.381  0.033766267    1.6395637    4.4566282 
  278000    286.73049   -952.40721   -2104.1808    2573.6788    25834.326   -37391.696  0.033835171    1.6398343    4.4581591 
  280000    303.24253   -952.46146    -8250.949   -2750.7131    25440.236   -38370.829  0.033792974    1.6393729       4.4567 
  282000    285.91613   -952.08703   -3091.1828   -9871.1522    20934.352   -38208.119  0.033725906    1.6392452    4.4557868 
  284000      298.682   -952.48736    -4087.693   -703.96468    20942.387   -34045.446  0.033788668    1.6389219    4.4565315 
  286000    302.95815   -952.31912    584.44875   -3229.6282     14699.97   -33454.159  0.033818573    1.6391347    4.4571968 
  288000    339.46882   -952.32317     1193.917   -8321.1274    21470.412   -33395.959  0.033840902    1.6394072    4.4578387 
  290000    221.99133   -952.37011   -8976.6409   -6795.0866    27401.461   -38316.008   0.03378074    1.6390589    4.4561462 
  292000    305.19895    -952.2667    -2496.358   -8410.9321      22725.1   -41722.729  0.033641258    1.6387166     4.458145 
  294000    352.20448   -952.30227   -11186.823   -664.48903    19433.747    -34780.09  0.033755718    1.6399484    4.4599036 
  296000     290.5354    -951.9891   -7562.4765   -1507.0362    24801.294   -34055.762  0.033774427    1.6405556    4.4574674 
  298000     313.1511    -952.3372   -5568.4176   -3915.3983    21547.169   -38366.611  0.033705671    1.6404834     4.457776 
  300000    302.08757   -951.84748   -3379.8704   -1002.8234    22501.577   -35762.311  0.033755562    1.6414797    4.4592966 
  302000    294.32796   -952.22856   -3724.7935    -9162.276    23142.721   -38379.089  0.033767336    1.6415475    4.4590597 
  304000    326.49894   -952.29761     -6592.86   -4086.6333    24837.889   -31984.084  0.033861968    1.6423266    4.4593261 
  306000    336.75773    -952.4513   -1190.1642    3582.6823    24201.329   -34252.733  0.033842081     1.642278    4.4611398 
  308000    289.65461   -952.49709   -6815.4423   -8692.5587    24135.375   -38544.787  0.033732526    1.6410831     4.460452 
  310000    279.15245   -951.71874   -6608.0064   -11335.477    24665.624   -35673.428  0.033818109      1.64169    4.4596226 
  312000    280.47987   -952.33597    1739.5532   -4968.0968    18074.107   -33271.962  0.033945148      1.64276    4.4609802 
  314000    257.48581   -951.77413   -4053.2317    1819.7302    23850.106   -33004.769  0.034007826    1.6420533    4.4616475 
  316000    296.42179   -952.33609    -4920.451   -6296.9768    22880.938   -34852.546   0.03392299    1.6418965    4.4601605 
  318000    299.87552   -952.08122   -3394.4137   -3243.0987     28627.92   -52441.705  0.033950534    1.6419881    4.4604436 
  320000    315.10594   -952.63682   -3461.5777    -4860.454    24590.846   -39099.769  0.033875186    1.6417318    4.4625182 
  322000    272.92688   -952.21163   -117.01439   -4068.8953    23215.721   -31115.346  0.033917923    1.6414746    4.4609217 
  324000    315.56732    -952.2373   -3537.7906    5380.4538    24247.564   -34365.757   0.03400856    1.6412883    4.4585943 
  326000     304.4461   -952.41502   -9450.0584   -3894.5362    20706.978   -36483.406  0.033901512    1.6413142    4.4603469 
  328000     264.7208   -952.42011   -1678.6352   -3629.9469    31833.796   -36076.453  0.033942499    1.6417465    4.4612731 
  330000    308.65871   -952.11229   -9455.9854   -3674.7735    23551.004   -34771.612   0.03402737    1.6416134    4.4614922 
  332000    280.70864   -951.77718   -2385.6226   -3825.1936    28655.818    -40793.79  0.033967522    1.6405935     4.458928 
  334000     316.7455   -952.54876   -7430.5866    1341.5713    28794.456   -36033.749  0.034123922      1.64108    4.4618377 
  336000    309.87962   -952.04715    -5455.766   -6239.9182    18458.895   -35661.931  0.034008641    1.6408045    4.4622326 
  338000    291.06042   -952.15085     471.5296    -4130.016    30100.344   -46029.982  0.033940104    1.6404629     4.460138 
  340000    304.03543   -952.04129    1631.7537    4002.3654     22951.97   -42499.368  0.033983888    1.6410913    4.4618111 
  342000    303.75241   -951.77184    2020.2826    -2999.547    22468.718   -33687.601  0.033925843    1.6406861    4.4624238 
  344000    309.53392   -951.85991   -4954.7599   -5870.8653    23533.018   -41482.363  0.033914113    1.6410286    4.4615043 
  346000     347.6845   -952.38319    -11521.85   -655.51595     20433.41   -37732.379  0.033920888    1.6407415    4.4620421 
  348000    309.48319   -952.12188   -765.27704   -1028.1008    26990.434   -34138.836  0.033920964    1.6400642    4.4616096 
  350000    269.00581   -952.07943   -5869.9403   -5231.3002    21577.317   -38428.898  0.033978669    1.6407458    4.4612879 
  352000    334.07496   -952.11699   -939.16106   -1456.1531    18826.535   -42774.986  0.033984256     1.640908     4.461307 
  354000    346.31021   -951.86506    2449.6057   -2570.0326     23162.88   -36391.298  0.034003482    1.6399665    4.4615017 
  356000    264.40369   -951.96939   -2209.3811   -6500.2574    22627.322   -34403.588  0.033938554    1.6404284    4.4602242 
  358000    312.48585   -951.84662   -1070.6058    674.71606    25853.323   -39635.154   0.03397433    1.6403518    4.4592793 
  360000    284.52737   -952.19341   -455.61277    555.27956    20094.898   -35718.448  0.033952192    1.6398554    4.4596437 
  362000    322.08846   -952.09046   -10717.492   -10064.398    20994.989   -38750.514  0.033945941    1.6397159    4.4578004 
  364000    276.66493   -952.16958   -4713.5005    -7294.216     24395.04     -38142.7  0.034039832    1.6396459    4.4566289 
  366000    368.15237   -951.74204   -1255.0559     4765.426    24282.661   -38843.379  0.034012922    1.6394032    4.4578397 
  368000    275.61899   -951.76123   -3121.8013   -1262.4731    15128.498    -34324.63  0.033963903    1.6394073    4.4584909 
  370000    324.37186   -952.43624   -5287.8245    -3482.443    19513.209    -37921.23  0.034048961    1.6388662    4.4566618 
  372000     345.4766   -951.76322   -7159.9177   -9748.0391    25377.965   -41482.463  0.034069163    1.6388462    4.4563815 
  374000    310.32086   -951.38208   -10385.803    1427.4618    26373.391   -38750.999  0.034118175    1.6387714    4.4578165 
  376000    248.73019    -952.0355    1272.0894   -4005.4488    21413.261   -29978.221  0.034026985    1.6384054    4.4582064 
  378000    338.50436   -951.81323   -1520.3184   -1906.8133    22013.301   -34989.496   0.03405361    1.6388784     4.456096 
  380000     292.3267   -952.26576   -9057.9127    838.69932    20903.075   -41476.837  0.034100353    1.6384447    4.4558817 
  382000    284.73915   -952.20794   -1873.4223   -10653.545    18479.805   -34884.267  0.033963241    1.6383839    4.4596318 
  384000    291.30474   -951.79269   -4655.0034   -3521.0933    22462.945   -28539.958  0.034004866    1.6382166    4.4568104 
  386000     311.2906   -952.19514   -185.42501   -197.20315    24199.392    -38919.36  0.033991349    1.6376787    4.4543758 
  388000    285.93619   -951.87748    -152.2026   -9516.5097    18045.294   -35122.012  0.033891875    1.6379633    4.4569622 
  390000    280.72421    -952.1383   -2427.4951   -6201.3064    25275.045   -30841.649  0.033996934    1.6379679    4.4580744 
  392000    335.98593   -952.42543   -8379.9391   -7490.6199    19198.376   -39210.174  0.033900374    1.6376747     4.457218 
  394000    285.21687   -951.38982   -8906.7439    2349.5056    18767.477    -34354.72  0.033948915    1.6381448    4.4575053 
  396000    297.97293   -952.11677    857.83521   -3057.7669    17471.709   -37204.298  0.033975622    1.6377756    4.4578778 
  398000    284.34103   -952.04918    4623.5252   -2981.3903    22298.286   -37090.631  0.033929303    1.6378884    4.4581538 
  400000    291.52936   -952.25079   -1422.3846    642.92582    19769.644   -35995.084  0.033916433    1.6379649    4.4570931 
  402000    299.66276   -952.19111   -1836.9143   -1242.3394    26176.074   -38582.784   0.03390498    1.6375576     4.457141 
  404000    365.88766   -952.42168   -4304.7058   -5288.9111    27323.215   -37131.336  0.033946129    1.6374262    4.4576223 
  406000    318.02159   -951.78254   -3642.1342   -5560.6114    22873.023    -41792.79  0.033944015    1.6385528    4.4573125 
  408000    302.26508   -951.97545    1708.6038   -5173.5814    25014.711   -40842.752   0.03387086    1.6371621    4.4559789 
  410000    348.67734   -952.13805   -8154.1106   -2007.4601    28527.988    -38313.21  0.033903812     1.637564    4.4577713 
  412000    291.66303    -951.5425   -4558.9827   -7874.2937    23086.294   -48505.657  0.033852135    1.6379763    4.4563149 
  414000    307.43658   -952.27332   -549.94629   -4546.9201    22105.482   -35730.413  0.033946955    1.6379738    4.4569648 
  416000    313.01397   -952.28447    -2137.694    2786.0906    23315.331   -36053.183  0.033881769    1.6380977    4.4580161 
  418000    286.14348   -952.38496     405.6546   -2283.6747    18483.386    -39526.74   0.03384701    1.6378973    4.4572055 
  420000    269.04396   -952.01849   -1014.8387   -3208.0935    18891.121   -35718.753  0.033865581      1.63763    4.4561258 
  422000    322.29052   -951.59366    2525.1846   -1294.3145    15539.207   -38356.754  0.033933641    1.6384478    4.4576229 
  424000    305.87432   -952.01742   -3336.6639    -7357.474    22991.655    -43555.57  0.033944195    1.6378479    4.4578621 
  426000    300.93051   -951.78001   -732.08811    5600.3614    23189.987   -36780.142  0.033860143    1.6380861    4.4570151 
  428000    282.10629   -951.76179   -4817.2531    991.74669    23909.175   -37158.946  0.033879221    1.6380326    4.4570618 
  430000    254.43903   -951.93106    2364.2632   -2506.5817     18676.97   -42702.188  0.033790057    1.6375359    4.4581034 
  432000     246.8875    -952.0787   -8925.4384   -10264.021    24501.304   -34300.136  0.033823509    1.6378925     4.457918 
  434000    250.00041    -951.7748   -5613.4884    -4917.847    19566.301    -31031.18  0.033861357    1.6382688    4.4586173 
  436000    272.01811   -951.95731   -4865.5641   -9807.5832     26889.95   -32706.121  0.033799212    1.6375359    4.4590675 
  438000    279.33517   -951.96322    -2285.945   -5372.4269    20237.179   -36547.037  0.033769718    1.6377394    4.4580147 
  440000    295.99888   -952.10446   -156.77603   -2220.3513    23789.135   -33341.215  0.033808463    1.6380608    4.4583079 
  442000     307.5231   -952.11959   -264.83317   -3584.4783    16523.546   -33774.018  0.033779168    1.6382364    4.4593942 
  444000    276.45802    -951.8611   -8473.7202    132.56301    20896.439   -38869.193  0.033829999     1.638068    4.4577014 
  446000    302.20573    -952.0462    3548.1638    4473.5153    23787.618   -31018.023  0.033804447    1.6380886    4.4582311 
  448000    268.07125   -952.10087   -1685.8786   -4687.5727    21232.381   -42790.572  0.033874431    1.6385805    4.4586757 
  450000    311.09661   -951.87226   -1285.5377    327.89376    24656.232   -37450.022  0.033872776    1.6388451    4.4604494 
  452000     310.7321   -951.92062    881.05739   -874.14345    23164.241   -31224.301   0.03383654    1.6395654    4.4607944 
  454000    340.77821   -952.19879   -5807.9249   -2577.9485    29383.849    -41479.08  0.033877692    1.6404707    4.4590525 
  456000    352.21027   -952.18367   -6636.3176   -1200.2566    18531.084   -41343.269   0.03384285    1.6404749    4.4611052 
  458000    292.87687   -952.03259    730.17814     562.1824    23670.286   -37837.786  0.033865093    1.6405489    4.4621635 
  460000    312.31692   -952.52274   -4407.5006   -912.23549    20305.033   -32268.031  0.033915561    1.6403146    4.4602666 
  462000    307.03977   -952.06602   -7310.0769   -1785.7454    25802.401   -42903.564  0.033912584      1.63945    4.4594429 
  464000    331.84344   -952.36799   -10082.863   -6171.1176    29877.793   -35809.398  0.033986052    1.6404474    4.4617555 
  466000    344.91123   -952.12324   -3672.7407   -192.15898    19120.065   -35732.812  0.033957757    1.6401462     4.460892 
  468000    266.27236   -952.03602   -392.44772      659.878    13859.395   -37738.531  0.033948928    1.6401449    4.4601189 
  470000     279.8015   -952.09968   -7033.5709   -5454.5324    21782.412   -36085.858  0.033986356    1.6400796    4.4603143 
  472000    316.82494   -952.16599   -6828.1571   -8427.4363    23518.966   -40890.788  0.033927358    1.6395716    4.4608386 
  474000    273.73091   -951.18496   -2788.4759   -1302.8894    21050.432   -43707.411   0.03394916    1.6395863     4.460549 
  476000     300.9774   -951.92763    5543.0787   -515.10191    18861.816   -39030.515  0.033953094    1.6401465    4.4609107 
  478000    276.59466   -952.32035   -5327.6889    -1429.076    22012.976   -35072.113  0.033939385     1.639034    4.4617926 
  480000    319.90071   -951.32518   -7028.9813   -7848.9811    21719.008   -33365.106  0.034022142    1.6392148     4.461836 
  482000     290.9401     -952.328   -4845.3536   -3614.1591    23703.484   -40873.865   0.03400099    1.6392418     4.461132 
  484000    301.49368   -951.89312   -3260.9275   -3773.0234    28029.668   -35853.392  0.034026301    1.6388568    4.4614116 
  486000    295.26256   -952.15771    4463.0886    2983.7661    23370.014   -43117.441  0.034046063    1.6389534    4.4613901 
  488000    271.57353   -951.92777   -5004.2653   -5846.4882    23063.261   -30952.466  0.034016406    1.6391282    4.4605392 
  490000    315.56428   -952.14836   -9382.8114   -7137.6813    25214.538   -36255.069  0.034029759    1.6386299    4.4598244 
  492000     283.6614   -951.99332   -7413.9371   -4760.8866    15971.228   -32625.083   0.03405544    1.6389156    4.4614673 
  494000    291.26031   -952.45595   -2627.5805   -10859.058    27633.842   -44563.113  0.034026524    1.6384898    4.4600648 
  496000    302.62983   -952.33875    -998.9356   -486.19957    23981.917   -40365.445  0.033985329    1.6384766    4.4594354 
  498000    329.91421   -952.18578   -3721.7868    3634.9364     22760.26   -35902.334  0.033985144    1.6385801     4.460176 
  500000    269.46764   -952.04411   -5914.7252   -6201.2035      20499.5   -33708.127   0.03400421    1.6383232    4.4604896 
  502000    300.22416   -952.60971   -5689.8146    -4242.818    19616.601    -44846.99  0.033987331      1.63873    4.4602757 
  504000    248.24524   -952.45122    2592.0386    2449.0477    25603.142   -40017.678   0.03400367    1.6384184    4.4599351 
  506000    262.76512   -951.93918    356.69133   -3267.1882     20170.29   -42744.038  0.033928179    1.6379018    4.4608444 
  508000    325.71698   -951.96189    84.602209    1894.7726    20595.247   -37882.582   0.03391802    1.6383006     4.460057 
  510000    279.36543   -952.30988    2574.3745    2735.8684    23244.181   -37379.492  0.033989967    1.6381919    4.4593052 
  512000    310.51924   -952.15787   -1944.5568    -5395.485    22158.732   -33080.768  0.033972067    1.6379642    4.4601246 
  514000    345.98968   -952.43165   -1394.8415   -7071.7752    23991.646   -38884.795  0.033959609     1.638182    4.4593475 
  516000    310.50767   -952.07017   -6458.9544    999.17671    21535.291   -44026.162  0.033974167    1.6382527    4.4589932 
  518000    322.67604   -951.96387   -2937.1738   -1879.2797    16931.513   -38449.416   0.03391195    1.6376761    4.4588899 
  520000    307.27802   -952.44557    3022.3107    733.12081    26149.088   -38178.168  0.033963943    1.6379423    4.4593801 
  522000    343.63483   -951.74261   -6362.1374   -4000.8688     29780.71   -39959.004  0.033916387    1.6378548    4.4593614 
  524000    303.18815   -952.48917   -1595.0415    2118.4905    22827.839   -36847.218  0.033943528    1.6375436    4.4588457 
  526000    313.49682   -952.47078   -4492.1957    2436.5673    27624.937   -37273.293  0.033902882    1.6373894    4.4601468 
  528000    282.99253   -952.61559    4691.2346   -6166.1208    27580.132   -34342.159  0.033892211    1.6380445    4.4603847 
  530000    228.87493   -951.84006   -1755.2254   -1655.4763    22452.385   -38845.602  0.033915398     1.637251    4.4591239 
  532000    319.19251   -952.59559   -2142.9758    -5759.031    26885.522   -41589.957   0.03390881    1.6373148    4.4587773 
  534000    278.02452   -952.32309   -1047.8403   -3590.2529    21384.973   -38712.062  0.033966779    1.6371887      4.45893 
  536000    307.83349    -952.0952   -1022.9192    6105.1587    26013.116   -39612.978  0.033959365    1.6369012    4.4590272 
  538000    286.07287   -952.31648   -793.62063   -9992.1931     26055.36   -32195.672  0.033972543    1.6373595    4.4585238 
  540000    333.98034   -951.53278    12024.395    7263.9382    15130.831   -35593.862  0.033926992    1.6367577    4.4587302 
  542000    319.31887   -951.48611    1837.6141    681.17623    22610.475   -44912.011  0.033952198    1.6365612    4.4601565 
  544000    315.56283   -952.28133   -1452.1083   -2654.9012    16652.549   -34847.652  0.034042716    1.6372242    4.4598031 
  546000    281.46494   -952.15148    -7877.739   -4577.0979    24719.451   -40430.382  0.033963665    1.6360664    4.4584063 
  548000     290.2837   -951.90824   -2865.6758   -2174.5009    23864.789   -33257.661  0.033987921    1.6365385    4.4590466 
  550000    333.34385    -951.5862    2135.9736   -234.09225    26949.212   -35212.037  0.034010038    1.6366977    4.4595375 
  552000    281.15517   -952.02921   -1540.6613    3802.4073    22598.328   -39514.316  0.034049022    1.6357519    4.4590617 
  554000    304.83083   -952.25384   -4766.6926   -10233.963    26624.688    -37094.67  0.034087495    1.6360087    4.4585776 
  556000    333.96306   -952.37433   -2930.8699   -2166.1879    19797.225   -34629.222  0.034077738    1.6358836    4.4591597 
  558000    341.89036    -952.0279   -3673.6447   -7093.3746    16330.101   -40724.862  0.034016759    1.6358475    4.4591344 
  560000    320.37489   -951.99115   -1920.2019    2845.5064    14754.999    -32961.52  0.034027045    1.6359725    4.4591843 
  562000    274.23911   -952.65141   -836.66394   -844.23906    23946.866   -40867.277  0.034016628    1.6351031    4.4578742 
  564000    342.38907   -951.92509    1911.6108   -4870.7938    28089.629   -36893.095    0.0340463    1.6358676     4.459264 
  566000    306.22501    -951.7755    2034.4024    -3.167221    24387.339   -33754.075  0.034088115    1.6362734    4.4600119 
  568000    284.72824   -951.93575   -1336.9281   -984.30903    21240.812   -32763.477  0.034112568    1.6363679    4.4591474 
  570000    265.06175   -951.65377   -3388.3038   -4139.6488    24952.215   -35941.336  0.034103729     1.635868    4.4586239 
  572000    294.61381   -952.10411   -7096.5385   -5619.3562    19648.676    -39614.73  0.034142604    1.6354638    4.4583599 
  574000    329.58995   -951.65128   -1969.3157   -327.11395    24073.501   -35516.593  0.034182049     1.635881    4.4590812 
  576000    320.04836   -952.04798    615.59402    4821.0116     25319.63   -38737.389  0.034136397    1.6354911    4.4594382 
  578000    283.18429   -952.13143   -4364.6392   -7993.9356    23994.593   -39245.204  0.034142232     1.635345    4.4582672 
  580000    375.81313   -952.39917    1828.6161   -1465.5543    23881.025   -42726.055  0.034202819    1.6352419    4.4581617 
  582000    298.30774   -952.67781   -1518.7763   -6210.9368    21920.668   -39314.289  0.034197577    1.6349429    4.4602228 
  584000    274.28618   -952.21878   -457.54062   -6788.4182    19414.996    -36999.59  0.034200642    1.6348621    4.4587787 
  586000    318.92604   -952.12068   -5547.4825    1032.3328      26911.2   -39764.336  0.034186934    1.6347769    4.4580946 
  588000    298.68895   -951.93537   -2906.1118   -4417.2508    21278.681   -43012.106  0.034158336    1.6350274    4.4584822 
  590000    265.75672    -951.8917   -862.36653   -650.11693    24015.449   -31570.935  0.034209803    1.6348531     4.458596 
  592000    306.89651   -952.32027    3353.6222    -1778.866     22478.28   -44176.064  0.034206225     1.634332     4.457939 
  594000     295.4375    -951.7754   -2260.2125    3293.3836    15990.894   -44699.936  0.034201924      1.63468    4.4576621 
  596000    304.70824   -951.99434   -5316.1931   -7407.1416    22703.773   -39042.101    0.0341871    1.6344994    4.4583702 
  598000    287.31399   -952.15522   -1006.8661   -8101.7649    22104.627   -33966.122  0.034208281    1.6343025    4.4588744 
  600000    284.58729   -952.24723   -2521.5643   -3306.4996    27978.524   -37738.681  0.034211705    1.6341901    4.4580135 
  602000    305.11503   -952.01332   -8986.5886    -5830.505     24755.86     -42824.2  0.034200589    1.6340434    4.4583046 
  604000    308.12119   -952.35846   -1690.1401   -3243.2826    16445.756   -37417.658  0.034196336    1.6343222    4.4585018 
  606000    273.91076   -951.78568   -6510.1212   -4360.2962    26912.022   -36161.464  0.034166753    1.6343385    4.4587576 
  608000    242.36043   -952.42461   -3583.1862   -6239.9967    14855.702   -39875.406  0.034196196    1.6339157    4.4568346 
  610000    303.73168   -952.04592    10.368099    2888.2883    23302.181   -42508.357  0.034180184    1.6341106    4.4581544 
  612000    272.01475   -951.94892    549.33636    -942.6251    26568.715   -39156.203  0.034117823    1.6337017     4.459268 
  614000    328.76643      -952.04    -802.1076   -6951.9422    23473.691   -36609.962  0.034146423    1.6339746    4.4576039 
  616000    374.86037   -951.83017   -1851.3679    2617.4901    20432.648   -44402.669  0.034101173    1.6341051    4.4587357 
  618000    327.54196   -952.09911    391.76817   -636.69053    21335.048    -33407.16  0.034124294    1.6341635    4.4603585 
  620000    299.86721   -951.87689      1347.15    -2790.924    25016.507   -40668.849   0.03414952    1.6343527    4.4586185 
  622000    347.03333    -952.1281   -11442.464    -7644.723    27853.655   -43186.204  0.034092351    1.6348039    4.4590998 
  624000    316.73322    -951.7653   -8556.2557   -81.202348    23074.414   -35442.564  0.034086465    1.6352242    4.4600816 
  626000    328.70614   -951.90092   -618.65798   -327.24491    28904.915   -36620.187   0.03411576    1.6349183    4.4594727 
  628000    295.58761   -952.33485   -5211.0866   -2796.1787    22407.812   -41768.446  0.034140916    1.6354652    4.4599868 
  630000    315.63166   -951.77857   -8627.2507   -8802.3944    21387.877   -41084.815  0.034153915    1.6357551    4.4605718 
  632000    325.12202   -952.30244    -5719.613   -2327.4783    26673.086   -38935.323   0.03416289    1.6352581    4.4612771 
  634000    274.85043   -952.07389   -3818.1408   -2520.4176    24536.535   -37929.105  0.034147977    1.6361857    4.4615408 
  636000    256.61613    -951.6524   -2944.9391   -1385.9971    23111.358   -28860.114    0.0341382    1.6363462    4.4614955 
  638000     319.2769   -951.98362   -6006.2149   -6372.2722    24600.383   -40188.936  0.034131506    1.6359224    4.4613315 
  640000    287.82584   -951.67761   -1562.8185   -3803.7865    27788.045   -30978.269  0.034169882    1.6369335    4.4630434 
  642000      282.826   -952.04273   -4614.1941    769.31562    19880.826   -42460.855  0.034175059    1.6368579    4.4618133 
  644000    249.93494    -951.5793   -4563.0758   -3245.4051    19348.884   -48290.912  0.034181448    1.6367083    4.4621383 
  646000    300.68186   -951.78427   -3467.0227   -4590.9283    25625.125   -43599.224  0.034133442    1.6366595    4.4639457 
  648000    279.70647   -952.02748    6628.5816   -3154.4289    25272.949   -32291.586  0.034180256    1.6373975    4.4635409 
  650000    265.78273   -952.21837    -5290.044   -3390.4689     23780.39   -40998.126   0.03423846     1.637797    4.4632953 
  652000    292.28638   -952.34989   -5841.1752   -3000.7494    19903.887   -38112.603  0.034159075      1.63732    4.4648551 
  654000    278.26033   -952.42025   -5993.5526   -5813.2957    21327.422   -37885.129    0.0341922    1.6379343    4.4645855 
  656000    295.15943   -952.05613    1023.5451   -967.21795    22088.164   -42548.455  0.034213741    1.6378355    4.4644908 
  658000    265.11039   -952.04906   -3094.3964   -6412.1619    22216.769   -36812.944  0.034144706    1.6374354    4.4643567 
  660000    338.48345   -952.14016    2290.6281   -2186.2087    30249.582   -41147.974  0.034181956    1.6374063    4.4633692 
  662000     310.1079   -952.75139   -4768.2613    1366.5521    16388.662   -37678.273  0.034179319    1.6377113    4.4635553 
  664000    302.52359   -952.41183    512.80542   -6602.1843    20574.988   -37585.058  0.034118582    1.6375322    4.4648848 
  666000    326.48551   -951.95123    4528.7426   -3333.4676    33737.596    -34861.75  0.034173325    1.6371429    4.4639518 
  668000     359.4217    -952.0813   -4885.1105   -2601.6712    19379.702   -35695.153  0.034198175    1.6375879    4.4642055 
  670000    291.55191   -952.18701   -1720.9965   -2976.6444    26243.209    -43664.89  0.034207496    1.6373177    4.4644948 
  672000    303.29341   -952.04349   -1133.6777    572.19634    20723.371   -42518.229    0.0341833    1.6371686    4.4647861 
  674000    266.75432   -951.93441   -2270.1383    3124.8968    21004.981   -37336.277  0.034155515    1.6376481    4.4656184 
  676000    302.75572   -951.47042   -4407.1951   -5629.2399    21720.506   -45057.955  0.034139273    1.6369818    4.4647028 
  678000    272.37376    -952.1863   -4389.7607    -2606.256    24513.754   -41753.795  0.034152529    1.6372601    4.4653599 
  680000    246.87008   -951.91192   -4196.5294   -1540.1034    24452.807   -38559.513   0.03412943    1.6371242     4.465297 
  682000    279.58288   -952.11911    -3905.562   -5489.5285    24808.827    -42949.49   0.03411216    1.6369022    4.4645134 
  684000      273.304   -952.30811   -5578.3165   -462.66941    19659.141   -39830.173  0.034134986    1.6372689    4.4653154 
  686000    275.29552   -951.82974   -903.30004   -5807.2931    17426.012   -40575.272   0.03412195    1.6367481    4.4657974 
  688000    296.62141   -952.08257   -5328.9608   -5030.8617     27888.21   -37095.967  0.034103025    1.6369834    4.4654367 
  690000    360.31374   -952.48483   -4334.5757     157.4764     28071.61   -41644.616  0.034149637    1.6375081    4.4668828 
  692000    359.75637   -952.01044   -6375.8375    914.36318    20331.224   -34534.533  0.034084521    1.6371331     4.465887 
  694000    306.52671   -952.01114   -2437.7606   -2019.3346    20986.912   -41956.353  0.034079236    1.6378758      4.46607 
  696000     322.1407   -952.23037   -2693.0903   -756.04502    18562.147   -38434.673  0.034061171    1.6376404    4.4665095 
  698000    301.99846   -952.79277    3172.9385   -3642.7285    19532.095   -35866.926  0.034066112    1.6372759     4.466152 
  700000    274.70351   -952.40922   -2967.7091   -549.43756    27293.381   -43178.971  0.034090569    1.6373097    4.4657362 
  702000     313.0144   -952.12812    1399.0266   -3125.3164    20229.588   -39459.869  0.034068897    1.6376708    4.4672561 
  704000    289.91902   -952.28245   -1282.7426   -3209.0454    17074.972   -42490.154  0.034031117    1.6371833    4.4659251 
  706000    264.90909   -952.11329   -10091.701   -3643.6637    25415.104   -42014.158  0.034090225    1.6373325    4.4672316 
  708000    311.47388   -952.28243   -2505.2533   -1969.7364    20879.424   -28928.562  0.034066386     1.637375    4.4665606 
  710000    294.83829   -952.41806   -1562.1434   -4872.2053    22243.568   -38905.094  0.034058596    1.6370126    4.4661413 
  712000    239.70147   -952.35209    -1097.238   -2968.2674    23559.495   -37845.833   0.03406072    1.6371027    4.4663226 
  714000    327.83582   -952.76038    1733.3489   -1311.1177    23183.191   -42165.561  0.034054941    1.6370933    4.4661212 
  716000    218.11441   -952.15499   -5284.4566   -1441.1376    26566.989   -39778.713  0.034054643    1.6369013    4.4663666 
  718000    272.02382   -952.05547    1507.5382   -6258.7729     22537.48     -36534.3  0.034056382     1.637031    4.4667196 
  720000    261.96775   -952.06078    1861.8091    -4230.334    28765.065   -34470.071  0.034054658    1.6367868     4.465596 
  722000    270.69798   -951.82631     -9298.36    -4601.486    22251.245   -31538.928  0.034065844    1.6369632    4.4662259 
  724000    299.05962   -952.46325   -3869.5101   -3244.5218    20662.314   -36866.718  0.034081516    1.6371852    4.4661584 
  726000    287.99147   -952.25664   -235.81862    1158.6593    22929.791    -32260.88  0.034054653    1.6367341    4.4660903 
  728000    291.62448   -952.20585   -6298.4922   -5262.3699    21706.183   -34569.408  0.034045357    1.6368785    4.4656228 
  730000    293.56241   -952.14215   -8368.6642    -7656.887    26783.703   -32474.473  0.034041809    1.6369645    4.4656841 
  732000    294.31129     -952.278   -10970.268   -8259.7445    23296.984   -36845.006  0.034020989     1.636677    4.4653753 
  734000    295.27539   -952.18409   -5155.0704   -5236.0688    24913.259   -33093.268  0.034057455    1.6368611    4.4649283 
  736000    351.37185   -952.15162   -5991.5578   -7654.4778    20769.304   -35046.491  0.034015576    1.6366925    4.4647995 
  738000    299.72025   -951.52995   -2123.4467   -951.60218    26602.778   -37546.164  0.033990537    1.6366119    4.4650574 
  740000    296.67639   -952.35846    -3082.092   -28.815149    15253.555   -32323.436  0.033995072    1.6368209     4.465519 
  742000    300.08292   -952.96624   -6192.4829   -4700.5439    21180.838   -38470.617  0.033993899     1.636513    4.4643702 
  744000    279.94465   -952.33828   -1965.3987    -2808.118    23229.613   -33684.733  0.034027557    1.6367314    4.4645274 
  746000    310.08475   -951.93535   -3426.0311    2933.1008    26516.136   -38003.627  0.033976039    1.6367021    4.4650959 
  748000    261.45797   -951.35652   -8471.2373     -7311.61    24814.471    -40552.81  0.033992182    1.6370248    4.4643767 
  750000    354.90972   -951.94005      -8691.2   -158.19637    25406.948   -36665.337  0.034006454    1.6372742    4.4645879 
  752000    269.12755   -951.68888   -2873.8591   -8727.9308    24315.446   -38963.201  0.033965649    1.6371459    4.4649535 
  754000    294.43333   -951.60848   -6692.0979   -6308.2953    19024.824   -34316.203  0.033962499    1.6372771    4.4646256 
  756000    308.29318   -951.87172   -3425.3132   -907.82675    18137.837   -34109.514  0.033967551    1.6365913    4.4636732 
  758000    276.01796   -951.87427   -1761.1595   -7241.1209    17369.019   -37631.805   0.03399373    1.6371412    4.4648022 
  760000    259.71513   -952.03771   -1295.4041   -40.046595     23045.15   -35927.445  0.033979738    1.6371027    4.4644681 
  762000    284.53773   -952.10854   -103.88523   -9435.5243    23007.828   -43735.765   0.03394571     1.636711    4.4639193 
  764000    273.89279   -952.48115   -5257.3482    -951.9426    21727.811   -37056.903  0.033927766    1.6370371    4.4641253 
  766000    326.23566   -952.09491   -5223.2314   -2511.9721    28040.917    -40125.22  0.033961722    1.6369072    4.4642612 
  768000    337.60164   -951.87001   -2333.5547   -22.116571    19624.166    -36649.05  0.033913085    1.6367132    4.4635852 
  770000    337.95083   -952.19276   -3348.3482   -5458.3323    24476.254   -35863.013  0.033870357    1.6368175    4.4633164 
  772000    370.38118   -952.31573   -6667.0065   -1888.4407    20174.607   -38865.933  0.033848537    1.6364312    4.4634491 
  774000    288.05947   -951.90958   -5647.1016   -2588.3438    22807.164   -37998.013  0.033870331     1.636617    4.4633188 
  776000    368.01044   -951.91209   -1132.8866   -931.80722     19840.75   -34095.042  0.033881749    1.6367397     4.462951 
  778000    312.50818   -951.78754     3770.399   -2555.3462     17027.21   -35504.279  0.033864082    1.6363944    4.4631747 
  780000    314.75863   -952.14272   -1197.1386   -3968.8681    24453.953    -32893.22  0.033820469    1.6363358    4.4634014 
  782000    290.34124   -951.77105   -1349.9811   -5510.0419    20316.139   -38694.144  0.033845905    1.6364488    4.4634916 
  784000    316.51095   -951.80482   -8646.3385     1043.778    21287.226   -31929.731  0.033845172    1.6361828    4.4633949 
  786000    282.21156   -952.08277   -6308.2542   -4059.2222    24361.672   -41039.105  0.033843678     1.636422     4.463737 
  788000    241.77479   -952.23151   -4671.9461   -3602.2588    20081.739   -34268.983  0.033829969    1.6362794    4.4632699 
  790000    257.71627   -951.73846    -7117.772   -5353.8298    21284.771   -40557.859  0.033808962    1.6361963    4.4625099 
  792000    240.59523   -951.86148   -7117.4592    6014.5568    18430.968   -34020.916  0.033846722    1.6362134    4.4634953 
  794000    286.77276   -951.99993   -2484.0295   -4465.1851    19153.862   -45091.861  0.033813239    1.6362163    4.4635215 
  796000    286.94031   -952.58517   -4091.2551   -7344.4425    18987.808   -37803.752  0.033760492    1.6361059    4.4632284 
  798000     303.2818   -952.00787   -3640.6105   -2715.7944    18883.947   -40371.629  0.033756698    1.6357273    4.4628287 
  800000    259.25991   -951.99007   -6020.4689   -6156.4252    26103.739   -41317.477  0.033783381     1.636094     4.463778 
  802000    286.40474   -952.02423   -4332.2511   -1141.9022    23152.428   -38127.281  0.033779043     1.636071    4.4638299 
  804000    272.13944   -952.19208   -7686.0356   -5319.4098    25952.996   -33142.086    0.0337487    1.6356139    4.4631269 
  806000    273.86554   -951.82845    -6715.963   -6079.6877    23903.245   -42438.695  0.033723571    1.6356163    4.4631204 
  808000    381.05608   -951.69731    2145.6951    174.30589    24652.651   -35751.728  0.033791774    1.6357068    4.4636937 
  810000    349.40331   -952.34707   -1819.3465   -2237.9903    20622.391   -43596.053  0.033863774    1.6362015    4.4641151 
  812000    295.82063   -952.01742    -3462.393   -6810.3244    20481.688   -34071.344  0.033846978    1.6360713    4.4633669 
  814000    284.30671    -952.3061   -5918.1415   -6601.6558    19595.715   -40453.374  0.033827414    1.6357414    4.4637566 
  816000    314.20966   -952.02933     -4957.65    2312.6512     24926.09   -38876.061   0.03380117     1.635886     4.464162 
  818000    285.87816   -952.11422    2992.7509   -626.96078     25524.01   -35174.065  0.033881017    1.6358958    4.4635615 
  820000    228.02068   -951.93926   -7689.3248    2441.3968    19899.916   -39890.714  0.033848981    1.6356103    4.4636433 
  822000    294.05234   -952.41634   -5033.1371   -6901.0944    26397.577   -38241.453  0.033796113     1.635236    4.4640013 
  824000    314.20325   -952.40142   -11260.016   -8583.2366    25506.063   -35791.294  0.033817374     1.635794    4.4639638 
  826000     293.9777   -952.25034   -5497.8119     2234.763    17378.927   -37495.313  0.033821569    1.6359545    4.4643266 
  828000    289.05353   -951.88135   -5256.3313   -1539.2736     25295.39   -35165.054  0.033851802    1.6357545    4.4643735 
  830000    289.02541   -952.14631   -14252.762   -1529.9261    27591.209   -32738.531  0.033854927    1.6358777    4.4641978 
  832000    310.56955   -952.21467   -5195.7215    328.25408    18853.358   -35905.196  0.033853155     1.636133    4.4642994 
  834000    273.54849   -952.12297   -9823.0151   -8644.8064    24394.149   -39050.402  0.033858889    1.6357255    4.4643642 
  836000     284.8316   -952.20704   -2985.0588   -10053.124    22051.016   -33313.414  0.033864782    1.6355544     4.463394 
  838000    310.17341   -951.80025   -4952.4268   -2154.1467    21989.956   -31689.211  0.033916134    1.6357653    4.4635918 
  840000    333.31861   -952.06928   -2101.0496   -704.95528     22094.91   -37355.693   0.03388913    1.6355654    4.4643379 
  842000    305.43363   -952.27306   -4544.0368   -5507.8701    22745.504   -42947.286  0.033915928    1.6355642    4.4641424 
  844000    301.31366   -952.26873   -1869.6323   -3012.2496    18071.794   -37415.593  0.033937924    1.6355146    4.4634507 
  846000    297.29521   -952.22887   -3913.3832   -3303.6011    25939.728   -39031.541  0.033959425    1.6354217    4.4641301 
  848000    298.56206   -952.67163   -4680.5424   -8705.0271    19286.906   -38302.213  0.033992545    1.6354209    4.4643401 
  850000    331.79945   -952.68603   -3537.8874   -1489.2052    18190.329   -38610.102  0.033963868     1.635356    4.4638534 
  852000    279.22711   -951.79365    707.56524   -1217.0321    22922.739   -42677.157  0.033927573    1.6350521    4.4629459 
  854000    306.19998   -952.49868   -5546.9505    -8618.811    17858.988   -39464.627  0.034040439    1.6354296    4.4634646 
  856000    273.86964   -952.20981   -3794.1353   -4901.9302    20476.538   -35841.122  0.034044398    1.6355952    4.4638668 
  858000    277.23345   -952.00494   -3388.4433   -3927.5033    23141.543   -32414.165  0.034040773    1.6352941    4.4631362 
  860000    334.59799   -952.35221   -2953.2425   -2187.0165    19920.455   -42590.801  0.034040888    1.6351343    4.4627804 
  862000    328.37432   -952.64243   -349.15059   -5350.3042    19261.844   -40999.111  0.034059207    1.6355694    4.4639158 
  864000    311.52801   -952.55619   -6759.0034    -4363.466    20674.904   -40442.292   0.03410279    1.6351637    4.4638171 
  866000    290.98269   -952.78004   -7544.5634    -5539.442    20181.824   -39659.416  0.034108861    1.6353847    4.4633819 
  868000    307.66522   -952.00535   -2053.0169     5345.955    21581.767   -40928.618  0.034091153    1.6351117    4.4634883 
  870000    290.47836    -952.4894   -8883.2503   -1986.9413    25548.657   -35082.647  0.034086168    1.6351557     4.464325 
  872000    296.57178   -952.48975   -4311.4242   -9547.4973     21989.63   -30206.625  0.034105886     1.635639    4.4640584 
  874000    310.12607   -952.85824   -8769.3212   -3567.6266    20601.013   -39669.889   0.03412319    1.6352105    4.4641077 
  876000    352.17161   -952.15992   -2633.4258   -6624.0944    20132.331   -39769.507  0.034071363    1.6348393    4.4644692 
  878000    293.21814   -952.28339    2352.5094   -8153.1379    21958.068   -39286.565  0.034132393    1.6355128     4.464118 
  880000    330.78771   -952.68605   -5749.4916   -2660.4591    19234.302   -37849.541  0.034114061     1.635323    4.4643466 
  882000    307.50941   -951.97198   -1911.4892   -1801.7362    23643.303   -35275.448  0.034106781    1.6351341    4.4641731 
  884000    339.84018   -952.33748    1909.6521    -448.5818    27881.735   -36268.811  0.034151689    1.6350998    4.4638705 
  886000    289.87351   -951.94324    2762.2916   -4864.3626    20220.615   -38724.845  0.034118428    1.6351896    4.4642829 
  888000     291.5956   -951.89598    4568.9258    639.36644    23694.989   -41349.053  0.034110697     1.635058      4.46464 
  890000    332.33357    -952.3466    1411.6442    2598.5678    18599.593     -40548.6  0.034145181    1.6350498    4.4641187 
  892000    291.95493   -952.26486   -6556.8943   -3149.4579    25749.225   -40115.275  0.034132454    1.6349505    4.4640213 
  894000    345.56895   -951.57152    9178.8046   -2679.1535    23776.313    -36001.22  0.034095225    1.6349468    4.4644546 
  896000    308.21454   -952.14017    -5586.056   -5405.7748    25235.561   -38430.286  0.034063377    1.6345846    4.4641255 
  898000    271.02262   -952.64061   -9550.6607   -1600.3722    21160.294    -38959.71   0.03408368    1.6348558    4.4643111 
  900000      274.511   -951.74715   -9814.2798   -6044.3955    24955.823   -40454.603  0.034104308    1.6349048    4.4640984 
  902000    300.14444   -952.01139   -4929.9614   -2818.0318    21426.456   -39592.095  0.034145674    1.6349777    4.4639944 
  904000    293.73734   -952.43233   -68.294071   -2383.7417    18805.063   -40233.669  0.034134116    1.6346545     4.464416 
  906000    302.56614   -951.92526   -5118.9246   -7371.9512    24766.505   -41940.627    0.0341187    1.6345753     4.463967 
  908000    275.52349   -951.98838   -13306.164   -889.78068    21494.276   -41793.059  0.034167447    1.6350917    4.4642934 
  910000    247.77094   -952.17624   -996.61307   -5295.3464    14927.484   -38286.753  0.034152675    1.6349221    4.4652437 
  912000    274.50372   -951.84149   -5674.2944   -5441.2609    23556.115   -35522.783  0.034191724    1.6346003    4.4647549 
  914000    271.61212   -951.95798   -3957.4745   -3331.3325    24771.529   -40778.982   0.03424207    1.6355566    4.4648916 
  916000    340.57218   -951.96949    -7618.049   -10192.199    15929.683   -31807.953   0.03421101    1.6354054    4.4653869 
  918000    275.17331   -952.01565   -681.95425   -6141.0227    12906.252   -33543.732  0.034229295    1.6351807    4.4647459 
  920000    298.26101   -952.19378   -5298.8516   -4301.3674    20270.858   -46306.437  0.034313874    1.6351832    4.4636927 
  922000    257.29185   -952.82409   -10041.665   -5496.4568    21710.449   -38512.797   0.03429697     1.634912    4.4646527 
  924000    325.29132   -951.74095    2499.5136   -3674.8319    23641.274   -36501.616  0.034289658    1.6348298    4.4646708 
  926000    316.11182   -952.29223   -3116.5634     -15.5195    22510.463    -37668.57  0.034295984    1.6349083    4.4642501 
  928000    294.11743    -952.1587   -6082.3361    -8745.445     22836.09   -32790.174  0.034287098    1.6346753    4.4638266 
  930000    303.53725   -951.79943   -8108.0357   -4588.3275    25274.789   -37512.282  0.034307605    1.6347706    4.4646946 
  932000     327.1983   -952.26821    -9132.657   -8637.6922    25504.658   -33023.695  0.034292426     1.634744    4.4650271 
  934000    275.80393   -952.00116   -2000.8619   -989.28301    16767.363   -34845.932   0.03428964    1.6343755    4.4636839 
  936000    294.12519   -951.98866    -2677.782   -4564.3057    23079.056   -36817.425  0.034322825    1.6348331    4.4639632 
  938000     362.4873   -951.85698   -5075.6601   -8778.1168    23961.546   -37494.196  0.034386788    1.6348625    4.4644303 
  940000    299.24456   -952.55878    267.68145   -3885.4385      24763.3   -39413.031  0.034377115    1.6343277    4.4643034 
  942000    282.75043   -951.93432   -188.71323   -3037.9204    28786.698   -37468.997  0.034360586    1.6344213    4.4638686 
  944000    331.39064   -952.44287    2490.1305    -1995.459    21638.564   -43021.979  0.034405167    1.6347098    4.4647343 
  946000    286.54517   -952.06021   -3320.9432    1576.4312    21523.956   -44928.366  0.034389283    1.6344714    4.4654948 
  948000    282.94018   -952.11156     4560.972    -1085.215     18305.99   -37930.323  0.034444687    1.6341836    4.4642504 
  950000     280.2107   -952.01609   -466.97701   -2220.4261    22884.733   -38271.827  0.034429762    1.6341596    4.4640466 
  952000    290.63209   -952.21081   -7777.0879   -2637.4144    31459.126   -36738.764  0.034420881    1.6343876    4.4653743 
  954000    301.71478   -952.42741    4395.8367    -2069.653    22464.462   -34026.977  0.034513964    1.6349571    4.4651961 
  956000    313.49083   -952.09344   -8422.8404   -3896.0001    27776.538    -35888.44  0.034544323    1.6345154    4.4647228 
  958000    325.93314   -952.17102   -5260.6765   -7147.5733     24413.87   -44347.236  0.034530513    1.6342713    4.4648747 
  960000    320.85646   -952.50752    1975.8367   -7500.2404    23916.572   -39898.016  0.034551001    1.6345274    4.4650399 
  962000    322.41747   -951.99696   -4133.5851    4736.4108    21450.666   -34081.634  0.034547255    1.6345535    4.4652851 
  964000     313.7692   -951.44614    -7004.879   -4906.6799    24886.148   -40700.902  0.034590725    1.6345339    4.4650419 
  966000    273.57899    -952.3455   -4186.6851    2094.3693    20054.653   -41099.934   0.03461143    1.6342137    4.4649056 
  968000    270.64247   -952.53382   -7030.6772   -5992.4925    23878.497   -36946.827  0.034615596    1.6344013    4.4655757 
  970000    316.27666   -951.56498    194.32818   -3357.9514    26050.094   -35593.571   0.03460325    1.6344018    4.4655307 
  972000    296.91638   -952.48782     -5196.15   -3172.2626    23901.031   -34887.031  0.034586058    1.6343416    4.4651534 
  974000    324.50846   -952.06294   -2490.0228    2333.2577    27014.305   -37434.416  0.034603807    1.6341854    4.4651696 
  976000    331.33775   -952.25616    7485.2175   -5966.1544    21119.576   -37140.438  0.034594733     1.634217    4.4651626 
  978000    299.69262   -952.11039   -2622.0921   -7660.4838    24216.113   -40120.281   0.03457845    1.6341782    4.4651576 
  980000    264.38306   -952.15096   -2770.0396   -1751.8956    21635.049   -41166.717  0.034570084    1.6340669    4.4653087 
  982000    300.23096    -951.9389   -3821.3977    -951.6421    24561.107   -36211.682  0.034574855    1.6342397    4.4648278 
  984000    340.21975   -951.59299     2662.066   -6042.2927    21036.597   -31574.633  0.034582555    1.6343803    4.4652936 
  986000    301.61615   -952.11664   -1561.3952   -5278.1854    24690.993   -40928.481   0.03456918     1.634067    4.4657989 
  988000    328.55296   -951.80049    302.83615    1128.0096    21726.789   -33470.403  0.034571476     1.634146    4.4652232 
  990000    266.43768   -952.16758    -1083.993   -340.22958    27226.585   -42254.048  0.034580313     1.634331    4.4653254 
  992000     302.3331   -952.18788    -4329.077   -5976.3456    26223.614   -35936.174  0.034572765    1.6341023    4.4660096 
  994000    319.50252    -952.2679    1896.4984   -1294.1197    22148.087   -38893.274  0.034591582    1.6343194      4.46551 
  996000    283.84284   -952.06111   -819.28337     -1152.17    24686.656   -41576.485  0.034582271    1.6341107    4.4646974 
  998000    285.56834   -952.25743   -1244.7635   -4237.8717    25555.734   -41405.062  0.034590628    1.6341865    4.4653402 
 1000000    281.86254   -952.08703   -3244.3602   -4678.4539    25884.443   -40666.082  0.034592407     1.634308    4.4655264 
 1002000    242.05444   -951.97908   -3076.2014    2848.2179    26838.236   -33324.168  0.034601154    1.6340637    4.4649392 
 1004000    295.23506   -952.02039    3473.5866   -8940.6403    19707.572    -36077.99  0.034584523    1.6339745    4.4647713 
 1006000    307.07808   -952.12107    -454.2388   -5047.6475    26971.334   -41845.421  0.034577916    1.6341529    4.4655126 
 1008000    302.94572   -952.28195   -6798.5685   -1413.4783    15914.172    -33841.01  0.034594109    1.6342817    4.4657623 
 1010000    295.61008   -951.95302   -5666.9969   -11747.225    22014.714   -39227.164  0.034563568    1.6338535    4.4652879 
 1012000    260.04455   -952.05039    -12267.66   -8596.0934    31189.141   -37186.239  0.034617042    1.6339393    4.4651756 
 1014000    312.03515   -952.50233   -4908.9217   -4571.9392    25205.031    -36721.68  0.034632129    1.6342222    4.4650028 
 1016000      326.857   -952.17155   -2086.4992   -8121.2716    29178.484   -33901.315  0.034593801    1.6339122    4.4646882 
 1018000    229.47782   -952.24452    -2067.006    3476.9291     22372.29   -32261.036  0.034602885    1.6341269    4.4647261 
 1020000    309.47342    -951.9641   -1634.9393   -12518.179    20898.733   -35098.878  0.034581953    1.6338382    4.4643005 
 1022000    277.90569   -952.14249   -4961.8019   -2501.2009    27820.214   -36590.569  0.034631399    1.6339863    4.4646288 
 1024000    301.27329   -951.92092   -3888.1873   -2805.5493    23744.141   -29645.482  0.034635551    1.6341645    4.4648701 
 1026000    313.48056   -951.93065   -2393.6318   -4199.1252    23171.792   -42554.506  0.034595635    1.6337604    4.4645436 
 1028000    304.63533   -952.22345   -338.70826    -3865.212    23043.433    -30860.65  0.034603928    1.6338894    4.4643197 
 1030000    329.51303   -952.17735   -5665.5947   -10158.241    21650.601    -34240.77  0.034672019     1.634376    4.4645282 
 1032000    292.41069   -951.94392   -2686.7547   -3335.3817    25359.903   -31693.573  0.034688279    1.6339614    4.4641129 
 1034000    322.78249   -951.87988   -6189.6357   -6463.1634    25466.432   -32456.024  0.034661278    1.6342216    4.4638034 
 1036000    281.16265   -951.85005    6042.8632    4066.2522    24057.809   -39758.064  0.034660684    1.6341817    4.4636321 
 1038000     263.5935   -951.93347    6203.8837   -1533.6816    25056.603   -42611.879  0.034698416    1.6340076    4.4641267 
 1040000    350.08608   -952.37553   -4324.9628   -7214.0602    23292.252   -44401.308  0.034717507    1.6341787    4.4636823 
 1042000    321.70659   -951.81125   -3441.9134   -4168.9849    23325.028   -38281.725  0.034735026    1.6339819    4.4635355 
 1044000    278.75622   -951.78211   -7034.8713   -5439.8525    23100.772   -34825.755  0.034711024    1.6341271    4.4637621 
 1046000    298.70826   -952.09589   -6593.0356   -7348.2919    30495.476   -38514.359  0.034731215    1.6345925    4.4640717 
 1048000     386.7195   -951.60446   -3154.5799   -2494.1614    21528.569   -38567.161  0.034733727    1.6346753    4.4638494 
 1050000    351.65164   -951.84924   -10362.928   -6314.3154    20178.177   -42448.235  0.034742475    1.6345359    4.4639261 
 1052000    322.88377   -952.22511   -6185.1393    -2597.389    26240.004   -40519.696  0.034767899    1.6344467    4.4636903 
 1054000    310.13629   -952.30997   -2220.5109   -1919.0451    22119.948   -37445.188  0.034772007    1.6345341    4.4634611 
 1056000    244.66686   -952.31032    -3518.247   -3121.3266    26719.355   -32847.576  0.034749111    1.6345561    4.4637025 
 1058000    343.01485   -951.90534   -9162.1095   -4770.0008    21593.906   -39024.832  0.034741579    1.6341802    4.4634273 
 1060000    318.65376   -952.48261   -4701.1408   -4569.9506    19521.084   -35625.238  0.034751555    1.6342535    4.4636098 
 1062000    313.29908   -951.91815   -1526.5547   -2899.0316    22503.138   -37627.922  0.034742281    1.6340728    4.4632341 
 1064000    287.41907   -951.52471   -1615.2742   -5428.4211    28316.233   -35832.229  0.034709028    1.6338817    4.4628278 
 1066000    268.61019    -952.2428     -2568.27     23.20591    21253.326     -34920.6  0.034698677     1.633968    4.4629298 
 1068000    320.14706   -951.90888   -8502.9199   -546.57807    21151.524   -39973.595  0.034740564    1.6338268    4.4631428 
 1070000    272.96298   -952.33717   -2977.7512   -8041.8452    17462.942       -31288  0.034718103    1.6336868    4.4631378 
 1072000     317.7569   -952.15465   -3066.2307   -3473.1379    23576.442   -34228.278  0.034728795    1.6335769    4.4631462 
 1074000    286.18796   -952.68697   -10799.129   -4702.6756    24004.848   -44029.445  0.034718045    1.6335941    4.4634094 
 1076000    299.31867   -952.07742   -486.94051    1048.4995    26095.268   -34741.202  0.034718193    1.6335616    4.4634828 
 1078000    270.99138   -952.12919   -182.07307    918.04415    23768.168   -32644.739  0.034730307    1.6334731    4.4631532 
 1080000     282.9654   -952.19007   -1868.8329   -6890.6376    19289.727   -34823.447  0.034710805    1.6335138    4.4632949 
 1082000    272.00717   -951.87399    2439.6977    -7081.367    24867.829   -34585.796  0.034711114    1.6334263    4.4635558 
 1084000    320.62997   -952.64347   -7737.4337   -4833.4243    25046.521   -37372.127    0.0347318    1.6337283    4.4635373 
 1086000     330.9481   -952.49275     140.9716    836.49391    23131.611   -38030.654  0.034729309    1.6334563    4.4624324 
 1088000    286.11823   -951.70954   -2362.5295   -5649.8015    26625.813   -33482.744  0.034695433    1.6334483    4.4629023 
 1090000    281.69217   -952.10031    -5511.325      3556.08    21763.951   -33200.915   0.03469364    1.6336641     4.463303 
 1092000     336.0117    -951.3528   -6483.8089   -1956.5271    26001.641   -39311.473  0.034697932    1.6335127    4.4629866 
 1094000    307.91491   -951.97431   -6169.2868   -4141.4572    27050.783    -24776.76  0.034698923    1.6333971     4.462949 
 1096000    280.30748   -952.02941   -3229.6654   -6208.5906    20966.565   -41382.688  0.034691332    1.6335027    4.4627736 
 1098000    283.62654   -952.30673   -3670.2915   -4580.7025    18990.057   -42312.521  0.034676777    1.6335735    4.4629057 
 1100000    315.30516   -952.22508   -4654.6572   -295.52587    18468.908   -33934.079  0.034690586    1.6336219    4.4628154 
 1102000     247.2668   -951.25212   -2293.0363   -3526.8982    17983.765   -45728.791  0.034702191    1.6335134    4.4625047 
 1104000    278.06939    -952.1555   -2126.9329    264.03163    21347.293   -42304.993  0.034657715    1.6332574    4.4623291 
 1106000     322.6144   -952.50988     1568.698   -897.10573    25611.443   -41100.052  0.034660843    1.6335568    4.4627508 
 1108000    273.28859   -952.22912   -3165.3096   -6887.1308    12621.406   -33984.749   0.03463735     1.633201    4.4625676 
 1110000     273.8424   -951.92901   -4931.6972     -6355.82    21073.192   -38047.704  0.034658123    1.6331043    4.4618323 
 1112000    315.55655   -952.05199    2712.8272    251.99586     25495.63     -34415.3  0.034666456      1.63332    4.4622394 
 1114000    312.68438   -952.12985   -4094.6055   -5827.9997    26443.803   -34447.233  0.034640418    1.6331673      4.46249 
 1116000    306.50935   -951.65037   -9688.5701   -8736.0489    21521.474   -41729.235  0.034631403    1.6331801    4.4624429 
 1118000    286.00773    -951.7475    -6340.425    5578.7071     27367.15   -37926.891  0.034635421     1.632947     4.462335 
 1120000    287.52872    -951.6767   -5484.2961   -4800.0148    19865.436   -41822.122  0.034645952    1.6329793    4.4622306 
 1122000    304.63168   -951.59133   -2088.1886   -1607.7419    20688.108   -40631.983  0.034635955    1.6330929    4.4626059 
 1124000    285.05144   -952.64873    1616.3765     -1877.45    20532.311   -31116.821  0.034604404    1.6327994    4.4624416 
 1126000    313.82459   -952.43213   -10412.047   -6633.3907     21190.01   -37702.491  0.034620402    1.6330903    4.4621426 
 1128000    292.89612   -951.88012    -184.2238   -7721.3885    16103.145   -41511.516  0.034611174     1.632852     4.462241 
 1130000    301.01331   -952.10341   -3966.0315    2213.3556    22761.822   -31596.274  0.034623058    1.6327535    4.4622748 
 1132000     343.9247   -952.43855   -1470.7976    812.94309    22006.462   -35942.964  0.034610049    1.6326553    4.4615732 
 1134000    328.81111   -952.32264   -6391.0821   -5221.2265    21769.768   -37164.391  0.034581786     1.632595    4.4620515 
 1136000    275.22498   -952.32928   -7533.9932   -2162.3563    23728.564   -38682.175  0.034576858    1.6325555    4.4622447 
 1138000    322.70419   -952.48654   -3010.2196   -5090.7475    26647.631   -35716.797  0.034589368     1.632704    4.4621383 
 1140000    332.02399   -952.10882   -3240.9889   -3383.6615    13993.373   -35640.652  0.034575942    1.6327405     4.462147 
 1142000    274.71038   -951.72215   -187.34924   -3817.0868    21773.551   -40110.954  0.034579112    1.6325179    4.4619877 
 1144000    328.93344    -952.5388   -7621.7136   -6179.7121    24203.744   -40205.731  0.034587255     1.632705    4.4624338 
 1146000     301.1772   -952.06909   -3292.1415   -4402.1921    24907.437   -40697.461  0.034586867    1.6326575    4.4623169 
 1148000    315.12283   -951.80275   -7363.2205   -1528.6952    27980.908   -42521.595  0.034566283    1.6324362    4.4621552 
 1150000    284.99425   -952.23244   -2264.6085   -6442.3975    21211.558   -36361.152  0.034580289    1.6328069    4.4623402 
 1152000    301.31411   -952.51194    -7307.266   -3659.5428    19820.625   -32606.834  0.034593975    1.6327656    4.4621612 
 1154000     302.2118   -952.26384    799.99384    1924.2929    28659.048   -25435.223  0.034581458    1.6325137    4.4622254 
 1156000    262.88983    -952.3719   -6871.3204   -6057.5643    25743.442   -31905.254  0.034591622    1.6327417    4.4619608 
 1158000    284.06241   -952.20655    4781.1363    747.94917    20186.557   -36851.155  0.034567923    1.6325583    4.4620469 
 1160000    312.97909   -951.83197   -2237.7691   -187.40733     23090.61   -32242.459  0.034567783    1.6326163    4.4617036 
 1162000    321.86308    -952.4416   -2778.1021   -1264.4114    20566.633   -39547.142  0.034613087    1.6327859    4.4611497 
 1164000    267.83221    -951.7989   -2114.5252   -4597.1153    22025.365   -36510.516   0.03459505     1.632306    4.4614683 
 1166000    293.52662   -952.01788    1269.5752   -956.21017    24698.704   -32361.387  0.034596538    1.6324463    4.4617093 
 1168000    332.84501   -952.15364    4939.8203    3551.6326    20880.953    -39567.77  0.034600532     1.632545    4.4616094 
 1170000    306.99736   -952.03692   -11100.187   -1511.2506     18951.87   -37807.521  0.034595589    1.6322111    4.4614855 
 1172000    356.38043   -952.35893   -230.19878    4040.2338    24441.889   -39405.537  0.034638194    1.6323426    4.4616526 
 1174000    298.15855   -951.94743   -1785.3029   -8332.9843    29037.176   -42036.877   0.03463155    1.6323221    4.4617325 
 1176000    333.08959   -952.39508   -5332.2139   -4089.8105     25527.98   -35612.526  0.034635807    1.6325057    4.4617573 
 1178000    246.94822   -951.90384   -474.12646   -3352.7125    27177.546   -38402.649  0.034640906     1.632608    4.4620943 
 1180000    276.86732   -951.91312   -8577.0441   -8691.6966    24722.231   -39852.872  0.034622365    1.6327235    4.4621854 
 1182000    285.19041   -951.79982   -4531.0133    -3089.138    26045.776   -43204.213   0.03462419    1.6330336    4.4620663 
 1184000    284.41874   -952.19302    1226.1249    1309.4398    20961.203   -34832.129  0.034637165    1.6327388    4.4624506 
 1186000     307.7861   -951.89059   -7055.3826   -11812.025    17669.691   -36525.633  0.034639613    1.6328978    4.4624592 
 1188000    294.07716   -952.36216   -2474.3012   -4098.9512    26243.266   -39384.813   0.03464489    1.6328782    4.4619092 
 1190000    316.84242   -951.68434   -8660.7566   -11570.058    29453.277   -41431.093  0.034634542    1.6332423    4.4620733 
 1192000     364.9349   -952.17406   -3526.0041   -8368.7144    20320.693   -42352.085  0.034641962    1.6335042    4.4626818 
 1194000    303.27172    -952.0009   -4898.8283   -2873.0319    18108.521   -33210.037  0.034635878     1.633313    4.4624134 
 1196000    324.75255   -952.57756    -785.1748    -1447.979    21988.123   -40726.789   0.03464484    1.6336312    4.4625353 
 1198000    282.43312   -951.70837   -8274.5189    -7150.087    17500.233   -38530.215  0.034667013    1.6333324    4.4626617 
 1200000    330.34229   -952.27813   -329.48956   -7361.9702    23618.256   -41997.473  0.034636104    1.6334179    4.4627852 
 1202000    279.11982   -951.85622   -2601.5046     2905.401    16191.532   -40609.879  0.034648277    1.6336774    4.4627261 
 1204000    345.70913   -952.33129   -5398.7743   -2468.5556     22528.68    -41510.26  0.034648882    1.6335639     4.462335 
 1206000    277.46343   -952.81123     -5100.37   -7596.5106    23354.501   -38141.063  0.034645065    1.6338597    4.4626807 
 1208000     335.4671   -951.80831    3907.9833   -6812.9039    20251.614   -38966.363  0.034629731    1.6339812    4.4627689 
 1210000    269.02094   -952.04712   -3239.3934   -5588.4586    25059.702   -34525.076  0.034629272     1.634019    4.4624835 
 1212000    279.67467   -952.32635   -317.18705   -3481.8163    17225.897   -40958.212  0.034630973    1.6337775    4.4620909 
 1214000    264.76847   -952.31175    3494.8432   -2343.0189    25584.896   -33500.598  0.034638733    1.6339112    4.4622492 
 1216000     254.7543   -952.42127   -2411.8473   -4601.1629    21949.972   -38565.973  0.034630285    1.6341798    4.4621258 
 1218000    290.37984   -952.33229   -5255.0122   -6148.8597     21230.05    -46806.09   0.03459743    1.6337736     4.461884 
 1220000    279.80096   -952.17641   -2520.8496   -1482.2899    20551.227   -39430.789  0.034627568    1.6337302    4.4621565 
 1222000    302.54689   -952.16399   -5804.7601   -4648.1596    21520.744   -40202.115  0.034665898    1.6340231     4.462237 
 1224000    293.90825   -951.93524    531.81111   -2083.3723    18426.183   -38087.085  0.034639831    1.6339447    4.4621853 
 1226000    294.51136   -952.20919   -58.516234   -1387.2885    25766.523    -35065.65   0.03461703    1.6337617    4.4620568 
 1228000    276.13845   -952.18848   -1672.2263   -3088.1938    15415.844   -42704.978  0.034626049    1.6339047    4.4623815 
 1230000    273.53601   -952.20634   -4442.4848   -6357.3254    19307.315   -34099.434  0.034638201    1.6336136      4.46181 
 1232000    272.37381   -951.85916    1566.1222    5951.2831    20961.192   -37061.354  0.034625829    1.6335984    4.4617527 
 1234000    292.92914   -952.42176    1513.9779   -5739.4792    23369.487   -37318.982  0.034623119    1.6336772    4.4620633 
 1236000     292.4986   -951.75725   -5117.1501   -445.72589    28678.727   -36534.147  0.034608502    1.6334736    4.4614348 
 1238000    291.71839   -951.89668   -10103.192   -8295.0069    29078.516    -35011.11  0.034615824    1.6337116    4.4616121 
 1240000    322.63167   -951.59531   -8145.2724   -4046.1403    25646.439   -35654.753  0.034656645    1.6335934    4.4617536 
 1242000    313.79719   -952.05309    -4035.277   -3129.5639     21819.07   -35491.357   0.03463301    1.6333412    4.4617852 
 1244000    322.01959   -952.07314   -1706.1968   -6115.1929    18141.391   -32265.328  0.034633767    1.6335007    4.4615569 
 1246000    287.74826   -951.95476   -4884.4539    4342.1398    21278.976   -40637.179  0.034645955    1.6334814    4.4614435 
 1248000     317.4181    -952.7111   -6145.5733   -6833.3623    19300.328   -35778.322  0.034611756    1.6333204    4.4619322 
 1250000    286.74065   -952.18579   -7581.9226   -8223.1916    24228.346   -39263.488  0.034631665    1.6331346    4.4611996 
 1252000    254.14806   -951.88289   -4079.8227   -1443.7403    26782.073   -41144.873  0.034694225    1.6333995    4.4610951 
 1254000    254.10547   -952.17676   -2945.9253   -1910.2675    25581.668   -34547.042  0.034681622    1.6333737    4.4618501 
 1256000    313.63941   -952.17362   -7329.5191   -4451.6154    25050.415   -34063.615  0.034673418    1.6332601    4.4617753 
 1258000    299.09865   -952.31001   -6137.2496   -5686.8088    23787.292   -35994.133   0.03470247     1.633376    4.4615155 
 1260000    270.55962   -951.99889   -4191.7311    -6125.361    23938.973   -42915.897   0.03468865    1.6332161        4.462 
 1262000    286.35018   -952.19131   -8344.3119   -3102.1288    22178.863   -38003.187  0.034713093    1.6331583    4.4619604 
 1264000    290.49963   -952.41538    -8060.487   -4244.1461    17970.059   -37428.535  0.034728076    1.6333761    4.4618184 
 1266000    343.04512   -952.40738   -4614.5668   -4663.2991    20075.381   -38652.571  0.034714497    1.6332901    4.4615725 
 1268000    307.93869   -952.01912    486.69858   -12464.159    17393.633   -39239.617  0.034739996    1.6331329    4.4619692 
 1270000      291.408   -951.80835   -1589.6668   -3751.9745     20624.35    -39416.49  0.034743127    1.6331346    4.4624612 
 1272000    277.73061   -952.50911    2331.9101    -1924.136    13815.142   -39805.171  0.034743393    1.6328648    4.4616854 
 1274000    323.54336   -952.46246   -3950.4982   -2267.7842    23998.031   -43630.166  0.034753396    1.6328612    4.4616156 
 1276000    294.03181   -952.08796   -2762.1585   -8516.5666    22144.065   -37134.935  0.034756261    1.6332236    4.4623397 
 1278000    265.56065   -952.47523   -585.14382   -10988.892    24014.551    -40445.94  0.034746838     1.632757    4.4619179 
 1280000    286.99645   -952.62081   -2308.8523   -6257.1075    22240.394   -35861.222  0.034745942    1.6326248      4.46173 
 1282000    260.39305    -951.6232   -3793.4797     1762.498    18811.594   -42153.645   0.03476875    1.6327196    4.4618979 
 1284000    343.96844   -952.15744   -4933.6029   -3257.0636    28464.163   -32289.322  0.034761507      1.63274    4.4623996 
 1286000    271.34975   -952.17484    -2781.127   -8544.3926     28054.98   -39726.228   0.03475118    1.6330069    4.4622939 
 1288000    279.56561   -951.89572   -2158.6446   -5639.4155     19657.35   -39625.975  0.034777405    1.6328146    4.4620274 
 1290000    277.59361   -951.92565     337.8699   -2380.9286    20645.957   -38763.697  0.034759744    1.6324402    4.4620187 
 1292000    262.09289   -952.26756   -279.96556   -2570.2039    20961.408    -35992.38  0.034800006    1.6328943    4.4620516 
 1294000    274.80856   -951.88191   -3363.2646   -10035.894    18796.843   -32370.206  0.034781675    1.6326818     4.461834 
 1296000    298.65865   -952.38815   -3891.3129    -2234.646    24574.686   -33103.713  0.034750788    1.6326449    4.4620139 
 1298000     291.3959   -952.30986    -893.0812    1624.4652    18987.498   -34746.689  0.034776285    1.6326571    4.4618799 
 1300000    276.03722   -952.12331   -3146.2738    2038.0649    21608.627   -44034.975  0.034759612    1.6325424    4.4620113 
 1302000    300.79621    -952.7442   -1392.4008    -2096.162    23821.257   -38951.619  0.034742158    1.6328913    4.4626948 
 1304000    350.91292   -951.86371   -3519.4102   -6121.3901    21082.986   -34012.876  0.034748207    1.6326548    4.4625569 
 1306000    305.17991   -951.78674   -4156.3842   -8382.5533    17856.963   -34639.874  0.034744023    1.6324511    4.4617829 
 1308000    314.84765   -951.55242   -3447.4242   -6063.6813    21897.919   -41839.299  0.034816169    1.6329612    4.4622083 
 1310000    288.60066   -952.57986   -6265.5618   -4610.2584    18399.414   -39882.468  0.034810279    1.6329945     4.462964 
 1312000    311.49995   -951.60716    -1761.174   -3557.1019    23679.083   -37061.465   0.03481522    1.6331029    4.4627975 
 1314000     307.9515   -952.22505   -11169.889   -7375.4332    21542.318   -40108.652  0.034808629    1.6328819    4.4624503 
 1316000    311.89569   -951.78325   -5900.9008   -9050.8666    22339.937   -38227.765  0.034808394    1.6327444    4.4628507 
 1318000    263.31538   -952.16309   -5588.1516   -787.40117    24744.825   -38567.177  0.034853456    1.6330956    4.4633139 
 1320000    297.72896   -952.75419   -1630.1692   -4123.1712    19485.907   -35412.157  0.034833261     1.632959    4.4628428 
 1322000    296.51162   -952.20184   -5733.6588   -3621.4616    26630.626    -32748.25  0.034809993    1.6326049    4.4626557 
 1324000    345.52649   -952.31868   -6860.1556   -5140.1141    24597.365   -37865.165  0.034836972    1.6329627    4.4630108 
 1326000    255.45931   -952.22895   -7462.7294    -4949.888    19378.541   -37774.087  0.034839963    1.6328162    4.4629981 
 1328000    366.37517   -952.13741    3117.5049    3582.4495    19222.229   -34907.981  0.034853258    1.6326165    4.4624361 
 1330000    337.76016   -952.54374   -3521.5777   -5165.0524    22578.631   -35697.959  0.034839977    1.6326345    4.4627826 
 1332000    253.51522   -951.63482   -13228.904   -7145.9106    23395.316   -33995.011    0.0348281    1.6327859    4.4628742 
 1334000    296.91998   -952.46946   -741.16379   -2199.6561    27856.769   -37518.194  0.034848011    1.6328767     4.462665 
 1336000    309.07615    -952.2225   -5329.0788   -2240.4073    19091.828   -33459.397  0.034866313    1.6330864    4.4631766 
 1338000    262.56271   -952.19211   -5368.1481   -10904.868    25850.794   -37791.504  0.034877034    1.6329315    4.4630494 
 1340000    278.06374    -952.4132   -4123.0953    422.45179    30452.808   -35928.103  0.034873799    1.6331208    4.4632068 
 1342000    314.89841   -952.19272   -9256.1708   -1408.9554    20500.382    -33951.24  0.034858626    1.6331102    4.4634167 
 1344000    288.56409   -952.41156   -3142.1573    1254.9641    17740.686   -34506.797  0.034881166    1.6328216     4.462292 
 1346000    264.12096   -952.18048    7543.3507    786.58658    21802.245   -41647.977  0.034881203    1.6328799    4.4623967 
 1348000    293.58104   -951.90087   -8108.5035   -9030.0615     24019.94   -31585.772  0.034894746    1.6328528    4.4626316 
 1350000    278.29572   -951.79614   -3320.6181    -9063.528    27497.468    -44439.01  0.034875081    1.6325688    4.4624317 
 1352000    236.06841    -952.6363   -1179.9825   -2769.5757    28451.274    -38638.15  0.034855798    1.6327436    4.4628551 
 1354000    290.93489   -951.76398    2748.9618    1802.5361    16662.957    -30800.22  0.034879018    1.6325961     4.462295 
 1356000    334.61957   -951.80745   -9522.5006    -2626.736     19620.34   -39992.217  0.034893825    1.6324043    4.4622983 
 1358000    248.14645   -952.32277   -10023.875   -11884.484    29190.346   -36356.131  0.034872396     1.632378    4.4625526 
 1360000    323.01199    -952.2115     2554.256   -1110.9744    25340.207   -30535.937  0.034878078    1.6323069     4.462208 
 1362000    303.77281   -951.88168     1873.045    1693.3357    16151.801   -35761.551  0.034867751    1.6323132    4.4614912 
 1364000    349.38974   -951.93359    59.826169   -11151.225    18083.689   -39771.847   0.03489029    1.6323589    4.4619168 
 1366000     278.4898   -952.21139   -5425.9936   -7113.5615    17146.579   -36695.214  0.034901708    1.6322558    4.4620692 
 1368000    275.07818    -952.2966    -4706.361   -9864.1797    23382.763   -36454.353   0.03488272    1.6322364    4.4617265 
 1370000    311.23319   -952.24898    3282.1673    3423.3133    24501.045   -40547.888  0.034879545    1.6321598    4.4615946 
 1372000    318.00975   -952.08947    3002.7322    -1243.487    22909.826   -39803.329  0.034886889    1.6323268    4.4621111 
 1374000    263.58129   -952.12891   -1012.0172   -3516.2697    21007.931   -36065.195  0.034888566    1.6323397    4.4622649 
 1376000    284.64372    -952.1404   -3789.1028   -5900.6554     20666.56   -35965.321  0.034885419    1.6322229    4.4620009 
 1378000    293.55755   -951.42783   -1179.2993    -4114.439     21909.19   -37119.612  0.034863856    1.6322356    4.4618138 
 1380000     286.6898   -952.03919    1061.6448    134.13334    16637.496   -36197.652   0.03487095    1.6323714    4.4620549 
 1382000    334.29926   -952.00284   -8320.3569    -2966.881    18306.202   -39278.775  0.034886255    1.6324412    4.4619052 
 1384000    281.07775   -952.60782   -1804.5585   -2373.9185    15745.655    -44425.71  0.034881984    1.6322686    4.4618564 
 1386000    348.98202   -952.16363    978.28699   -7606.5253    20526.553   -31161.267  0.034869278    1.6321721    4.4616899 
 1388000    316.65738   -951.90713   -1317.8282   -7001.6556    19606.163   -41091.613  0.034881874    1.6323971     4.461941 
 1390000    253.44829   -951.80112    928.80797   -234.08343    14146.573   -40694.966  0.034874625    1.6325125    4.4622814 
 1392000    330.35514   -951.58153   -470.86409   -8757.6672    23126.137   -36608.896  0.034898311    1.6322826    4.4623482 
 1394000    289.38462   -952.07432   -2998.7651   -8577.5781    24609.998   -30126.333  0.034893221     1.632347    4.4625144 
 1396000    349.51459   -951.76923   -3589.8761   -4870.8989    13546.779    -42932.73  0.034904813    1.6326417    4.4624969 
 1398000    340.72557   -952.08489   -4717.9783   -6432.0635     23157.83    -37482.54  0.034939558    1.6329599     4.462595 
 1400000    315.52359   -952.38858   -5407.8374   -9237.5241    24259.891   -37586.226  0.034915524    1.6328157    4.4624746 
 1402000    255.61858   -952.10942   -6023.0918   -4189.7152    25380.149   -33870.088  0.034910525    1.6330539    4.4625725 
 1404000    258.47927   -952.10991    1910.7484     1152.138    22294.293    -35204.85  0.034945393    1.6330916     4.462575 
 1406000    249.73844   -951.90619   -114.33068   -5249.2151      26674.6   -38096.265  0.034953705    1.6329057    4.4625114 
 1408000    288.40307   -952.34516    961.02985   -915.63771    22486.891    -36433.78  0.034954649    1.6331653     4.462491 
 1410000    295.16553   -952.10144   -4201.1287    -2787.517    23186.779    -34117.65  0.034953071    1.6332433    4.4624594 
 1412000    289.81673   -951.69863   -5383.0108   -4131.1948    24564.073   -40130.659  0.034972703    1.6332439    4.4628951 
 1414000     282.8567   -951.97653    2263.0835   -755.63176    19493.912   -37839.059  0.035022058    1.6335362    4.4631685 
 1416000    271.14876   -952.24728   -33.794869   -6644.7572    19736.373   -42217.549  0.035007896    1.6334058    4.4624501 
 1418000    267.93421   -952.27437   -7846.1785   -669.58975    21714.467   -37490.081  0.035004487    1.6332853    4.4622078 
 1420000    281.07017   -952.05535    374.91317   -7707.0123    27801.974   -39902.449  0.035002074    1.6333335    4.4624357 
 1422000     274.3363   -952.23581   -56.035871    3759.7907    26644.652   -40047.274  0.035052759    1.6333668    4.4625708 
 1424000    334.79049   -952.06288    860.42558   -5425.9222    28782.109   -43037.969  0.035049324    1.6333788    4.4621586 
 1426000    318.01313   -951.65757    -6819.807   -4331.7691    24294.639   -40926.394  0.035039104    1.6333545    4.4621716 
 1428000    315.86701   -951.90007   -4429.5334   -7186.5425    28368.792   -41949.237  0.035030634    1.6332304    4.4623719 
 1430000    282.84317   -952.12308    272.68941    -4135.492    20951.835   -35474.965  0.035046883    1.6334972    4.4625366 
 1432000    293.40018   -952.11519   -447.90407   -4317.8962    19539.086    -37934.27  0.035061638    1.6333606    4.4622071 
 1434000    301.87614   -951.89326   -2942.3142    714.02187     19159.23   -43910.497  0.035058621    1.6330822    4.4622559 
 1436000    278.02485   -952.14347    1701.3755   -4507.4833    25018.266   -39978.947  0.035073222    1.6333239     4.462351 
 1438000    325.38436   -952.54315   -2583.3162   -2797.3297        19616   -39416.631  0.035071646    1.6333698     4.462171 
 1440000    322.76788   -952.18054   -5154.6666   -6045.4313    28054.714    -42393.92  0.035047912    1.6330695    4.4618796 
 1442000    346.38868   -952.00582   -1143.6602    707.90425    26317.981   -30918.861  0.035068262    1.6330828    4.4619766 
 1444000    287.29357    -952.1557   -5503.0208   -4097.1669     23699.81   -33621.491  0.035076787    1.6331995     4.462363 
 1446000    309.74738   -951.90624   -7772.1689   -8705.0447    26275.205   -36424.705  0.035058453    1.6330976     4.462427 
 1448000    274.31269   -952.08004   -3467.2492   -3574.4272    24143.224   -38992.558  0.035062588    1.6330194    4.4619637 
 1450000    283.24096   -951.93274    7051.9217    71.536491    14071.013   -46773.336  0.035069144    1.6329478    4.4620409 
 1452000    282.01174    -951.9298    -883.7701   -7560.3906    24445.531   -42062.793  0.035093961    1.6328687    4.4621544 
 1454000     286.4171   -952.55625    1921.2424   -4462.1174    16404.846   -28230.053  0.035111009    1.6331507     4.462173 
 1456000    292.35838   -952.16803   -416.80966    2629.2196    19827.184   -34430.286  0.035102155    1.6328144    4.4615629 
 1458000    271.13201   -951.93696   -5280.7084   -1470.8297     29454.51   -44185.538  0.035088203    1.6329334     4.461728 
 1460000    250.57235   -952.17364   -4594.4596   -2231.8214    20622.592   -41865.163  0.035100683    1.6333235    4.4618969 
 1462000    263.38583   -951.83424   -1778.2422   -2964.7266    27592.191   -31184.134  0.035091019    1.6331384    4.4619809 
 1464000    281.76878   -951.92828   -3719.2204   -4300.9692    28946.122   -30219.454   0.03508438    1.6332908    4.4620143 
 1466000    262.62474   -951.73597    3864.7027   -4631.5956    17324.058   -36857.306  0.035084836    1.6338332    4.4623297 
 1468000    303.18046    -952.4558   -6928.7259   -3060.5688    22558.025   -37456.996  0.035074689    1.6334911     4.462185 
 1470000    264.98725   -951.87613   -7952.8185   -4576.5624    25381.503   -41258.895  0.035080511     1.633495    4.4624171 
 1472000    297.63687   -951.74164   -2869.7047   -1813.2822    24521.499   -34078.697  0.035067051    1.6336244    4.4625599 
 1474000    316.21649   -952.22558   -3487.5529    -2934.607    18340.864   -38511.217  0.035086815     1.633594    4.4618413 
 1476000     313.1352   -952.31004   -2857.2221    913.34176    20949.222   -44482.981  0.035082043    1.6336086    4.4618608 
 1478000     297.0898   -952.25303    2676.2051   -1671.1386    17555.794   -38559.503  0.035066114    1.6337199    4.4621083 
 1480000    273.27122   -952.35914   -5295.2157   -8448.8845    26108.173     -41613.5   0.03507095     1.633629    4.4617524 
 1482000    263.42963   -952.12301   -3877.9449   -661.37275    23707.127   -32697.847  0.035070683    1.6341007    4.4622951 
 1484000    304.75658   -952.78393   -4018.5095   -7067.6736    20570.524   -39648.648  0.035071361     1.634241    4.4622953 
 1486000    290.21804   -952.41445   -10648.424    283.29635    18389.417   -38583.883  0.035082906    1.6340964    4.4622779 
 1488000    297.97802   -952.29923   -2466.1059   -4547.0181    25257.332   -40673.963  0.035101622    1.6340617     4.462441 
 1490000    332.43143   -952.84037   -4566.8725   -2020.2309    24716.813   -39027.269  0.035168262    1.6344077    4.4627758 
 1492000    332.31906   -952.60065   -1036.0782   -1174.2199     16391.59   -32235.318  0.035204316    1.6342673    4.4627945 
 1494000    320.83737   -953.17806    297.53575   -1885.5494    21057.002   -36690.302  0.035193441    1.6337216    4.4621806 
 1496000    273.34117   -953.17857   -2274.2624   -8329.6995    24403.086   -39850.427  0.035233811    1.6339483    4.4626181 
 1498000    253.98205   -952.29872   -993.10141    2293.5923    19175.641    -38320.85  0.035273435    1.6339632    4.4628529 
 1500000    301.32979   -952.63322    2400.0323   -3862.4775     25185.07   -37110.249  0.035262156    1.6338336    4.4626502 
 1502000     307.0208   -952.20283   -2171.1141   -948.67671    25251.559    -35678.29  0.035321921    1.6338211    4.4623543 
 1504000    325.73248   -952.11148    1446.0962    7630.0752    21319.099   -43218.506  0.035334803    1.6335506    4.4624374 
 1506000    293.74522   -952.29755    -5520.281   -5946.0523    26235.319   -41323.693  0.035347902    1.6336691    4.4627134 
 1508000    289.22399   -952.30346   -6263.4478   -2267.7637    24328.783    -37607.36  0.035389609    1.6336441    4.4622279 
 1510000     309.0178   -952.79689   -534.71864   -2081.7277    20596.639   -43296.952   0.03538893    1.6333423    4.4621855 
 1512000    265.53509   -952.98408   -4857.2704    -758.3733     25738.13   -33982.535   0.03542939    1.6332244    4.4624582 
 1514000    298.73691   -952.08104   -1293.2603   -3210.8614    17792.959   -36781.511  0.035470543     1.633261    4.4624903 
 1516000    308.83755   -952.24455   -4678.0161   -1674.1752     22860.64   -37880.647  0.035496074    1.6330737    4.4624819 
 1518000     308.3828   -952.81512   -4368.7624   -4435.1671    20676.002   -42929.309  0.035503853    1.6331141    4.4626356 
 1520000    296.28292   -952.44659   -8229.6704   -4566.7483    20846.265   -34822.513  0.035538487    1.6330858    4.4628741 
 1522000     301.1092   -952.69158   -8495.9961   -11029.578    27773.523   -35913.377   0.03558788    1.6331089     4.462529 
 1524000    319.60665   -952.42878   -9884.8358   -7942.0916    20855.898   -37881.124  0.035588704    1.6329363    4.4622289 
 1526000    346.99596   -952.66987    -12019.95   -4767.3486    27105.502   -41886.044  0.035607153    1.6328625    4.4626812 
 1528000    280.46947   -952.64684   -2928.5272   -6676.6588    15663.713   -30236.052   0.03563686    1.6330332    4.4629607 
 1530000    249.52262   -952.43916   -3133.1999   -4775.7377    20983.688    -41837.36  0.035657404    1.6326745    4.4623259 
 1532000    315.52952   -953.09173   -5393.9527   -8560.7624    20593.431   -36289.041  0.035661077    1.6326261    4.4624686 
 1534000    315.14549   -952.52487   -3932.5523    240.06249    18687.209   -33600.309  0.035684804    1.6325969    4.4626931 
 1536000    295.07064   -953.11187   -9712.4926   -2927.7285    26228.982   -40214.701  0.035721579    1.6325827    4.4625037 
 1538000    267.92363   -952.40746   -7177.5793   -6352.4848    15863.013   -37576.165   0.03575857    1.6328068     4.462272 
 1540000    328.42241   -952.41517   -13520.763    1144.3801    28886.219   -35228.702  0.035772821    1.6322463    4.4619413 
 1542000    271.96262   -952.05035   -4804.2768   -11856.562    25659.028   -38724.579  0.035802549    1.6323249    4.4622134 
 1544000    222.59818   -952.90451   -3541.6615   -1888.4588     28175.87   -35891.422  0.035848726    1.6325303    4.4621906 
 1546000    285.62183   -952.88457   -7512.3029   -3030.8353    21571.021   -32276.174  0.035854272    1.6322419    4.4623221 
 1548000     274.6474   -953.16677   -4111.7215   -5915.3756    21802.563   -38475.146  0.035886209    1.6321252    4.4619721 
 1550000    303.07271   -952.12583    2215.6958    289.00566    22394.635   -41388.718  0.035921062    1.6321829    4.4622232 
 1552000     245.6021   -952.44108   -2155.8825   -2062.1501    23070.934   -35297.037  0.035927078        1.632    4.4621376 
 1554000    287.36671   -952.58502   -573.49474   -5150.1131     21044.88    -41442.12  0.035987536    1.6319928    4.4620959 
 1556000    276.50037   -952.69359   -6092.3741   -7372.0998    20525.935   -35919.937  0.035979804    1.6318119    4.4617901 
 1558000    309.25501   -952.14525    -5138.808   -2499.1885    26659.839   -39945.649  0.036031766    1.6318049     4.461958 
 1560000    299.78912   -953.23269   -6104.9691   -5340.7962     21644.43   -36662.298  0.036085968    1.6319273    4.4625568 
 1562000    317.07103   -953.33968   -9948.2481   -8173.6845    23109.624   -38510.618   0.03608431    1.6315117    4.4618679 
 1564000    262.33872   -952.94757   -5816.3339   -4395.3506    23345.278   -36546.133  0.036118709    1.6313904    4.4620785 
 1566000    252.94048   -952.55111   -3236.1178     -7459.13    19660.351   -44401.096  0.036180867    1.6315777    4.4627242 
 1568000    338.60972   -952.21359   -3875.1141   -3717.5017    21635.808   -40770.791   0.03618669     1.631373     4.462413 
 1570000     275.0631   -952.82372    1640.4941   -7591.1175    28311.947   -32186.417  0.036223378    1.6312416    4.4620812 
 1572000    277.51169   -952.63244   -3935.3249    -5629.605    25061.459   -38362.265  0.036242608    1.6311175    4.4620425 
 1574000    309.60335   -951.85588   -4220.5622   -5597.3123    24978.856   -33928.323  0.036266375    1.6312379    4.4625482 
 1576000    297.27644   -952.95441   -5945.9387   -4534.5706    23377.456   -31300.202  0.036305097    1.6311441    4.4621644 
 1578000     276.6919   -952.77339   -3875.2249   -6133.1013    24912.867   -39829.835  0.036293871     1.630828    4.4620209 
 1580000    311.63852   -952.26591    1906.8877   -8043.3878    25467.896   -35803.659  0.036337751    1.6307993    4.4623522 
 1582000     269.1871   -953.19136    -6697.697   -4267.6023     21893.39   -42257.634    0.0363537    1.6308607    4.4623617 
 1584000    258.77041   -952.42205   -1514.7046   -4641.5005    18614.359    -37331.91  0.036386587    1.6307883    4.4619232 
 1586000    293.04416   -952.45672   -5398.4516   -3255.0828    23636.661   -38349.068  0.036402108     1.630661    4.4620239 
 1588000    268.33158    -952.4037    2915.0392   -4368.7311    17224.311   -36842.292  0.036420327    1.6304288    4.4619459 
 1590000    306.74617   -952.77584    -937.8379    1285.7431     31512.09   -30856.491  0.036490666     1.630422    4.4617642 
 1592000    278.96551   -952.73869   -4526.6637   -3894.2925     20768.37   -37478.375  0.036497308    1.6303254     4.461964 
 1594000       348.56   -952.94822     -6798.12   -11393.215    23014.452   -41468.355  0.036500379    1.6300526    4.4616979 
 1596000    260.53782   -952.93993   -3279.1278    -6897.234    21344.478   -35412.639  0.036530401    1.6301798    4.4618848 
 1598000    271.29185   -952.74522   -4023.7431    -5919.496    19701.519   -33652.332  0.036553327     1.630077    4.4617951 
 1600000    270.74696   -953.11718   -9012.2747   -2927.9102    20559.002   -33224.913  0.036568932    1.6299039    4.4615214 
 1602000    324.82736   -952.48903   -2795.1918    -4601.703    24909.142   -36733.765   0.03659379    1.6298789    4.4614586 
 1604000    343.45067   -952.67907   -6217.0554   -2964.2948    21337.586   -41839.743   0.03660754    1.6298891    4.4615244 
 1606000    328.58532   -952.26637   -8867.3656   -5574.7597    18379.322   -38031.191  0.036624995    1.6297486     4.461519 
 1608000    312.32052   -952.43612   -7665.2268   -6840.1583    21879.058   -38689.336  0.036661217       1.6297    4.4613659 
 1610000    334.11825     -952.384   -3056.6171   -7047.1817    22743.697   -35786.584   0.03667211    1.6294737     4.461337 
 1612000    308.18164    -952.9663   -6706.2382   -7657.2775    25785.134   -37520.781  0.036697297    1.6294823    4.4617252 
 1614000    313.98439   -952.75456   -4344.9541   -2350.2356    19627.617   -35950.024  0.036727035    1.6297201    4.4617052 
 1616000    345.29988   -952.75706   -6241.8973   -2977.1402    20087.003   -34541.352  0.036750385    1.6292301    4.4610898 
 1618000    251.77375   -952.73169    -296.4452   -6800.4181    28137.317   -39555.697  0.036754452    1.6292542    4.4614827 
 1620000    260.07866   -952.86598   -2174.7727   -4997.5413    26599.807   -27977.261  0.036801589    1.6291822    4.4614174 
 1622000    309.40409   -952.23238   -6412.0035   -7287.1329    25573.219   -37641.036  0.036866849    1.6290826    4.4613719 
 1624000    366.71101   -951.98589   -6380.2602   -9710.5034    21624.017   -39532.291  0.036902084    1.6289472    4.4615267 
 1626000    240.95326   -952.55779   -8507.9059   -4214.3332    14648.919   -36352.587  0.036966892    1.6286011    4.4614197 
 1628000    294.20768   -952.70092    602.11473   -3809.5888    22022.045   -38470.208  0.037021699    1.6285608    4.4614365 
 1630000    302.33727   -952.38985   -15275.303   -6137.8922     18322.68   -41752.474  0.037084006    1.6285049    4.4613871 
 1632000    290.38644   -952.72247   -6519.5718   -9556.0997    20840.308   -39070.929  0.037117409    1.6283726    4.4614324 
 1634000    271.09244   -952.37348   -2050.2337   -2503.0729    22073.902   -35373.463  0.037162575    1.6282621    4.4614859 
 1636000    329.61845   -952.92055   -5319.5833   -3336.5434    20419.494   -36243.783  0.037201153    1.6282428    4.4615984 
 1638000    205.64065   -952.36178   -3613.7873   -8710.6659    21271.074   -36947.842  0.037249034    1.6280841    4.4615176 
 1640000    355.40976   -952.82575   -6304.3712   -7775.5957    22696.094   -37370.479  0.037311167    1.6279315    4.4617125 
 1642000    315.32032   -952.09191   -6252.4189    -6685.512     25326.71   -36532.181  0.037376264    1.6280065    4.4618633 
 1644000    273.46272   -952.78125   -9784.4144   -6964.4207     30503.66    -38451.26  0.037427055    1.6276663    4.4614924 
 1646000    292.14128   -952.73357    -9312.242   -3556.0335    19408.744   -36834.727  0.037479383    1.6274985    4.4616506 
 1648000    289.71653   -952.83803     67.20433     -10492.3    24602.945   -38404.213  0.037537987    1.6274602    4.4616788 
 1650000    278.54007   -952.32722   -5688.7012   -1870.3926    17275.379   -36788.163  0.037588905    1.6274301    4.4616456 
 1652000    315.17167   -952.54634   -4642.5516    -1195.945    24337.374   -37201.299  0.037621591     1.627326      4.46152 
 1654000    264.80932   -952.67588   -1039.9749    -3112.818    19262.629   -34558.457  0.037622596    1.6271774    4.4614999 
 1656000     270.4433   -952.89109   -7473.8225   -4571.2906    22191.932   -39461.585  0.037671745    1.6271404    4.4612663 
 1658000    282.06082   -952.21344   -7973.7073   -4898.9539    21269.345     -41090.9  0.037717538    1.6271593    4.4613769 
 1660000    275.26838   -952.89789    -866.8349   -7281.3641    24581.955   -30536.424  0.037727589      1.62715    4.4616881 
 1662000    239.06456   -952.44527   -4900.2076   -3893.9231    22082.314   -39811.295  0.037763353     1.627033    4.4612374 
 1664000    270.48952   -952.50156    -10065.83   -6588.3472    19027.141   -41574.245  0.037781908    1.6269176    4.4612689 
 1666000    256.12053   -952.34274   -1099.9405   -5463.0322    21611.587   -35600.711  0.037815618    1.6268787    4.4613336 
 1668000    283.31815   -952.58197   -5355.2564   -6375.1481    25614.347   -37300.693  0.037851825    1.6268757    4.4610931 
 1670000     258.9913   -952.82555   -7872.1327   -6085.6471    16954.522   -38323.132  0.037900865    1.6267316    4.4612918 
 1672000    251.47501   -952.28925   -5477.0548   -4527.0148    19557.865   -37220.722  0.037948465    1.6265641    4.4613354 
 1674000    308.53204   -952.85378   -6705.6865   -8263.3428    23204.841   -37712.256  0.038016252    1.6263368    4.4611158 
 1676000    266.40709   -952.56116   -3399.9576   -2330.2791     22617.35   -40167.038  0.038078352    1.6262359    4.4612189 
 1678000    283.81676   -952.70134    296.82296   -3817.7552    24331.662   -38768.664   0.03811523    1.6261959    4.4614083 
 1680000    316.69646   -952.39983   -2521.2425   -3996.0046    16139.527    -37285.54  0.038153878    1.6260927    4.4613779 
 1682000    278.86498   -952.24235    78.707722    1664.4775    25068.471   -32341.273  0.038163218    1.6260081     4.461289 
 1684000    325.77185   -953.19475   -2708.4424   -5527.0492    30053.542   -39165.916  0.038186279     1.625833    4.4612913 
 1686000    349.02796   -952.48327   -2881.1784   -6742.7207     22936.16   -36827.631  0.038228457    1.6259256    4.4612684 
 1688000    293.62563   -953.32802   -2792.9703   -3407.5392    21912.157   -38346.066  0.038249313    1.6259961    4.4613663 
 1690000    297.60029   -952.51277   -3507.5301   -4593.9845    18653.683   -45411.037  0.038264187    1.6255918    4.4610678 
 1692000    308.90765   -952.62702   -1310.3129   -5053.2993    24197.967   -39336.516  0.038281271     1.625728     4.461309 
 1694000    299.36932   -952.54438   -8319.3698    561.85976    26234.617   -39733.934  0.038308837    1.6256143    4.4612649 
 1696000    263.75232   -952.78554   -3441.7368   -1879.3921    26206.366   -39071.544  0.038364182    1.6257657    4.4616127 
 1698000    301.37538   -952.76219   -11717.632   -7078.9679     21353.56   -30245.331  0.038378955    1.6256143    4.4616334 
 1700000    292.60213   -952.75257   -6158.3339   -8506.4816    20402.836   -33464.948  0.038373101    1.6254486    4.4611507 
 1702000    318.33208   -952.61315   -6779.5349   -9557.2563    26480.762   -40193.207  0.038426257     1.625609    4.4612955 
 1704000     294.8215   -952.36584   -2030.9194   -3996.4096    13413.498   -31993.594  0.038462365    1.6254994    4.4618006 
 1706000    302.89916   -953.30839    2733.1239   -4900.3015    25513.281     -30289.3   0.03844961    1.6253125    4.4615052 
 1708000    320.67478   -952.46817   -9912.6254   -7240.5216    20579.252   -35124.016  0.038507697    1.6253912    4.4611289 
 1710000    294.95304   -952.15768    -3106.088   -5112.5302    21525.497   -40380.709  0.038523773    1.6253315    4.4613865 
 1712000    249.51016    -952.4491   -4955.0398   -7503.1241    24295.492   -39019.532  0.038539701    1.6253264    4.4618182 
 1714000    283.52063   -952.69834   -426.71928    418.29086    20369.908   -27127.811  0.038578589    1.6252644    4.4610904 
 1716000    331.76717   -952.57297    -367.1037   -5682.3061    20938.823    -45593.57  0.038609794    1.6250995    4.4610452 
 1718000    274.94276   -952.84486   -698.12206   -7275.2244    20588.814   -36049.421  0.038613383    1.6250973    4.4619989 
 1720000    313.72544   -952.33963   -1987.0218   -11158.403    18119.986   -31370.874  0.038630473    1.6248936    4.4612802 
 1722000    316.55335   -952.44339   -9473.9538   -4581.4696    20334.085   -39975.569  0.038671459    1.6248312     4.460904 
 1724000    243.36374   -952.82455   -7185.9403   -4624.4397    24127.786   -32204.692  0.038663731    1.6247288    4.4615867 
 1726000    301.72342   -952.36284   -6976.4756   -7033.7344    23749.404   -31730.523  0.038699087    1.6246262     4.461286 
 1728000    334.06344   -952.81742   -7577.3769   -10040.238    16484.626   -39732.255  0.038725748    1.6246526    4.4610531 
 1730000     295.8518   -953.08343   -2638.5853   -6101.9655     20133.03   -39546.144  0.038727505    1.6244473    4.4612739 
 1732000    282.72228   -952.34978   -1979.8854   -5390.0582    22461.404   -41637.982   0.03876657     1.624492    4.4613181 
 1734000    301.38484   -952.99478   -2995.3943   -1933.5289    15391.277   -33877.926  0.038795955     1.624754    4.4614537 
 1736000    319.89522   -952.70415   -4112.6434   -7823.1456    18292.209   -37461.175  0.038789375    1.6243813    4.4612147 
 1738000    292.67677   -952.56518    -11381.99   -10417.121    26007.306   -42176.235  0.038812395    1.6242693      4.46136 
 1740000    281.31256   -952.31061   -3805.5527   -6184.4984     27106.44   -34699.392  0.038845031    1.6243759    4.4615954 
 1742000    360.40028   -952.68085    438.33468     1920.353    21294.569   -34966.644  0.038859647    1.6242179    4.4613516 
 1744000    344.64308   -952.84944   -2913.6007   -7094.1275    19111.027   -33832.137  0.038864216    1.6241794    4.4613727 
 1746000    300.15464   -952.44917    2308.1469    729.89397    20809.051   -37076.819  0.038898859    1.6241981    4.4614287 
 1748000    274.35294   -952.35852   -4140.8551   -4858.3438    23699.238   -46457.498  0.038905813    1.6240335    4.4611623 
 1750000    315.46079   -952.85329   -2315.6884   -926.43532    22506.652   -41792.075  0.038949352    1.6239799    4.4612673 
 1752000     274.5888   -952.48632   -3712.4699    477.43038    23508.903   -36993.147  0.038962265    1.6240357    4.4614426 
 1754000    281.09787   -952.41281   -6488.3619   -6449.1642    27798.111   -42297.841   0.03895432    1.6236214    4.4611494 
 1756000    310.60184   -952.52683   -4123.1302   -9188.7208    26784.883   -43558.474  0.038975663     1.623847    4.4614494 
 1758000    316.33238   -952.40726   -1710.2274   -6317.9983    21096.549   -40092.496  0.039011725    1.6237779    4.4614241 
 1760000    281.83172   -952.77345   -4993.9497     733.9185    24041.043   -37771.962  0.039016887    1.6234817    4.4613387 
 1762000     268.2673   -952.83857   -315.96677   -8527.8837    24165.863   -34818.234  0.039041842    1.6236201    4.4613693 
 1764000    275.49178   -952.65524   -3266.9604   -352.33973    17012.615   -39726.164  0.039062743    1.6236929     4.461176 
 1766000    293.56949    -953.0608   -7469.2625   -3480.6912    22156.625   -35837.234  0.039074164    1.6234691    4.4614455 
 1768000    280.56582   -952.41137   -5513.5712   -6332.8379     28063.55   -34706.635  0.039109044    1.6234834    4.4614898 
 1770000    265.46339   -952.49421   -1769.6493    -5661.696    25531.684   -36788.013  0.039115294    1.6232994    4.4612726 
 1772000    315.39585   -952.95234   -4205.6507   -5062.8798    21051.427   -34448.223  0.039128848    1.6232465    4.4613463 
 1774000    306.45285   -952.42144   -11107.773   -4311.3476    21937.673   -35570.292  0.039152483    1.6231081     4.461367 
 1776000    296.94146   -952.68111   -4479.5922   -4267.1501    16338.576   -38610.754  0.039175546    1.6231352    4.4616981 
 1778000    325.69138   -952.74234   -5244.1909   -3314.5738    27906.102   -39160.202  0.039203406    1.6229307    4.4613174 
 1780000    318.61503    -952.7039   -5264.3317   -4940.5342    25421.999   -43942.545   0.03921149    1.6230194    4.4616153 
 1782000    314.06317   -952.56875    1513.3821   -4278.4166    24645.116   -37896.539  0.039237137    1.6228189    4.4616685 
 1784000    290.78453   -952.72217    1261.5775    1058.8509    21729.094   -35436.515  0.039246035    1.6228772    4.4617079 
 1786000    274.60286   -952.90459   -11818.607   -6170.9626    26210.483   -34115.102  0.039274409    1.6227046    4.4615688 
 1788000    318.65015   -952.50753   -6134.3077     -8842.01    25656.068   -34308.569  0.039305393    1.6226522     4.461863 
 1790000      326.013   -952.70076   -3928.4719   -260.91583    25278.923   -36536.131  0.039316033    1.6224322     4.461686 
 1792000    266.41565   -952.69759   -3473.9251   -83.856061    26078.351   -41727.477  0.039348998    1.6225904    4.4617519 
 1794000    339.80399   -952.95371   -9062.7858   -6796.0422    27170.252   -41855.946  0.039350003    1.6224948    4.4618162 
 1796000    319.73934   -952.60614   -9714.0515   -4279.3235    21263.086   -38868.938  0.039369275    1.6223025    4.4618787 
 1798000    309.31418    -952.4422   -7870.6205    -9164.025    21114.006   -37810.517  0.039397602    1.6224673    4.4618981 
 1800000    263.09467   -952.88575    -386.7973   -9747.9299    20577.874   -42198.652  0.039419835    1.6222975    4.4618779 
 1802000    278.06194   -952.64895   -8438.1622    904.61383    24618.429   -38457.566  0.039431169    1.6220352    4.4622643 
 1804000    309.20794   -952.77973   -8194.2681   -8979.4759    23778.222   -35594.538  0.039479073    1.6223638    4.4621725 
 1806000    257.66958   -952.33808   -5001.4846   -2422.4112    32694.678   -44858.283  0.039487618    1.6220611    4.4618722 
 1808000    264.04302   -952.48517   -8125.6187   -6985.2262    17122.171   -43568.581  0.039491617    1.6221297    4.4622944 
 1810000    307.69279   -952.70813   -506.08048   -1532.4357    26003.238   -37847.696  0.039525117    1.6219252    4.4620918 
 1812000    315.68999    -952.2492   -1003.2256   -6573.5846      20044.5   -41136.362  0.039527863    1.6219025    4.4619989 
 1814000    293.93842   -952.28727   -3499.1013   -4332.1924    24302.207   -42735.961  0.039543809    1.6217618    4.4619382 
 1816000    277.63061   -952.61747   -3784.1896    -1014.034    21319.139   -35064.345   0.03955488     1.621687    4.4621821 
 1818000    341.64175   -952.24583   -1211.4557   -8648.5877    25273.133   -38193.356  0.039578692      1.62155    4.4619534 
 1820000    321.56462   -952.41283   -2933.7654   -2766.5465    21634.054   -36366.142  0.039602201     1.621509    4.4619881 
 1822000    308.98373   -952.68502   -5251.6993   -7671.1995    22999.238   -35755.083  0.039605936    1.6214258    4.4621432 
 1824000    293.20796   -952.59345   -8017.1005    1838.6633     16848.37   -37045.552  0.039644582    1.6214727    4.4622727 
 1826000    263.15074   -952.63183   -2957.9011     898.2198    27395.601   -37154.213  0.039647279     1.621181    4.4619137 
 1828000    304.46203   -952.44662   -598.62532   -5257.0707    19021.331   -41857.001  0.039677421    1.6213454    4.4620968 
 1830000     273.7537   -952.91157   -7512.2592   -872.90574     19911.27   -38577.368  0.039705835    1.6212041    4.4624877 
 1832000    293.31584   -952.37318   -4016.8328   -6697.2266    31446.301    -40977.37  0.039727075    1.6209549    4.4620621 
 1834000    314.10679   -952.82863   -10789.782   -2823.0398    24370.159   -43876.907  0.039757189    1.6212598    4.4620788 
 1836000    328.91404   -952.78979   -10257.263   -2568.3948    20604.589   -36006.065  0.039783147    1.6209993    4.4622373 
 1838000    271.08282   -952.82329   -3366.4789   -6292.0558     27653.38    -37681.44  0.039782189    1.6209171    4.4621781 
 1840000    342.74157   -952.56383   -539.78945   -10292.371    14859.941   -33685.811  0.039825657      1.62115    4.4620466 
 1842000    282.68341   -952.50086   -6349.6873     -2648.74    19802.783   -44387.678  0.039831788    1.6208535    4.4617849 
 1844000     267.6083   -952.93479   -4454.0969   -8794.2894    24918.784   -37538.513  0.039848292     1.620843    4.4620579 
 1846000    330.96708   -952.23451   -4036.8347   -2131.3332    23611.044   -36273.489  0.039878815    1.6209512    4.4617921 
 1848000    348.04665   -952.42669   -1578.1772   -5397.4647    21327.884   -42291.788  0.039879076    1.6207402    4.4616384 
 1850000     294.4417   -952.28752   -7303.9701   -4761.1938    21628.254   -39415.814  0.039910346    1.6207675    4.4619038 
 1852000    292.30242   -952.82098   -1910.3589   -3288.4805    18999.593   -30774.705  0.039920402    1.6207269     4.462062 
 1854000    280.98478   -952.83152   -3379.1357   -4701.8741    31195.308   -35236.526  0.039962863    1.6206332    4.4616565 
 1856000    278.63539   -952.69586   -10260.182   -7917.7575    25642.947    -38722.33  0.039961512    1.6206643    4.4620915 
 1858000    282.42272   -952.28204   -2948.5215    -6516.095    23040.027   -41913.998   0.03999312     1.620573    4.4618832 
 1860000    262.05975   -952.65463   -4266.0965   -2087.5187    23651.264   -37769.519  0.040024343    1.6204588    4.4617128 
 1862000    324.16837   -952.12517    161.39043   -4770.2005    22888.048   -31965.241  0.040020728    1.6204778    4.4619062 
 1864000    346.26561    -952.6044   -3376.1802   -3040.6456    18979.179   -32573.664  0.040059753    1.6204584    4.4618354 
 1866000    339.39303   -952.71159   -8025.1973   -4053.0284    15747.107    -39223.64  0.040059131    1.6202851    4.4617857 
 1868000    324.02815   -953.10227   -5510.3794    -5423.932    20386.392   -34794.236  0.040082954    1.6203482    4.4617765 
 1870000    275.51927    -952.6216   -4526.5702   -6055.2488    19488.288   -29263.487  0.040086129    1.6203264    4.4616251 
 1872000    313.31114   -952.55669   -6885.9282   -186.65418    17602.559   -30673.833  0.040101667    1.6200681    4.4618641 
 1874000    260.45003   -952.85897    -7963.236   -9373.4401    23618.295   -42377.097  0.040130315    1.6202152     4.461836 
 1876000    270.36271   -952.73187    2193.9679    388.02787    24952.687   -38125.522  0.040139951    1.6201958    4.4616188 
 1878000    282.02704   -952.54192   -5288.0319   -3201.9337    25953.852    -42349.95  0.040160769    1.6201004    4.4617652 
 1880000    281.15707   -952.41501   -1556.3852    2281.6515    15739.404   -35698.418  0.040175469    1.6200778    4.4617785 
 1882000    329.43435   -952.32159   -6378.1877   -926.96724    24713.614   -40151.122   0.04019108    1.6198765    4.4614236 
 1884000    262.02949   -952.67881    -4967.951   -1360.5897    23211.488   -38882.543  0.040220901    1.6199866    4.4619257 
 1886000    298.95492   -952.41436   -4215.3969   -2135.1889    20595.923   -39487.254  0.040226041    1.6197778     4.461713 
 1888000     288.1918   -952.88208   -3735.4473    -4552.308    25926.651   -36873.288    0.0402432    1.6197077    4.4614889 
 1890000    286.91299   -952.57108   -8324.1715    905.22476    20810.999   -37404.149  0.040279866    1.6196778    4.4614288 
 1892000    285.25083   -952.80978   -8471.3161   -9984.3198    27201.703   -45522.807  0.040284979    1.6195669       4.4616 
 1894000    301.51779   -952.14946   -7632.3916   -9773.8718    23713.754   -36253.265  0.040313112    1.6195793    4.4617376 
 1896000    303.98058   -952.69449   -5468.9891   -3502.7584    28797.408   -40078.228  0.040346483    1.6193442    4.4612834 
 1898000     283.9371    -952.2619    4300.6084   -5449.1831    21149.482   -37871.785  0.040352104    1.6194455    4.4616428 
 1900000    303.55452   -952.53785   -7083.5967   -2756.7298    22167.845   -38421.926  0.040389422    1.6194404    4.4617191 
 1902000     301.2707   -953.13317    1099.1784   -3684.9353     17257.87   -45584.252  0.040387728    1.6192524    4.4614847 
 1904000    302.09113   -952.66691    -3484.837   -5454.6029    24688.961   -37127.363  0.040408814    1.6192071    4.4614376 
 1906000    325.13659   -952.61683   -5449.9284   -1225.0282    18772.162   -34756.536  0.040438506    1.6192911     4.461695 
 1908000    344.16466   -952.59748   -5107.4666   -9811.0861    18747.174   -37150.387  0.040442396    1.6190533    4.4616464 
 1910000     284.5356   -952.59743   -9117.7667   -6288.4151    21645.173   -37360.071  0.040472605    1.6191496    4.4613917 
 1912000    261.63669   -952.20269   -8253.5179    1820.4321     9986.719   -32555.906  0.040482387     1.619024    4.4615222 
 1914000    288.91286   -952.49161   -7209.5834   -8904.5619    25169.099   -35223.573  0.040515234    1.6190015     4.461412 
 1916000    272.03566   -952.20269   -6435.4822   -10362.011    16283.191   -40686.244  0.040512884    1.6190456    4.4616141 
 1918000      277.484   -952.52562   -8760.0387   -5626.9746     19543.46   -33471.087  0.040536783     1.618847    4.4614152 
 1920000    330.13497   -952.79009   -3555.0637   -4357.6999    25716.192   -40106.259  0.040552595    1.6189006    4.4616111 
 1922000    351.79272    -952.9809   -4361.8041    -5630.718    22924.232   -41406.326   0.04057091    1.6190394    4.4618164 
 1924000    280.22621   -952.89526   -5018.9361   -8043.5464    24776.938   -32418.558  0.040591734    1.6188909    4.4615912 
 1926000    302.10055    -952.3017   -2589.3435     3342.906    19619.196   -40246.582  0.040588982    1.6186974    4.4614709 
 1928000    306.90609    -952.3089   -5094.8205   -4566.0596    31077.361    -42958.42  0.040643126    1.6187825    4.4619402 
 1930000    274.99173   -952.73341   -4592.4216   -525.44541    14985.329   -35836.143  0.040655251    1.6188446    4.4619058 
 1932000    294.40402   -952.61358    3950.7794   -5323.1772    17213.351   -43830.325  0.040647092    1.6186061    4.4616591 
 1934000    271.10019   -952.77561   -7314.5444   -9820.2926    15444.674   -39192.077  0.040672374    1.6186777    4.4617856 
 1936000    324.91858   -952.69436   -4142.3516   -2101.1382    21675.863   -38404.707  0.040703297    1.6185721    4.4618905 
 1938000    297.76475   -952.13485   -2433.6032   -4262.4207    21985.877   -37760.795  0.040757863    1.6184109    4.4616932 
 1940000    275.57511   -952.41177   -4177.6528   -7507.9964    24538.334   -32656.666  0.040798997    1.6184414    4.4616202 
 1942000    330.41957   -952.12953    985.65904     580.0883    22312.203   -42039.059  0.040833548    1.6180779    4.4617055 
 1944000    311.76617   -952.31226   -2859.9586   -6072.1078    15978.695    -34128.66   0.04088078    1.6180503      4.46198 
 1946000    337.19304   -952.53265   -5169.3413    -5672.967    16665.573   -38328.305  0.040912699    1.6181135    4.4617492 
 1948000    237.27806   -952.65327   -890.73079    2380.3192    23899.419   -35041.314  0.040921108    1.6178815    4.4618075 
 1950000    290.12424   -952.13913     -3525.27   -2374.8825    24574.618   -31538.293  0.040937423    1.6178686    4.4618694 
 1952000    291.35606   -952.84355   -2328.5695   -4385.0681    23780.263   -43238.583  0.040991686    1.6178873    4.4616627 
 1954000    297.30365   -952.34985   -2466.0407   -2088.0777    20963.401   -36271.034  0.041037694    1.6176229    4.4617439 
 1956000    315.35962   -952.62154   -2317.1215   -6442.5548     21507.44     -40363.9  0.041063343    1.6174414    4.4617925 
 1958000    278.71541   -952.38804   -3375.3818   -4656.1724     21859.11   -41174.004  0.041103468     1.617486    4.4617655 
 1960000    314.78069   -952.51974    694.25096    4892.1979    14547.279   -35219.561   0.04110314    1.6174244    4.4615402 
 1962000    310.71377   -952.97036   -9304.6347    -7929.528    28900.429    -42451.89  0.041124762    1.6172779    4.4615008 
 1964000    301.16695   -952.40358   -7228.0754   -6095.0763    28547.294   -38633.676  0.041211334    1.6173176    4.4616107 
 1966000    296.53789   -952.78022   -12623.491   -3918.2421    22892.955   -35971.116  0.041231936    1.6170745    4.4614392 
 1968000     298.4405   -952.23932   -3087.1427   -5895.3532    25882.984   -37202.956   0.04127519    1.6170002    4.4614482 
 1970000    273.32106   -952.87853   -3081.9141    2576.8679    16365.933   -38130.066  0.041304314    1.6170764    4.4612736 
 1972000    241.24296   -952.64433   -6608.7875   -2134.2043    27725.605    -39055.62  0.041314371    1.6168223    4.4611347 
 1974000    322.62813   -952.61003    2674.1708   -3707.7403    23314.993    -38984.09  0.041339281    1.6168697    4.4613107 
 1976000    276.81106   -952.50379   -6883.4265   -3037.6208    20794.119   -35008.019  0.041365731     1.616949    4.4611817 
 1978000    284.81076   -953.02625   -7418.4018    -7064.638    23349.091   -40198.572  0.041369154    1.6166524    4.4610228 
 1980000    333.50163   -952.70434     -3284.51     -4475.98    26055.479   -36609.551  0.041378188    1.6167367    4.4611815 
 1982000    281.32997   -952.58796   -6411.1038   -7101.5745    26968.213   -34990.872  0.041405092    1.6167188    4.4610443 
 1984000    302.07887   -952.89326   -7356.1571   -12812.483    19130.955   -38719.906  0.041414797     1.616543    4.4609196 
 1986000    283.96701   -953.06143   -5468.6677   -5013.8055    24909.415   -38034.103  0.041423272    1.6164849    4.4610329 
 1988000     325.7563   -952.69115   -7245.4202     826.1992    21551.814   -31303.336  0.041448005    1.6166029    4.4609372 
 1990000    262.66599   -952.92523   -7883.9343   -4764.0638    24716.021   -44792.109    0.0414567    1.6164564    4.4606589 
 1992000    291.01246   -952.47494   -3105.6157   -6470.7376    19110.347   -45526.023  0.041476741    1.6164695     4.461095 
 1994000    286.55625   -952.29032    182.97551   -2307.0884    14232.994   -40096.054  0.041488225    1.6164232     4.461111 
 1996000    335.25326   -952.34899     1400.955   -4715.9989    20797.118   -35402.675  0.041500105    1.6162083    4.4608863 
 1998000    331.75347   -951.90267   -8741.5332   -2052.6219    16565.685    -42220.43  0.041523793    1.6163921    4.4610095 
 2000000    300.32138   -951.89297    -13358.17   -8834.4161    19132.381   -34016.469  0.041526633    1.6162976    4.4611164 
 2002000     273.9472   -952.23437     293.7609   -5481.6768    21641.258   -40081.085  0.041528498    1.6161395    4.4610022 
 2004000    301.39845   -952.53113   -4118.4043   -662.53116    13103.615   -35642.123  0.041547047     1.616206    4.4608823 
 2006000    319.27616   -952.51101   -156.23257   -3098.3527    16722.987   -42139.425  0.041557732     1.616047    4.4610038 
 2008000    254.99454   -952.66945   -1582.8002   -3830.6498    19626.355   -34906.532  0.041558674    1.6160294    4.4610318 
 2010000    254.86592   -952.78896    2935.6023    1152.2591    20551.966   -43412.586  0.041576626    1.6159723    4.4609006 
 2012000    275.68109   -952.07322   -809.29907   -1065.4475    18593.076   -42666.714  0.041589442    1.6159549    4.4611531 
 2014000    353.76856   -952.85185   -4592.2181   -5422.6767    23432.515   -37762.464    0.0416094    1.6157904    4.4611788 
 2016000    250.78095   -952.79918   -5115.4842   -4540.5113    26187.138   -33021.709  0.041626888    1.6157522    4.4610489 
 2018000    272.53833   -953.03838   -6829.6701   -5837.8785    26250.989   -37717.642  0.041631772    1.6158029    4.4611686 
 2020000     279.5482   -952.75137   -9882.5257   -6133.3074    24598.508   -36198.518   0.04164801    1.6157001    4.4610747 
 2022000    238.01266   -952.24661   -1492.9494    -5543.714    29554.162   -35244.814  0.041664149    1.6156957    4.4609561 
 2024000    299.02896   -952.53755   -3326.5917   -6391.4077    20582.198   -32677.646  0.041674568    1.6156537    4.4610892 
 2026000    297.16533   -952.62588   -12663.411   -4188.0939    21722.455   -37489.522  0.041685372    1.6155674    4.4610274 
 2028000    272.73645   -951.95172   -2018.4245   -3622.5225    21513.128   -49134.594    0.0417042    1.6156061    4.4608763 
 2030000     290.2963   -952.82871   -7071.1596   -701.61185    18921.209   -42829.619  0.041727083    1.6155963    4.4611286 
 2032000    290.86535   -952.72603    3077.2334   -1450.7663    21704.049   -37181.534  0.041739067    1.6154418     4.461032 
 2034000    302.73581   -953.00505   -5078.1052   -3611.8883    20252.564   -38749.032   0.04175928    1.6154755     4.460979 
 2036000    317.13628   -952.08634     -9570.33    220.26239    17570.806   -34864.813    0.0417761    1.6153626    4.4611483 
 2038000    289.41793   -952.50159   -4597.8947   -5835.4141     30772.12   -36472.064  0.041784124     1.615234    4.4610937 
 2040000    325.81357   -952.51363   -694.63378   -4399.0872    20423.305     -33608.4  0.041799748    1.6153313    4.4610122 
 2042000    301.33004   -952.36177   -4326.4312   -476.17172     19214.21   -40602.839  0.041825099    1.6153979    4.4609342 
 2044000    302.28555   -952.76419   -1215.3663   -6079.9071    22234.414   -39424.415  0.041830817    1.6151358    4.4611971 
 2046000    345.72604   -952.57718   -6917.6706   -5505.9337     28597.35   -31501.397  0.041845577    1.6149926    4.4610644 
 2048000    327.43049    -952.7877   -8463.4217   -5299.8138     22275.64   -34374.011  0.041867308    1.6152358    4.4609732 
 2050000    276.80212   -952.70533   -6317.9962   -3691.9723    21532.144   -33484.109  0.041879355     1.615162    4.4612244 
 2052000     291.8481   -952.63139    -4729.632   -6044.4297    19621.003   -34019.033  0.041896392    1.6150561    4.4612891 
 2054000    328.92456    -952.8142   -3764.3986   -5441.1263    17972.769   -43919.902  0.041909495    1.6149795    4.4608543 
 2056000    321.97139   -952.53912   -7539.3747   -6927.0329    24232.812   -39726.081  0.041929883    1.6149313     4.461154 
 2058000    311.34123   -952.61043    2287.6943   -1515.0757    22563.483   -31236.217  0.041962658      1.61507    4.4613907 
 2060000    339.65572    -952.6851   -652.61581    5158.2349    18508.273   -26977.176  0.041961895    1.6148126    4.4610279 
 2062000    328.26298   -952.34533   -6445.4239   -11644.697    21151.296    -41209.06  0.041973523    1.6147786    4.4608927 
 2064000    273.61887   -952.88747   -6589.2478   -999.14439     18219.05   -38006.743  0.042020916    1.6148849     4.461432 
 2066000     255.2183   -952.75596   -4002.0272    1314.1864    20521.703   -29798.499   0.04202423    1.6148097    4.4616408 
 2068000    335.41448   -953.47958   -5401.2725   -7054.6281    22425.895   -35504.678  0.042041875     1.614611    4.4610406 
 2070000    304.58014   -952.78397    1524.4684    186.22456    21194.062   -42283.742  0.042058444    1.6147493    4.4611848 
 2072000    289.69842   -952.95346   -3940.8259   -8486.2516    25037.257   -35491.774  0.042073949    1.6146998    4.4617218 
 2074000    327.84347   -951.95793   -1904.5577   -2710.0133    27516.735   -30555.066  0.042096234    1.6146659    4.4613691 
 2076000    292.50641   -952.67952   -8012.6107   -409.60002    27490.286   -38020.026  0.042119676    1.6146545    4.4611423 
 2078000    296.65685   -952.45112   -10421.087   -9504.7897     24032.61   -42689.285  0.042135171    1.6145348    4.4612487 
 2080000    327.93996   -952.82202   -858.41462   -6480.8331    27568.246   -35842.532  0.042146924    1.6145238     4.461577 
 2082000    323.02116   -953.01427   -2617.7978    3274.7114    18321.174   -38257.359  0.042169063    1.6145328    4.4611985 
 2084000    340.70654   -952.82511   -3975.7181   -4293.5762    17985.048   -40933.445  0.042181321    1.6143248    4.4612536 
 2086000    334.37982   -952.60015    869.92321   -5849.2524    22099.422   -37619.689  0.042191032    1.6142753    4.4614534 
 2088000    313.44938   -952.75361   -2374.4941   -1573.9214    25294.335   -34342.047  0.042211859    1.6143172    4.4614532 
 2090000    296.51315   -952.98131   -6813.7873   -3629.4309    24060.081   -34362.479  0.042217011    1.6141496    4.4612985 
 2092000    316.10787   -952.49484   -4095.6948   -1217.4654    24115.561   -33682.251  0.042235345    1.6141006    4.4613087 
 2094000      244.163   -952.04567    -7143.473   -5182.2613    23637.626   -35434.845  0.042266655    1.6142582    4.4615326 
 2096000    306.25962   -952.25721   -10155.566    -5893.627    19873.326   -35352.142  0.042262864     1.614069    4.4612891 
 2098000    349.51636   -952.51717   -4978.6887   -8742.1869    24168.527   -32673.682  0.042278617    1.6140352    4.4612425 
 2100000     239.2352   -952.07659   -11848.245   -3815.9415    20949.358   -37130.923  0.042313431    1.6140593    4.4613951 
 2102000      334.155   -952.60035    165.91023    1359.5501    24296.065   -40447.545  0.042308597    1.6140815    4.4615817 
 2104000     302.4961   -952.63784     730.7794   -4027.1433    21054.826   -34574.948  0.042337486    1.6140356    4.4613969 
 2106000    235.35773   -952.82223   -7317.0072   -7025.9794    16426.693   -36482.556  0.042339734    1.6138819     4.461303 
 2108000    256.90368   -952.44537   -2848.8119   -2715.7319    23188.851   -35713.373  0.042339642    1.6137649    4.4616206 
 2110000     267.8785   -952.50441   -6715.7547   -1877.6911    23158.091   -33244.838  0.042367568    1.6139503    4.4615438 
 2112000    327.32786   -952.57616    -4944.769   -1440.2169    26724.087   -32947.764  0.042368259    1.6138326    4.4614915 
 2114000    272.47154    -952.7629   -9197.4314   -8699.7891    23744.634   -31881.307   0.04237327    1.6137162    4.4614008 
 2116000    271.46681   -951.94926   -5049.5432   -9667.2674    22525.354   -35637.858   0.04239688    1.6137354    4.4614897 
 2118000    283.89959   -952.57649   -9173.6291   -1886.2512    24984.848   -40009.954  0.042443844    1.6137065    4.4617136 
 2120000    296.68287   -952.79262   -11266.554   -8050.0382    24182.105   -34722.507  0.042449743    1.6135556    4.4616872 
 2122000    318.30754   -952.70556   -12238.604   -12026.139    24362.532   -32906.431  0.042474025    1.6136105    4.4615354 
 2124000    265.73047   -953.01709   -8955.9109   -1466.3878     22076.08   -37045.979  0.042504265    1.6136625    4.4615744 
 2126000    265.20257   -952.86382     -4066.85   -7485.2404     19614.96   -37546.715  0.042500578    1.6135629    4.4617969 
 2128000    266.28838    -952.8615   -3937.1369   -5179.6312    27384.054   -35943.496  0.042522239      1.61335    4.4615077 
 2130000    288.08294   -952.47403   -6165.3911    -3736.623     19701.23    -37775.33  0.042551822     1.613562    4.4613711 
 2132000    265.84949   -952.63126   -6140.9022    2757.4353    23894.706   -36615.535  0.042558398    1.6135497    4.4616712 
 2134000    243.89151   -952.78036    823.93394   -1534.1182    24008.991   -38042.257  0.042571593    1.6134345    4.4615895 
 2136000    239.63753   -952.33992   -5701.3282   -8554.0982    25132.413   -38719.196  0.042595392    1.6133275     4.461157 
 2138000    322.16747    -952.2569   -13298.567   -11131.798     24892.87   -43331.185  0.042597315    1.6133649    4.4615959 
 2140000    304.16645   -952.42446   -4743.9726   -2427.7411    27172.676   -41084.184  0.042641285    1.6133407    4.4617533 
 2142000    315.58567   -952.12904    2241.8366   -703.86407    22417.991   -33171.152  0.042650252    1.6133927    4.4615472 
 2144000    336.27822   -953.12798   -8248.3725    -9753.409     25596.53   -36411.479  0.042653718    1.6132051    4.4613043 
 2146000    282.29806   -952.36701     1584.392   -8614.0817     21213.56   -35220.499  0.042682305    1.6132629    4.4615462 
 2148000    310.54016    -952.6101    332.78504   -5296.8234    25926.293   -38022.141  0.042715948    1.6134362    4.4617482 
 2150000    333.45391   -952.88017    -2998.971   -3432.4921    24596.654   -34381.729  0.042709881    1.6132148     4.461478 
 2152000    299.70086   -952.62129   -7505.2779    165.62848    22874.323   -42820.261   0.04270656    1.6131174    4.4615961 
 2154000    301.22116    -952.3237   -11485.557   -3779.7008    23678.024   -33136.554   0.04273894    1.6132342    4.4618346 
 2156000    312.59383   -952.62928   -3643.4995   -5139.9219    25590.929   -40874.329  0.042747534    1.6131265    4.4617086 
 2158000    257.81991   -952.72048    2571.2932   -2226.0348    24846.179   -41342.524  0.042761362    1.6130663    4.4617094 
 2160000    255.21272   -952.37479    0.7830632    -437.7989    22228.282   -34252.185   0.04276748    1.6131076    4.4615392 
 2162000     310.0509   -952.69245   -4976.1452     488.5806    22290.691   -41033.075  0.042793969    1.6130366    4.4617517 
 2164000    303.70532   -952.66693   -3679.0815    -6310.726    18705.894   -35544.586  0.042807263    1.6131864    4.4616953 
 2166000    305.14168   -952.72068   -6221.0626   -9270.0192    18130.123    -39898.17  0.042815197    1.6130463    4.4614935 
 2168000    270.27867   -952.59319   -7552.4835   -3975.1778    25149.523   -45517.213  0.042834196    1.6128135    4.4617341 
 2170000    323.58445   -952.46425   -5190.7853   -2751.1357    16874.664   -36572.265  0.042858829    1.6131793     4.461914 
 2172000    298.41675   -952.32078   -3709.7878   -7997.7398    23916.583   -31007.856  0.042858572    1.6129696    4.4617275 
 2174000    286.85978   -952.62491   -2756.8736   -1550.2791    24672.862   -37672.356  0.042865553    1.6128049    4.4617087 
 2176000    262.19799    -952.5009   -9211.7376   -3983.8311    24412.103   -38973.004  0.042891366    1.6129858     4.461786 
 2178000    275.32934   -952.22465   -3266.2418   -3837.8984    24812.654   -38996.503  0.042936457    1.6129084    4.4618148 
 2180000    313.87518    -952.2131   -2383.8727    750.98769    29868.269   -32505.063  0.042932791    1.6127737    4.4618497 
 2182000    274.71114   -952.15771    920.70333   -6459.5565     15320.95   -36909.126  0.042951413    1.6127861    4.4618111 
 2184000    280.53928   -952.21393   -962.90171    2480.8911    25552.115   -37245.486  0.042971393    1.6128032    4.4618169 
 2186000    303.47823   -953.02606   -3018.3239   -1754.7581     22232.89    -36866.38  0.042985624    1.6127251    4.4617962 
 2188000    297.85225   -952.69851   -10276.716   -8322.7843    25848.958   -42293.879    0.0429924    1.6126256    4.4616996 
 2190000    296.05318   -952.67098   -3636.2292   -5454.2514     16797.19   -43962.721  0.043000871    1.6125985    4.4617731 
 2192000    309.19373   -952.10774    -5512.734   -4680.0956    18443.941   -34498.779  0.043011654    1.6125683    4.4618771 
 2194000    291.41322   -952.82177   -4660.7157   -8730.1787     21944.61   -34659.925  0.043018885    1.6126404    4.4616159 
 2196000    281.43478   -952.19437    3648.4125   -4935.7622    24261.548   -41643.205  0.043040081    1.6125137    4.4616131 
 2198000    304.43976    -952.4788   -11218.308   -5775.0453    16567.197   -32772.143  0.043039526     1.612404    4.4621122 
 2200000    315.40243    -952.9865   -4493.9012   -6107.3658    23728.794   -37553.051  0.043078536    1.6124776    4.4617443 
 2202000    341.02312   -952.54194   -6929.8022   -1161.4589    15835.906   -36596.014  0.043077721    1.6123662    4.4617331 
 2204000    319.51108   -952.88963   -9634.5718     -10092.5    19927.701   -41167.452  0.043080226    1.6122464    4.4619869 
 2206000    264.88494   -952.29051    7586.1853   -8551.2687    16583.134   -32979.656  0.043110714    1.6122853    4.4618729 
 2208000     318.4732    -952.8276   -1651.6298    519.20521    24344.839   -34120.195  0.043133736    1.6122606    4.4617783 
 2210000    290.63212   -952.92811   -9490.5237   -6614.7724    21739.232   -36086.963  0.043130891    1.6122143    4.4618283 
 2212000    301.29973   -952.40937   -7812.1928   -5665.4627    23162.831   -31520.906  0.043132373    1.6120615    4.4616921 
 2214000    256.59601   -953.01633   -3628.3666   -853.23077    23554.859   -35291.178  0.043172372    1.6121337    4.4616383 
 2216000    325.65552   -952.90459   -2150.6998    835.81052    21551.043   -43679.785  0.043179415    1.6121628    4.4618657 
 2218000    280.12303   -952.91601   -2140.4127   -8742.7559    20544.468   -33339.874  0.043187014    1.6119577    4.4619747 
 2220000    295.31835   -952.89554   -1736.8922   -404.98293    24566.942   -36752.496  0.043223856    1.6119789    4.4616863 
 2222000    343.30443   -952.31947   -4562.7698   -6922.0794    22985.641   -40838.884  0.043225159    1.6118912    4.4618829 
 2224000     310.9655    -952.6585   -5216.8353   -9000.8876    20358.956    -41318.89   0.04324629    1.6118819    4.4620054 
 2226000     310.9711   -952.81756    -3656.019    1278.9176     24719.82   -36283.159  0.043274701    1.6119521    4.4616888 
 2228000    256.64544   -952.31484   -7746.9133   -5670.0652     26110.61   -41381.611  0.043279329    1.6116934    4.4615647 
 2230000    322.70118    -952.4235   -8164.5413   -10111.064    23231.784   -38566.679  0.043297987    1.6118747    4.4621256 
 2232000    279.94413   -952.69981   -3616.5961   -3746.4239     22985.98    -32371.75  0.043321481    1.6117338    4.4618045 
 2234000    304.24659   -952.85917   -7123.0127   -9379.4792    19215.087   -37999.913  0.043308964    1.6116173    4.4614694 
 2236000    259.82205   -952.38737   -7748.6858    -3805.103    7841.4865   -45295.739  0.043328776    1.6116448    4.4618505 
 2238000    258.26468   -952.05486   -7786.2986   -7926.1574    21240.489   -47499.224  0.043352301    1.6115483    4.4619546 
 2240000    274.46205   -952.09076     4928.866   -6755.7316    21397.527    -37859.29  0.043358597    1.6115989    4.4617124 
 2242000    299.64563    -952.3398   -12317.841   -1127.4397    23989.498   -44099.927  0.043384969    1.6115916    4.4617135 
 2244000    283.09085   -952.62613   -9192.1695   -10825.138    17905.332   -35539.108  0.043385985    1.6113977    4.4617916 
 2246000    244.29803   -952.81437   -6592.2984   -6077.8397    18202.091   -38570.653   0.04339943    1.6114406    4.4617405 
 2248000    294.73945   -953.04778   -7955.0642   -2373.0862    14848.179    -36600.14  0.043422907     1.611492    4.4618514 
 2250000    290.36734   -952.86158    1802.5059   -11144.338    16216.772   -39232.843  0.043424908    1.6112429    4.4617258 
 2252000    294.52295   -952.99644   -1735.0384   -461.02026    26238.557   -37088.462  0.043440607    1.6112106    4.4618576 
 2254000    265.65727   -952.52836    -147.5053    711.30798    20003.436   -35256.961  0.043448071    1.6112577    4.4618826 
 2256000    298.99348   -952.83345   -9070.3278   -9362.0792    21206.213   -39957.323  0.043461846    1.6111472    4.4616081 
 2258000    277.02338   -952.86867   -3673.0653   -3971.8746    22327.174   -31964.564  0.043479546    1.6111718    4.4617739 
 2260000    289.05123   -952.56143   -4691.7323     -9148.14    21345.895   -40782.121  0.043491213    1.6109633    4.4615348 
 2262000    294.26484   -952.36618   -1507.0633   -5873.9775    21389.749   -39613.133  0.043499301    1.6109383    4.4615847 
 2264000    328.60007   -952.91485    1518.3847   -2159.4645    24678.475   -38361.721  0.043531551    1.6109922    4.4619446 
 2266000    305.56913   -952.62553   -1980.0785    -8398.453    21680.644   -41962.105  0.043531062    1.6108328    4.4615854 
 2268000    280.65671   -952.78629    819.51975   -2594.4503    21174.707   -40360.819  0.043535895    1.6108398    4.4616737 
 2270000     286.7344   -952.19426   -13954.004    2273.1379    26438.457   -41604.229  0.043556429    1.6108108    4.4617935 
 2272000     295.2992   -952.75924    -5021.813   -3074.4371    21382.466   -30642.642  0.043553014    1.6107272    4.4615898 
 2274000    287.45283   -952.61417   -3196.4846   -3453.2297    23985.457   -40575.071  0.043569456    1.6106528    4.4614195 
 2276000    289.80585   -952.90531   -4951.1233   -1437.2599    19471.555   -40285.168  0.043572167    1.6106915    4.4615272 
 2278000    261.55536   -952.26547   -2356.4654   -3991.2846    21120.146   -41464.864  0.043591748    1.6105811    4.4615764 
 2280000    310.18194   -952.48012    1167.3783   -3116.6322     18236.46   -42679.225  0.043606051    1.6105786    4.4615633 
 2282000    290.68594   -952.54808   -4951.6621   -1836.7382     14338.87   -36977.674  0.043616844    1.6105098    4.4614379 
 2284000    377.91594   -952.96744   -762.86462   -2878.7338    29967.657   -36025.305  0.043629539    1.6103294    4.4615272 
 2286000    349.03748   -952.58842   -4934.3373     476.1533     21885.57   -36624.934  0.043649891    1.6104712    4.4618105 
 2288000    300.97283   -952.41962    -8451.886    435.94809    16036.189   -34905.822  0.043661236    1.6103285    4.4612597 
 2290000    296.55162   -952.32533    625.63952    -215.4195    27265.277   -45164.112  0.043669788    1.6102975    4.4612426 
 2292000    297.25255   -952.35346   -8319.4458    3283.9669    19319.086   -35542.989  0.043694967    1.6103159    4.4615679 
 2294000    279.79191    -952.3759   -1023.2078   -2849.4984    21479.946   -37003.217   0.04368922    1.6102114    4.4616099 
 2296000    338.32958   -952.06826   -1733.4621   -6680.5806    20806.773   -36552.524    0.0437034    1.6101339    4.4612682 
 2298000    338.77384    -952.4015   -9328.3313   -8131.7814    19120.335   -34534.412   0.04372451    1.6101638     4.461304 
 2300000    364.43687   -952.10025     947.5722   -5384.5817     25535.39   -35930.159  0.043725403    1.6100619    4.4616574 
 2302000    314.96415   -952.66873   -3438.6314   -4198.6325    26559.978   -36876.214  0.043755798    1.6100731    4.4613084 
 2304000    289.55337   -952.54227   -13435.718    -808.3748    18092.992    -31584.59  0.043767428    1.6100313    4.4610266 
 2306000    269.43708   -952.49548   -1230.9085   -4789.7116    26285.123   -37527.697  0.043765915    1.6098813    4.4612789 
 2308000    335.37464   -952.38752   -6125.6738   -3092.8776    21371.024   -34216.454   0.04379516     1.610009    4.4614272 
 2310000    298.10087   -952.55393   -5722.8652   -4385.4409     15430.01   -41810.397  0.043801213    1.6099773    4.4612528 
 2312000    312.66154    -952.5919   -5259.6813   -2127.9209    22324.369   -35433.275  0.043802733    1.6097804    4.4613697 
 2314000    346.12718   -952.64851   -10723.976   -7419.6815    23616.851   -38517.068  0.043822128    1.6097591    4.4614053 
 2316000    302.20678   -952.70529    -7131.131   -3924.0933    17366.623   -37347.554  0.043832667    1.6097787    4.4614708 
 2318000    288.70208   -952.71672   -10029.281   -986.55594    27685.309   -37771.697  0.043832237    1.6096365    4.4612883 
 2320000    378.64397   -952.08056    -1051.801   -5486.9566     26814.57   -37994.274   0.04384804    1.6096732    4.4611742 
 2322000    328.89478   -952.50353   -3684.1854    1417.5156    24391.613   -38386.936  0.043860305      1.60964    4.4612378 
 2324000    302.01598   -952.69237    -1430.366   -10679.309    21404.489   -39276.141  0.043863117    1.6095077    4.4612581 
 2326000    284.26577   -952.74472   -596.06305   -920.65649    22865.392   -33479.272  0.043879956    1.6095275     4.461173 
 2328000    269.01089   -952.39258   -5558.6373     1209.144    22519.358    -29997.92  0.043884181    1.6093856    4.4610544 
 2330000    314.99809   -952.51159    2978.1649   -10832.475     25943.54   -33780.149  0.043891958    1.6094412    4.4612198 
 2332000    336.78925   -952.80333     -5850.42   -4188.9904    23383.274   -27264.979   0.04390489    1.6094509    4.4611324 
 2334000    274.97524   -952.86632   -8576.1856   -3847.4223    20596.863   -38867.241  0.043915545     1.609341    4.4610752 
 2336000     357.8208   -952.33846   -5677.7048    -3985.765    29782.265   -33611.192  0.043924537    1.6092817    4.4610497 
 2338000    267.80709   -952.11355   -2004.3484    -6051.843    22207.642    -35812.13  0.043950314    1.6093054    4.4609849 
 2340000    274.22079   -952.61231   -6486.3747    -5307.782    22550.035   -40299.298  0.043960893    1.6093873    4.4610366 
 2342000    306.07278   -952.63734    3297.4222   -40.603581     18776.01   -33913.787  0.043969742    1.6092353    4.4612747 
 2344000    301.43666   -953.00739    3508.4852   -4580.8011    21432.812    -35553.57  0.043984046    1.6091921     4.461234 
 2346000    343.05412   -952.85455    -4615.198   -1813.9475    18179.315   -37427.747  0.043992968    1.6092467     4.461111 
 2348000    316.77492   -952.69129   -3172.4892    334.08436    21496.709   -46475.906  0.043986537    1.6090857    4.4611602 
 2350000    306.97495   -952.29494   -10339.855    -2365.041    22918.994   -32273.462  0.043998198    1.6091043    4.4611829 
 2352000    311.80793   -952.15405   -421.24147   -3934.9246    24570.033   -37966.287  0.044006694    1.6090805     4.460979 
 2354000    280.85581   -952.42833   -5722.3692   -9728.3562    24698.575   -38711.185  0.044012234    1.6090197    4.4610668 
 2356000    394.63088   -953.01275   -3088.6459   -8482.2502    19317.823   -38773.875  0.044046145    1.6090533    4.4610732 
 2358000     279.5407   -952.21453    3556.0131    97.604428    15254.694   -40994.921  0.044049835     1.608955    4.4609542 
 2360000     338.5615   -952.65552    -6505.828   -10075.694    13076.436   -40251.339   0.04406337     1.608889    4.4608623 
 2362000     375.8906   -952.91297   -2588.1639   -3991.4669    24940.132    -41270.69  0.044079225    1.6088937    4.4611997 
 2364000    296.23475   -952.27421    2237.0921   -2896.8483    22999.278   -39246.968  0.044092386    1.6088231    4.4612529 
 2366000    284.53192   -953.04856    -10556.87   -6092.1142    25492.566   -36369.933  0.044151375    1.6087652     4.460973 
 2368000    247.71936   -952.84925   -1087.5574    -2029.574    27106.055   -40875.203  0.044187872    1.6086214    4.4613343 
 2370000    358.02921   -952.20712   -9891.0855   -1099.0277    18127.438   -33155.047  0.044217251    1.6085728    4.4613428 
 2372000    329.11604   -952.42542   -1114.9928   -3861.9401    23006.598   -36803.563  0.044235655    1.6085147    4.4610496 
 2374000    294.52541   -952.61963    1550.0435    373.45648     25441.74   -39031.797  0.044254021     1.608511    4.4610822 
 2376000    257.87434   -952.97087   -3296.3021   -832.93897    17029.892   -36007.467  0.044265609    1.6085148    4.4615429 
 2378000    247.01602   -952.09358   -10513.481   -12202.668    25925.064   -40448.446  0.044279396    1.6082281    4.4611745 
 2380000    284.99488   -952.70149   -6791.6122   -4552.2463    18148.742   -38381.535  0.044310691    1.6084729    4.4612403 
 2382000    287.19792   -952.18126   -5097.9026    575.80548    19250.453   -31018.897  0.044340284    1.6082712    4.4617432 
 2384000     286.5278   -952.14986   -1191.0004    -3207.385    19925.774   -37053.153  0.044377294    1.6080212    4.4614934 
 2386000    314.83171   -952.42083   -1698.5285   -11959.234    17753.089   -40874.691  0.044422843    1.6081684    4.4614938 
 2388000    252.63809   -952.42985   -14675.174   -3637.8267    23974.429   -42724.579  0.044440661     1.608014    4.4617541 
 2390000     370.5448    -952.7401   -5188.3947   -9067.7902    25961.734   -43667.272  0.044495611    1.6078492    4.4619141 
 2392000    303.10254   -952.02467    332.98283   -5956.6555    22493.796    -31799.65  0.044524868    1.6079327    4.4618209 
 2394000    295.48151   -952.42339   -7784.3798   -9866.0228    21929.319   -37683.901  0.044537643    1.6078115    4.4618551 
 2396000    282.32208   -952.66084    -2558.624   -3675.6363     18211.95   -41849.552  0.044599865    1.6077127    4.4620381 
 2398000     308.0422   -952.52854   -6880.0227    521.00746    20388.936   -36601.912   0.04463187    1.6076982    4.4622096 
 2400000     312.9786   -952.25542   -9427.5665   -8821.2399    23530.032   -29576.855  0.044654381    1.6076736    4.4620316 
 2402000    314.26422      -952.37   -996.42282   -10149.315    23481.293    -41215.78  0.044692031    1.6075097    4.4618936 
 2404000    312.27857   -952.31209    -3905.042   -2367.1383    20519.276   -40862.237  0.044713779    1.6074722    4.4621866 
 2406000    293.54136   -952.11882   -5131.6347   -5040.0723    16404.004   -38471.177  0.044770573      1.60748    4.4622085 
 2408000    323.06249   -952.54427    -3202.235   -10278.506     23465.04   -43794.162  0.044794704    1.6072741    4.4621234 
 2410000    337.81513   -952.44955    -2634.019   -5247.4429    21394.376   -36659.308  0.044822845    1.6072389     4.462379 
 2412000    299.88584   -952.95076   -5727.3892   -4185.6794    16489.048   -38064.124  0.044859382    1.6071211    4.4624657 
 2414000    302.95054   -952.38376   -5197.4947   -8127.8989    20722.162   -36331.094  0.044909189    1.6070053    4.4622965 
 2416000    266.74301   -952.70452   -4789.1438   -4079.5545    16079.043   -32678.593  0.044941946    1.6069807    4.4623043 
 2418000    312.59113   -952.54055   -5649.6869   -2030.3891    19465.713   -34784.694  0.044982551    1.6069555    4.4624862 
 2420000    270.97604   -952.79978     3281.861   -5002.8478    17034.775   -35596.312  0.045004534    1.6067986    4.4624523 
 2422000    315.14502   -952.54585   -4167.5645   -5641.3093    24824.947   -34260.269  0.045052921    1.6067321    4.4624664 
 2424000    271.33577   -952.58046     274.1235   -4008.2724    21492.709   -39000.732  0.045072389    1.6066325    4.4625582 
 2426000    263.74857   -952.51166   -10793.566   -818.31562    19398.373   -36232.899  0.045106732    1.6065369    4.4625175 
 2428000     286.2078    -952.3383   -8901.0419   -6003.4727    22895.076   -37096.129   0.04511992    1.6065251    4.4626464 
 2430000    280.51482   -951.92746   -6421.7573   -5213.2518    20107.003   -32627.452  0.045128638    1.6064597    4.4626545 
 2432000    374.32691    -952.7986   -540.81939   -7222.5896    19661.374   -31799.664  0.045138474     1.606382    4.4622941 
 2434000    295.59896      -952.66   -8376.4805   -10972.893    27028.577   -38171.854  0.045148567    1.6063394    4.4624763 
 2436000    323.36038   -952.49295    3476.5745   -5639.2014     21528.98   -32991.649  0.045172479    1.6062992    4.4626879 
 2438000    282.45777   -952.21773   -2436.1965   -5603.6933     28726.26   -39363.617   0.04520531    1.6061898    4.4623995 
 2440000    341.66093    -952.4307   -12348.541    -2266.386    18266.407   -38321.506  0.045238891    1.6061792    4.4625769 
 2442000    297.89084   -952.07444    1090.7346   -1063.4597    16383.361   -40025.763  0.045273736    1.6059788    4.4627752 
 2444000    365.51233   -952.71017   -6110.6302   -514.74162    24560.194    -35623.57  0.045298742    1.6058656    4.4627406 
 2446000    269.19601   -952.76407   -10322.019   -8408.6643    17894.574   -43677.278  0.045333984    1.6059147    4.4627619 
 2448000    334.57229   -952.29523   -7318.3727   -2775.9174    21617.439   -38075.809  0.045340824      1.60576    4.4628569 
 2450000    302.76306   -952.51703   -8030.9708   -6211.8277    26704.576   -34601.188  0.045346806    1.6057152    4.4628324 
 2452000    281.11397   -952.96638    1291.7521    1340.5092    20726.415   -33407.715  0.045365744    1.6058081    4.4629654 
 2454000    281.48934   -953.08016   -6268.6652    -5224.774    25222.157   -36532.069  0.045366539    1.6056041    4.4630335 
 2456000    295.69146   -952.42673   -779.84644   -2697.7003    19763.638   -28965.737  0.045390869    1.6057868    4.4630473 
 2458000    293.85462   -952.83289   -6125.4733   -6568.3148    26792.742   -35654.456  0.045395124    1.6056925    4.4630259 
 2460000    307.14649   -952.44807   -2766.8572   -3915.8761    19842.503   -38302.537   0.04540059    1.6055453    4.4631206 
 2462000    313.94236   -952.43397    -2924.648   -6744.0258    25649.022   -39205.201  0.045418462    1.6055892    4.4631136 
 2464000    313.71107   -952.81372   -8197.1329   -8035.2741    27596.127   -33549.471  0.045422268    1.6056231    4.4630377 
 2466000    275.51295   -952.70376    -6658.857   -8258.9731    21315.132    -37684.27  0.045423371    1.6054846    4.4629777 
 2468000    268.64842   -952.70974    -7353.177    -3940.909     22187.37   -39623.066  0.045440532    1.6055275    4.4632559 
 2470000    289.72461   -952.71411   -11460.856   -6311.8339     22234.21   -37436.334  0.045452177    1.6054288    4.4628987 
 2472000    263.34538   -952.43846   -4050.8575   -7851.2473    18401.997   -42249.151  0.045449108    1.6054788    4.4631464 
 2474000    275.33399   -952.66104   -8757.8743    -3620.825    19668.633   -39937.945  0.045454057    1.6053691    4.4631362 
 2476000     322.8777   -952.65019   -9724.0128    -7496.114     23380.58   -41321.436   0.04546839     1.605317    4.4630137 
 2478000    317.47953   -952.67765   -9856.0078    -11697.38    26172.662   -43419.978  0.045468711    1.6052868     4.463069 
 2480000    273.87281   -952.51302    4256.2785   -4989.2339    21292.935   -38659.339  0.045491441    1.6053215    4.4630683 
 2482000    274.75025   -952.12091    2300.9833   -2332.2641     14739.32   -40772.827  0.045494132    1.6052513    4.4628633 
 2484000    257.50946   -952.30274   -3899.3387   -6054.4999    22050.582   -44083.659   0.04551073    1.6052516    4.4631781 
 2486000    278.88819   -952.32011    143.42085   -3700.1263     24649.54   -40617.451  0.045527791    1.6051792    4.4630276 
 2488000     326.3352   -952.36607   -3986.1704   -6223.2484    18555.625   -40303.504  0.045533631    1.6051463     4.463115 
 2490000    272.64165   -952.37511   -5760.7988   -8956.0254    17444.923    -43435.22   0.04554976    1.6051465    4.4632476 
 2492000    250.81555   -952.51705   -1859.3084   -4047.4479     21253.96   -42190.312  0.045571258    1.6050418    4.4631244 
 2494000     289.0122   -952.78732   -2965.5287   -7033.2561    21777.826   -35418.825  0.045579985    1.6050395    4.4634477 
 2496000    336.47933   -952.69407   -6607.2428   -2992.8696    18996.561   -46074.957  0.045600865    1.6050437    4.4631414 
 2498000     340.3918   -952.62004   -9581.6626   -4638.9098    21917.339   -34163.918  0.045609788    1.6050095    4.4631611 
 2500000    296.53212   -952.81981   -7504.0625   -6540.2194    20759.321   -40312.571  0.045621179    1.6050022    4.4635033 
 2502000    376.28626   -953.00799   -1361.3284   -7663.6736    19410.786   -36732.076  0.045631649    1.6048904    4.4632819 
 2504000    282.09552   -952.30432   -8679.6871   -2023.0098    21891.828   -32146.723  0.045638459    1.6048224    4.4632208 
 2506000    264.07392   -952.73126    3254.2497   -1030.0256     23664.21   -35203.132  0.045648346    1.6049872    4.4637208 
 2508000    262.12103   -952.76181    -3794.949   -6405.2835    20055.546   -36412.683  0.045646204    1.6046872    4.4633789 
 2510000    343.58368   -952.35545   -7720.9109    245.21094    17085.899   -44340.567   0.04565474    1.6047115       4.4632 
 2512000    285.85488   -952.28609    3427.0761    6057.3333    19065.524    -41639.12  0.045661876    1.6047592    4.4633241 
 2514000    314.77814   -952.67054    2966.4354    -4303.759    17927.318   -34860.654  0.045677477    1.6046515    4.4633144 
 2516000    293.31986    -953.2362     97.74308   -5234.6936    17918.982   -36026.041  0.045685365    1.6046809    4.4632449 
 2518000    299.47961   -952.13179   -3024.6195   -2253.0456    11561.438   -37733.918  0.045695808    1.6045813    4.4632616 
 2520000    291.53644   -952.44091   -3767.8813   -5185.8128     25632.65   -41545.625  0.045700915    1.6044647    4.4633463 
 2522000    246.39136   -952.83058     3881.288    -1370.932    20722.006   -37395.483  0.045718753     1.604573    4.4633762 
 2524000    263.44457   -952.73306   -4183.6805   -2063.0259    22962.011   -37612.507  0.045710637    1.6044908    4.4632895 
 2526000    322.28395   -952.11265   -5671.5041   -2414.4865    20721.484   -42275.718  0.045725719    1.6044425    4.4632168 
 2528000    276.51354   -952.47903   -1794.1657   -5218.3669    23081.256   -33364.198   0.04575226    1.6045305    4.4633609 
 2530000    279.12792   -952.81938   -2336.5025    2077.8259    24736.839   -33986.816   0.04575465    1.6045073    4.4631067 
 2532000     324.0307   -953.14607   -1194.8973   -5151.2649     24303.14   -37132.811  0.045754496     1.604344    4.4631451 
 2534000    235.28123    -952.3236   -10164.565   -5185.4752    22245.502   -34584.826  0.045765327    1.6043929    4.4632415 
 2536000    282.69521   -952.99753   -5675.3859   -6553.1818    21706.773   -39358.718  0.045771071     1.604335    4.4630949 
 2538000    298.33381   -952.64586   -8951.1754   -10788.345    19781.865   -37723.514  0.045775733    1.6043283    4.4632542 
 2540000    299.78772   -952.84476   -3295.5095   -4744.4265    22772.319     -30997.6  0.045780469    1.6042246    4.4631657 
 2542000    281.40107   -952.50902   -8040.5073    -3872.916    29133.579   -38010.358  0.045787624    1.6042305    4.4631074 
 2544000    304.61892   -952.39696   -6892.8996   -4229.6006    24674.626   -39461.897  0.045814015    1.6042105    4.4632635 
 2546000    299.84866   -952.48273    -1849.469    350.57983    25548.132   -38936.109  0.045815875    1.6041394    4.4632592 
 2548000    260.15299   -952.56158   -14072.106    -15483.91    24001.919   -36231.897  0.045822177    1.6041113    4.4632837 
 2550000    294.49801    -952.8019   -3830.0614    859.34461    21473.932   -40976.644  0.045838589    1.6040386     4.463138 
 2552000    261.72692   -953.06517   -6155.4597    1770.8035    19827.966   -36602.782  0.045829989    1.6040542    4.4632976 
 2554000    266.46381   -952.18323   -902.79308   -4815.8497    27023.092   -36810.323  0.045858696    1.6040655    4.4632937 
 2556000     263.5636   -952.79992    -2487.694    1903.6366    16242.093   -40115.764  0.045846248    1.6039437    4.4632559 
 2558000    308.06254   -952.49458   -11935.177   -418.41861    30063.121   -39014.558  0.045860314    1.6039289    4.4633525 
 2560000    295.03172   -952.71333   -2111.4763   -5705.6465    19800.873    -33495.71  0.045882068    1.6039958    4.4632925 
 2562000    291.43148   -952.46545   -9202.0365   -6085.2888    24598.515   -32071.371  0.045877819    1.6038811    4.4632094 
 2564000     366.7204   -952.55928   -7411.7541   -10188.443     24339.28   -39748.874  0.045893149    1.6038967    4.4631951 
 2566000    291.37012   -952.58121    926.15911   -4124.9985    24387.473   -32073.091  0.045905021    1.6040245    4.4633829 
 2568000    300.52393   -952.88136   -5405.4793   -3385.6886    25874.384   -32517.727  0.045902392    1.6038046    4.4630723 
 2570000    335.15751   -952.46737   -9036.8931   -1076.7306    20749.317   -38782.512  0.045910379    1.6039249    4.4631137 
 2572000    296.22803    -952.9757   -2594.2183    987.12702      24046.1   -36695.978   0.04591996    1.6037836    4.4631127 
 2574000    266.80833   -952.54566    -1475.628   -2915.4645    24633.698   -32234.546  0.045920388    1.6037833    4.4631123 
 2576000    268.68675   -952.29516   -6469.8437   -990.66484    23133.073   -38660.491  0.045928147    1.6039133    4.4630054 
 2578000    275.45359    -952.4623   -2498.9093    1335.2515    26322.422   -39940.677  0.045930025    1.6037922    4.4628955 
 2580000    300.24349   -952.71071   -7558.0661    -4651.461    25652.306   -35577.404  0.045934197    1.6037573    4.4629756 
 2582000    289.70771   -952.65892   -10940.497   -4134.9201    20290.979   -39448.715  0.045948432    1.6036977    4.4627508 
 2584000    282.98277   -952.73566   -8303.7603   -4082.9945    21375.056   -41715.348  0.045944459    1.6037194    4.4627152 
 2586000    284.86934   -952.61931     379.9836   -396.61983    23831.471   -38287.858  0.045956222    1.6036558    4.4627507 
 2588000    300.83472   -953.06271   -4926.8584   -3761.3474    17999.291   -34322.685  0.045967605    1.6037075     4.462837 
 2590000    317.55799   -952.39823   -8482.6313   -4877.5184      21012.9   -38854.609  0.045981625    1.6036716    4.4627002 
 2592000    297.57337   -952.83577   -1779.0872   -9159.3341    16969.438   -32328.301  0.045978645    1.6035245    4.4626216 
 2594000    278.69794   -952.43922   -4199.2038   -2555.3023    28147.693   -32722.356  0.045985571    1.6035404    4.4624572 
 2596000    273.08896   -952.33229   -7720.9182   -548.30089     17629.79   -37640.985  0.046001119    1.6035555    4.4626424 
 2598000    290.97369   -952.54799   -9200.1546   -9419.3681    17699.738   -33895.872  0.045987364    1.6034429    4.4626346 
 2600000    282.04913   -952.74614   -7192.6926   -2841.9519     25824.75   -35218.408  0.046032553    1.6035102    4.4625474 
 2602000     309.8252   -952.27822   -1671.2011   -4059.5503    22784.988   -40447.761  0.046043925    1.6035323    4.4627271 
 2604000    302.36314   -952.82311   -4882.1316   -3012.2834    25100.719   -40814.766  0.046038439    1.6034007     4.462667 
 2606000    314.12596   -952.53807    -5568.273   -1684.9294    25084.946   -37012.162  0.046050203    1.6033853    4.4624801 
 2608000     316.7012   -952.22208     -8110.29   -6566.5351    23902.342   -42754.081  0.046062793     1.603433    4.4625883 
 2610000    321.68867   -952.88018   -4101.1294   -7508.8321     20702.27   -36212.764  0.046063494     1.603383    4.4628093 
 2612000    297.93977   -952.38344   -7719.2885   -8543.4445    30840.137   -32712.693  0.046084184    1.6034148    4.4626663 
 2614000    248.78437    -952.1469   -11441.181   -7958.7249    22116.146   -45445.588  0.046092137    1.6033644    4.4626882 
 2616000    311.77616   -952.39457   -5935.7455   -4989.9171    28505.344   -37148.854   0.04608245    1.6032735    4.4629995 
 2618000    313.55922   -952.56565   -4021.4771   -3481.7414    20983.948   -32611.696  0.046105747    1.6032833    4.4627098 
 2620000    283.74513    -953.2467   -6625.7841   -5947.2916    24284.864   -43256.674  0.046111932    1.6032831    4.4624988 
 2622000    304.39066   -952.26925   -9472.9486    -8347.802    20127.801   -32527.302   0.04611765    1.6032138    4.4625851 
 2624000    310.75698   -952.50464   -9354.3941   -5869.7483     18139.92   -39340.375  0.046118842    1.6031634    4.4625499 
 2626000    260.76917   -952.46421   -9441.8533    -13436.02    19860.254   -38308.443  0.046139432    1.6031651    4.4623527 
 2628000    301.88569   -952.65451   0.14876624   -1964.1843    24829.957   -40252.559  0.046146192    1.6031512    4.4623575 
 2630000    312.65923   -952.70775   -2725.0461   -8405.2009    23320.325   -36647.274   0.04613428    1.6030254    4.4626263 
 2632000    300.92135   -952.84499   -4177.7699   -8450.3556    22966.989   -37441.422  0.046155806    1.6030072    4.4622753 
 2634000    284.95757   -952.77593   -6328.4514    3412.9612     12618.51   -41758.002  0.046162252    1.6030465    4.4623131 
 2636000    279.45582   -952.67817   -5011.1886   -6694.4972    19266.154   -37302.113  0.046161251    1.6028936    4.4625592 
 2638000    284.58146   -953.04598    2065.7119   -6043.8065    26280.907   -44117.611  0.046177781    1.6029565    4.4622538 
 2640000    317.18801   -952.95114    1880.3346   -3012.0499    19636.171   -41424.732  0.046183898    1.6029928    4.4621522 
 2642000    303.04071   -952.77229    3353.5516   -6290.8298     22656.63   -38672.667  0.046195459    1.6029418    4.4621161 
 2644000    310.74456   -952.15745   -265.62407   -4375.3869    23298.829   -38307.137  0.046206266    1.6029407    4.4621887 
 2646000    319.94053   -952.05447    -7113.443   -3768.8216    20432.426   -34478.827  0.046218011    1.6029335    4.4622609 
 2648000    299.84291    -952.6077   -4928.0087   -4258.3207    22389.621   -37339.422  0.046205194    1.6028577    4.4622438 
 2650000    279.41433   -952.80318   -3055.1309   -195.04709    27337.389   -35200.021  0.046236101    1.6028911    4.4623419 
 2652000    282.07118   -952.78218   -5224.0767   -4229.3956    23987.275   -36859.067  0.046232618    1.6029256    4.4624997 
 2654000    286.14819   -952.72439   -2357.4931   -2835.4172    20353.744   -44354.406  0.046230443    1.6027316    4.4623491 
 2656000    292.93178   -952.90233    2769.1624    6880.7421    22509.632   -40469.399  0.046252258    1.6027704     4.462226 
 2658000    344.16811    -952.2091   -6680.5211   -360.39691    16740.544   -46190.451  0.046255836     1.602796    4.4623657 
 2660000    265.00522    -952.2236   -3739.3149    -6462.409     16978.09    -39438.15  0.046258467    1.6027026    4.4624417 
 2662000    291.59342   -952.69163   -4654.6325   -6671.5171    17231.737   -40414.753  0.046279272    1.6027621    4.4623299 
 2664000    306.43311   -952.54243   -6239.4683   -7016.6865    28102.914   -43720.983  0.046281229    1.6026985    4.4622556 
 2666000    235.38705   -952.62726   -6282.8939   -1470.1171    20543.727    -36759.28  0.046284256     1.602565    4.4625602 
 2668000    287.25915   -951.85344   -3878.3575   -4390.2626    25597.726   -31844.376  0.046307318    1.6025829    4.4624924 
 2670000    309.33052   -952.33727   -4866.8066   -6029.5425    23857.607   -40301.275   0.04631897    1.6026658    4.4623898 
 2672000    296.31838   -952.74657   -10039.513   -10059.094    28129.132   -40563.956  0.046320486    1.6025513     4.462382 
 2674000    297.57552   -952.55014   -2459.5451   -1528.8582    19857.619    -34418.12  0.046335119    1.6025541    4.4624826 
 2676000    300.83804   -952.41009    2306.2981   -4811.8567    23098.518    -35616.94  0.046353398    1.6025776    4.4623138 
 2678000    282.70111   -952.08388   -7039.4889   -3522.8989    25640.745   -37052.618  0.046341667    1.6024109    4.4622792 
 2680000    277.38274   -952.97339   -3843.0433   -6578.2947    23055.747   -33266.068  0.046349799    1.6024773    4.4623821 
 2682000    250.63582   -953.11313   -2476.1417   -1095.9208    20358.726   -32955.619  0.046366687    1.6024387    4.4622674 
 2684000     302.9174   -953.17859      334.233   -7750.2424    24705.655   -42292.193  0.046359288    1.6023851    4.4622652 
 2686000    294.52548   -952.39746   -7062.3086   -3123.8951    23700.435   -35744.738  0.046373747    1.6023992    4.4622064 
 2688000    291.87693   -952.33301    573.38752   -5917.9037    18313.721   -31844.101  0.046381812    1.6023083    4.4622733 
 2690000    340.45373   -952.32619   -9339.9504   -11696.681    27701.565   -33847.014  0.046382294    1.6022525    4.4621531 
 2692000    316.51972   -953.08189   -5960.3008   -1511.6798    22536.691   -36535.741  0.046403586    1.6023054    4.4620284 
 2694000    304.01803   -952.92076   -2156.0291   -7543.7453    16947.743   -40689.179  0.046398682    1.6022833    4.4623914 
 2696000    288.11375    -952.5656   -1084.4986   -7765.9311    20975.951   -42664.055  0.046408458    1.6022083    4.4622398 
 2698000    275.35951   -953.35666   -3643.2068   -6164.4719    26368.055   -39197.474  0.046411372     1.602173    4.4620094 
 2700000    277.57293   -952.36861   -7674.3127   -6867.4013    16035.583    -35544.07  0.046426121    1.6022378    4.4622754 
 2702000    300.31754   -952.55412    1082.5661   -4716.4506     22830.52   -33544.461  0.046419264    1.6021213    4.4622852 
 2704000    310.29473   -952.92783   -7289.5518   -4261.1335    20770.506   -35152.307  0.046425481    1.6020997    4.4621377 
 2706000    349.94782   -952.24021    -5190.543   -5745.2765    27476.781   -46645.731  0.046440182    1.6021201    4.4620219 
 2708000    298.92326   -952.92362   -2585.4715   -2225.7813     19488.44   -40220.484  0.046436857    1.6020359    4.4621086 
 2710000     292.6986    -952.4941    3385.5237   -3324.3396    18862.329    -39038.19  0.046456935     1.602065    4.4618841 
 2712000    255.62563   -952.23098    171.21299    -7313.758    21742.932   -37312.805  0.046463907    1.6021129    4.4618289 
 2714000    330.28384   -952.71603   -5212.8477    591.62363    24976.878   -39383.341  0.046455249     1.601968    4.4620207 
 2716000    334.10856   -952.01611   -5970.5835   -4507.8975    22918.478    -35337.78  0.046473341     1.602105    4.4619496 
 2718000    303.91621   -952.55499   -3640.2764   -1236.5023    28284.275   -36626.667  0.046490553    1.6019359    4.4615065 
 2720000    306.35387   -952.58583     2090.175   -1202.6448    21252.323   -38159.802  0.046477751    1.6019157     4.461896 
 2722000    230.61593   -951.87752   -7114.1111   -4701.9814    21979.889   -40815.403  0.046497937    1.6019382    4.4619088 
 2724000    295.96204    -952.6365    415.00743    76.075129    29720.614   -33979.845  0.046524392    1.6019948    4.4616936 
 2726000    306.43903   -951.93581    4118.3099   -5908.6209    21013.541   -38455.759  0.046524174    1.6019374    4.4618279 
 2728000    268.53505   -952.63996    -207.5219   -4304.4771    20589.012   -40914.788  0.046532393    1.6018526    4.4617142 
 2730000    344.39362   -952.81383   -1535.3112    2918.9911     22680.33    -44250.23  0.046550264    1.6019103    4.4617049 
 2732000    283.78807   -952.76642   -3164.2471   -8376.4487    16282.841   -34972.446  0.046556855    1.6018861    4.4617474 
 2734000     292.7862   -952.45795   -11938.947   -8173.0419    22586.549   -41536.591  0.046565463    1.6018047    4.4617204 
 2736000    338.51412    -952.2786   -5911.6566   -3615.2334    20808.387   -33137.608  0.046582374    1.6019042    4.4617627 
 2738000     245.7768   -952.11367   -10317.976   -9840.6971    25690.577   -36223.323   0.04657763    1.6017638    4.4617627 
 2740000     286.1285    -952.2915    -4490.854    -515.4681    19980.526   -38399.954  0.046607832    1.6018146    4.4617747 
 2742000    278.37087   -952.50976   -7033.0885   -1078.4474     17036.88   -28593.355  0.046624474    1.6018577    4.4617424 
 2744000    298.29614   -952.72362   -7556.3025   -7814.7568    23571.775    -40754.76  0.046619382    1.6017586    4.4617509 
 2746000    270.85583   -952.74547   -1115.5579    -4018.668    24326.395   -43608.978  0.046649638     1.601796    4.4619373 
 2748000    294.25191   -952.34816   -801.76535   -2254.1625    19170.756   -35337.339  0.046649589    1.6017984    4.4619497 
 2750000     274.3647   -952.88776   -34.296443   -7741.3817    22441.051   -37989.242  0.046659039    1.6017063    4.4618412 
 2752000    328.96121   -952.88629   -9594.0574   -514.82318    22767.734   -37025.653  0.046680962    1.6017684        4.462 
 2754000    273.67706   -952.83007   -4203.7843    -9693.675    31217.183   -36196.786  0.046687331    1.6017388    4.4620096 
 2756000     262.8003   -952.85692   -7148.6543    -10580.86    24089.742   -38889.575  0.046692803    1.6017626    4.4619652 
 2758000    267.70719   -952.46609   -11249.888   -84.951017    22659.166   -33378.523  0.046709862    1.6016829    4.4619577 
 2760000    303.20765   -952.33889   -5132.7381   -3141.5913    17874.528   -34218.487  0.046710198    1.6016534     4.461933 
 2762000    320.28975   -952.38909   -4832.7612    -6121.607    23017.716   -40876.425  0.046719321    1.6017252    4.4619462 
 2764000    259.60945    -952.8263   -6803.8316    285.53505    20895.707   -40735.737  0.046731985    1.6016405    4.4618329 
 2766000    328.95913   -952.56288   -1957.9236   -3571.2075    20748.431   -36114.843  0.046734459    1.6016586    4.4619294 
 2768000    256.16021   -952.71993   -2568.0319   -2032.9852    24726.563   -34871.877  0.046757395    1.6015959    4.4619917 
 2770000    269.14622   -952.10707   -5095.2098   -6225.6125    24950.292   -37435.628  0.046768591    1.6015582    4.4619557 
 2772000    296.96435   -952.80816   -3477.0986   -4630.4918     19830.31   -40677.473  0.046777275    1.6016207    4.4620663 
 2774000    321.46471   -952.61657   -6620.9867   -6441.9323    21929.288   -34629.273  0.046782009    1.6014784    4.4619769 
 2776000    253.68732   -953.49475   -1633.5854    -3360.257    24673.345   -37706.504  0.046791419    1.6014766    4.4618495 
 2778000    307.20746   -952.67605    -7623.137   -7582.3311    21169.315   -41589.168  0.046801734    1.6015245    4.4620039 
 2780000    366.81789   -952.73691   -3407.7691   -13957.141    21964.874   -39804.859  0.046804323     1.601421    4.4618934 
 2782000    297.14141   -952.86317   -5147.6594   -4355.6966    19771.547   -36347.656  0.046827913    1.6014955    4.4618023 
 2784000    336.50433   -952.65832    790.15458   -5155.7436    20707.027   -38925.166  0.046820993    1.6014082    4.4619305 
 2786000    317.95563   -952.38335   -10233.359   -11502.062    29956.687   -31040.918  0.046835527     1.601304    4.4617967 
 2788000    270.52958   -952.95251    -592.6129   -7963.3636    23156.733   -38754.983  0.046872334    1.6013964    4.4619041 
 2790000    288.25676    -952.4859   -3525.7419   -799.15133    21897.943   -36253.048  0.046882787    1.6012337      4.46201 
 2792000    296.02345   -952.54911   -8131.2337   -4539.6611    26088.336   -35816.368  0.046931032    1.6010715    4.4618383 
 2794000     384.8109   -952.57529   -8866.3223   -3265.4585    15863.708   -33462.122  0.046944892    1.6011523    4.4621028 
 2796000    330.13591   -952.61793   -10185.297   -5564.5563    20044.145   -39241.297  0.046949919    1.6010707    4.4619177 
 2798000    259.60158    -952.6752    3312.6386    1816.7373    23401.344   -36400.029  0.046970387    1.6010927    4.4619081 
 2800000    299.04233    -952.6059    724.24052   -2385.4259    23630.824   -30613.239  0.046964763    1.6010004    4.4620403 
 2802000    281.61077   -952.33569   -5806.7946   -6366.0885    17812.909   -40789.693   0.04697027    1.6010237    4.4620658 
 2804000    300.82595   -952.61863   -4728.1746    414.51127     21863.78   -35272.216  0.046984256    1.6009827     4.461975 
 2806000    316.12699   -952.67338   -6494.7262   -1558.6823    23931.525   -28925.416  0.046983078     1.600914    4.4620282 
 2808000    324.67352   -952.51024    130.16521   -4343.4392    16682.107   -45772.287  0.046986055    1.6009586    4.4620549 
 2810000    256.09476   -952.20491   -10550.788   -7353.5011    21950.383   -42802.967  0.046998782    1.6009476    4.4619504 
 2812000    296.63265   -952.67229   -1904.2786   -6398.6908    22111.132   -38876.925  0.047000855    1.6009328    4.4618923 
 2814000    295.78716   -953.10778    -1987.405    -1709.245    21617.765   -36570.439  0.047009642    1.6008351     4.462011 
 2816000    367.77575   -952.70084   -10819.704   -7731.3482    21914.443   -40003.915  0.047009208    1.6008464    4.4618744 
 2818000    279.48821   -952.63798   -2459.9679   -8616.5638    20690.442    -35316.04  0.047030642    1.6009823    4.4619448 
 2820000     306.4273   -952.14524   -1306.1613   -2510.4568    18221.916   -37132.309  0.047028877    1.6008617     4.462176 
 2822000    288.17638   -952.73521   -9319.8006   -7659.7274    21316.769   -29103.208   0.04703707    1.6008077    4.4620328 
 2824000    281.88212   -952.77928   -6214.7132   -3013.2587    21255.819   -45504.299  0.047051973    1.6008385    4.4618231 
 2826000    248.79085   -953.02691   -8337.6283   -6275.4242    19052.318    -36932.98  0.047038865    1.6008161    4.4620694 
 2828000    331.15478   -952.37607     2959.981   -2854.0977    28520.374   -27432.566  0.047059816    1.6007944    4.4618911 
 2830000     271.5754   -952.83311   -2870.7334   -6511.2424    23186.859   -37510.844  0.047059384    1.6008406    4.4617065 
 2832000    242.42658   -952.37596   -10833.862   -10481.906    18984.289   -35269.997   0.04706457    1.6007039     4.461819 
 2834000    312.37943   -952.13537    -2110.675    -6453.742    16617.408   -30286.431  0.047078453    1.6007628    4.4618899 
 2836000    311.61649   -952.82236   -2345.6076   -7434.9467    25564.404    -36882.94  0.047074959    1.6007483    4.4616692 
 2838000    296.36513   -952.68531   -4239.1038   -2098.7633      25903.9   -39871.909  0.047086473    1.6006883    4.4616411 
 2840000    293.25999   -952.68245    4941.1391   -5620.5541    22935.907   -33929.262  0.047087902    1.6006432    4.4617376 
 2842000    303.73464   -953.00199   -390.35421   -7083.3843    21338.255   -34084.602  0.047098814    1.6006972    4.4618207 
 2844000    297.92255   -951.83109   -2908.7066   -5686.8328     13838.76   -44957.742  0.047102112    1.6006785    4.4617019 
 2846000    293.71198   -952.99694    -4983.709   -4010.8254    28613.012   -34095.284  0.047106346    1.6005707    4.4617339 
 2848000    354.02742   -952.75539   -5603.2383   -884.21222    17730.944   -33840.206   0.04712048    1.6007358    4.4617782 
 2850000    311.08588   -952.34982   -4333.2671   -2780.8825    27287.583   -36918.615  0.047123517    1.6006596    4.4616384 
 2852000    287.95738   -952.76298   -438.93121   -182.94764    27484.384   -41113.778  0.047123698    1.6005058    4.4617926 
 2854000    363.98567   -952.63289   -3678.0131    1099.0328    25254.251   -36073.982  0.047136938    1.6007117    4.4617645 
 2856000    298.01245   -952.84894   -8804.6458   -4894.8872    25372.482   -39187.155  0.047144496    1.6005748    4.4615064 
 2858000    288.69627   -952.59355   -4217.5268     68.85178    18204.354   -35270.255   0.04714681    1.6005933    4.4618252 
 2860000    263.55067   -952.54036    2987.0131    -687.4606    23522.359   -32021.054  0.047151698    1.6006002    4.4617903 
 2862000    286.51068   -952.76579   -3824.9042   -4228.9149    24381.192   -35592.396  0.047161837    1.6004836    4.4615549 
 2864000    320.18415   -952.10158   -2548.2713   -3839.4781    23914.281    -41773.15  0.047166515    1.6005493    4.4615506 
 2866000    293.44784   -952.25295   -1404.0459   -1485.6846    26580.921   -34222.666  0.047171072    1.6005293    4.4617049 
 2868000    237.28057   -952.55831   -10304.546    346.31607    23546.094   -34187.718  0.047191879    1.6004254    4.4614471 
 2870000    293.66408   -952.68062   -2296.3496   -656.63302    30401.758   -38169.958  0.047189597    1.6004586    4.4614776 
 2872000    253.34815   -952.62024    -2789.305   -4751.9349    21650.671   -36169.463  0.047191626    1.6004506    4.4616603 
 2874000    325.10775   -953.06445   -10280.127   -4636.4639    23464.019   -39811.791  0.047204368    1.6004348    4.4614349 
 2876000    302.73865   -951.71688   -2578.8343    1523.5191    26974.754   -40197.479  0.047202412    1.6003762    4.4615061 
 2878000    271.45966   -952.80806   -3641.1811   -5648.7822    23501.555   -34725.147  0.047199907     1.600389    4.4614313 
 2880000    290.73604    -952.2135   -7526.9167   -550.08219    22788.165   -37216.404  0.047217397    1.6004036    4.4613899 
 2882000    293.46408   -952.62937    -7178.299   -4515.4855    22967.943   -34908.522  0.047213614    1.6002779    4.4613386 
 2884000    286.38852   -952.32836   -9733.1709   -1949.6948    27127.448   -37672.262  0.047225913    1.6003102    4.4612785 
 2886000    310.99642   -952.35306   -7695.1391   -314.27809    26270.228   -40252.135  0.047229067    1.6002906    4.4613406 
 2888000    281.47947     -952.892    -3502.498   -8443.4612    20466.294   -42583.793  0.047227634    1.6002675    4.4612359 
 2890000    295.60829   -952.68094   -4144.2508   -13.582077    18548.224    -32048.32  0.047242278    1.6003044    4.4613387 
 2892000    344.30241   -952.60684    -4641.645   -800.67869    19857.273   -36820.235  0.047244788     1.600171    4.4612801 
 2894000     307.2779   -952.65216   -1237.1256   -6540.9666    21942.735   -36204.394    0.0472423    1.6002228    4.4611826 
 2896000    289.62998   -952.62772   -6170.5953   -2115.3956    19532.438   -32247.892  0.047247495    1.6001853    4.4613401 
 2898000    303.71023   -951.93642   -9558.9133    -4378.362    18896.588   -41180.784  0.047253657    1.6001208    4.4611942 
 2900000    268.86262      -952.61   -5133.7064   -2718.4159     17953.33   -37537.491  0.047247427    1.6000679    4.4611699 
 2902000    293.14387   -952.47562   -7417.0003    6355.3738    21478.452   -38136.838  0.047272821    1.5999851    4.4611699 
 2904000    330.62682   -952.69733    1390.3114    475.10082    18724.673   -39490.695  0.047275913    1.6000674     4.461328 
 2906000     298.0579   -953.16174   -6617.1538   -7889.6643    16830.596   -34745.895  0.047273928    1.5998724    4.4612197 
 2908000    209.92057   -952.29674    -6502.852   -6709.5939     22852.39   -43017.352  0.047282021    1.5999255    4.4611548 
 2910000    282.75064   -953.01103   -3807.1377   -7067.9991    20906.517   -34797.784  0.047298499    1.5998979    4.4614435 
 2912000    306.18734    -952.4753    -1178.955     -3224.68    24212.123   -43379.037   0.04728974    1.5998095    4.4611909 
 2914000    259.68102   -952.66684    6803.0771   -2365.8803    19492.227   -36089.617   0.04730862    1.5999092      4.46107 
 2916000    255.45392   -952.03626    -7215.852   -2655.2896    20509.263   -39662.973  0.047312211    1.5997953     4.461311 
 2918000    333.58028   -952.30823   -2039.3228   -1226.8699    19119.537    -35298.41   0.04731832    1.5997306    4.4612869 
 2920000    296.75977   -952.66078    -8318.699   -3022.8136     24971.27   -37463.946  0.047377129    1.5996196    4.4609064 
 2922000    265.48988   -952.50744   -1312.4487   -2906.0295    19088.033   -38630.363  0.047391576    1.5995624    4.4611244 
 2924000    270.20994   -952.83323   -870.65924   -4016.6932    21852.595   -41382.669  0.047408757    1.5993573     4.461404 
 2926000    308.69364   -952.97629   -2931.1876   -6318.6398    18340.149   -32735.479   0.04744761    1.5994356    4.4612142 
 2928000    278.11147   -952.61333   -6945.8679   -7404.3613    18343.677    -38656.11  0.047480286      1.59941    4.4610512 
 2930000    315.80301   -952.69732   -11494.723   -2173.6403    20604.414   -40852.687  0.047501041    1.5992329    4.4615353 
 2932000     286.0722   -952.21157   -8316.2615   -8407.2467    14788.024   -34099.534  0.047530644    1.5991794    4.4614273 
 2934000     263.5007   -952.52445   -9059.3263    38.714582     19042.75   -36120.904  0.047578586    1.5991331     4.461173 
 2936000    334.16163     -953.069   -4087.8167   -2121.7768      22301.1    -36124.77  0.047576554    1.5991047    4.4614342 
 2938000    339.59702   -952.70273    1442.5568   -4162.9784    19921.765   -39841.685  0.047588796    1.5990433    4.4615502 
 2940000     274.1841   -952.92832   -1829.1389    -3001.079    23259.849   -44441.988  0.047607489    1.5990565    4.4612592 
 2942000    340.09884   -952.66449   -627.30083    1561.6696    17531.263   -42080.782   0.04760158    1.5990194     4.461224 
 2944000    330.16272    -952.7291   -4723.8396   -6296.4254    22415.243   -33868.184  0.047607216    1.5989621     4.461563 
 2946000    294.91949   -953.10532   -3570.1874    -1899.248    22049.154    -37321.91  0.047627518    1.5989755    4.4613523 
 2948000    316.73028   -952.99141   -10236.408   -5873.5217    24126.792   -44091.553  0.047619446    1.5989216    4.4611135 
 2950000    317.39162   -952.40136   -12131.039   -7029.0872    31756.161   -36899.514  0.047631837    1.5989336     4.461355 
 2952000    280.80532   -953.31077   -5746.4363   -1358.5476    21198.477    -38469.78  0.047644982    1.5989784    4.4615369 
 2954000    295.23876   -952.53053    250.29562   -5579.9354    23863.707   -32630.775  0.047652511    1.5989279    4.4613986 
 2956000    275.68685   -952.46227   -3827.4245   -6932.5391     23770.78   -38440.236  0.047657886    1.5989088    4.4613251 
 2958000    306.30669   -952.94209   -8425.2362   -5571.2509    21763.316   -41035.947  0.047661522    1.5989457    4.4614911 
 2960000    293.43993   -952.46934    -6212.935    -3383.548    15083.235   -32764.044   0.04767168    1.5988838    4.4615696 
 2962000    311.46427    -953.1278   -6476.2145   -4933.8136    22045.348   -38763.391  0.047671276    1.5987597    4.4613596 
 2964000    320.12913     -952.714    -435.6915   -3451.4601    18601.791   -40780.891  0.047698173    1.5989215    4.4614342 
 2966000    367.43891   -953.01205   -5376.1085   -4057.2648    27582.469   -30281.043  0.047704209    1.5988207    4.4617163 
 2968000     315.4969   -952.66989   -6529.5474   -2915.3807    25373.643   -32810.142  0.047706899    1.5988038    4.4616077 
 2970000    329.22735   -952.93118    -9972.834   -1257.2498    23556.053   -45030.644  0.047721999    1.5987619    4.4612578 
 2972000    297.13873   -952.82269   -7733.6775   -6326.5738    21518.257   -40108.327  0.047713361    1.5987311    4.4615959 
 2974000    320.51564    -952.7837   -8393.4358   -11863.164    19310.091    -38660.87  0.047715776    1.5987037    4.4614986 
 2976000    341.45054   -952.49275    -9384.438   -2574.6917     23155.44   -33060.791  0.047719423    1.5986595     4.461363 
 2978000    271.71387   -952.79138   -5679.2011   -6634.9174    20443.293   -32045.483  0.047711153    1.5985797    4.4614448 
 2980000    288.62707   -952.57539   -1752.4892   -3746.5042    21587.647   -36624.437  0.047726542    1.5986398    4.4615352 
 2982000     292.1794   -952.21269    2203.7936   -5348.9723    22265.973    -37754.99   0.04772467    1.5985824    4.4614296 
 2984000    309.65233   -952.58887   -574.40805   -5898.7829    22149.704   -37734.022  0.047726038    1.5985511    4.4613843 
 2986000    314.60255   -952.53945   -5960.0778   -3206.4111     26473.58   -36960.056  0.047728862    1.5984932    4.4613841 
 2988000    277.49914   -952.68817   -1044.8125    5580.8838    17762.608   -39801.758  0.047746869    1.5985727    4.4616365 
 2990000    258.41155    -952.6058    -5992.834   -3705.4798    27699.224   -36867.617  0.047751933    1.5985268    4.4616438 
 2992000    312.82911   -952.37115   -3503.1051   -3260.1651    20099.065   -39696.134   0.04775337    1.5984806    4.4614489 
 2994000    330.25726   -952.70052   -11149.651   -5886.0078    23193.561   -44430.155  0.047766178    1.5985165    4.4614961 
 2996000    261.91801   -953.14386   -6450.7855   -1958.0989    22628.883    -39640.58  0.047768796    1.5985116    4.4617469 
 2998000    339.46106   -952.50923    -2583.231   -3245.1801    27288.335    -34214.17  0.047772755    1.5983676    4.4615118 
 3000000    317.99257   -952.69561   -4429.0267   -6418.1481    21176.822   -37156.675  0.047786374    1.5983975     4.461342 
 3002000    308.34121   -952.93818   -1302.8553   -5973.7921    25782.204    -32948.47  0.047786024    1.5983325    4.4615521 
 3004000    288.98478    -953.1443   -10036.352   -7321.0831    21366.725   -40507.912   0.04779521    1.5984538    4.4616559 
 3006000    321.41739   -952.83052   -5358.5971   -3325.6318    16615.242   -41007.898  0.047810676     1.598422    4.4612205 
 3008000    300.68634   -952.43331   -7627.3048    -1111.041    25046.012   -37554.309  0.047807924    1.5982482    4.4613236 
 3010000     255.0871   -952.44831   -8943.7249   -9496.7996    30180.413   -33750.652  0.047817453    1.5983271    4.4617059 
 3012000    313.85198   -952.48349   -3073.7152   -7851.8643    25477.714   -27901.855  0.047827979    1.5983445    4.4614597 
 3014000    289.48495   -952.51912   -10590.435   -3204.6915    27840.016   -38241.872  0.047830665     1.598236    4.4611569 
 3016000    289.68882   -952.56858   -11211.607   -10905.325    19318.906   -37615.255  0.047841731    1.5982069    4.4615876 
 3018000    348.79798   -952.25947   -1025.2066   -3571.2263     23044.05   -35828.303  0.047848505    1.5982004    4.4616342 
 3020000    267.47539   -953.08032   -8839.1987   -4003.4439    15024.448    -34863.99  0.047854751     1.598238    4.4613928 
 3022000    290.43268   -952.59483   -3910.2071    -1272.234    19116.659   -36239.098  0.047862315    1.5981174    4.4614261 
 3024000    314.81453   -952.32526   -2754.5285   -3168.1766     29593.45   -32579.757  0.047873879     1.598146    4.4615783 
 3026000    321.21185   -952.49861   -7578.8299   -7894.6098     23440.11   -29715.615  0.047873952    1.5982143    4.4614215 
 3028000    352.13308   -952.54557   -6792.1507    -12402.84    23779.052   -43046.153  0.047869226    1.5980776     4.461327 
 3030000    300.15275   -952.51639   -12674.012   -8978.5867    20175.053   -37315.351  0.047880679    1.5981104    4.4614781 
 3032000    266.97085   -952.24607   -10569.937   -5357.1235    21412.658   -34334.018  0.047888021    1.5980282    4.4614631 
 3034000    321.18249   -952.94993   -3744.3584   -6287.7653    22921.358   -30255.555  0.047881374     1.598086    4.4613123 
 3036000    336.14307   -952.68791   -11486.986   -11062.694    18244.392    -34753.33  0.047916801    1.5980246    4.4613417 
 3038000    323.05378   -952.60778   -2953.2558   -2776.5377    26684.129   -35099.901  0.047923587    1.5978096    4.4614213 
 3040000    302.43702   -952.30492    474.09845   -2932.6089    22946.574   -38001.138  0.047938908    1.5979179    4.4614005 
 3042000    308.07195   -952.02986   -8253.9335    -1592.122     22967.53   -37812.949  0.047950061    1.5978885    4.4612599 
 3044000     300.5426   -952.65027   -5259.5935   -6627.9198    21134.201   -34833.996  0.047939177    1.5977216    4.4614474 
 3046000    312.46734   -952.40446   -531.70377   -1082.6593    27166.507   -39575.724  0.047959503    1.5978003    4.4614912 
 3048000    289.53503   -952.91645   -2673.6743    1273.0642    26848.986   -41167.043  0.047981139    1.5977683    4.4612466 
 3050000     313.5032   -952.54223   -2286.3934    -6619.059    24936.559   -40225.335  0.047996444    1.5976022    4.4613147 
 3052000    327.12456   -952.25072   -1616.6979   -6758.9753    23001.609   -38120.267  0.048028907    1.5976031    4.4615852 
 3054000    290.03837   -952.46383   -4576.6321   -9873.9117    24464.607   -40277.465  0.048058266    1.5975458    4.4612785 
 3056000    266.85318   -952.93611    -4144.531    -4889.634    22104.342    -40981.11  0.048069872    1.5975466    4.4613142 
 3058000    283.97979   -952.79579   -5706.0527    417.79214    19699.755   -33423.139  0.048065495    1.5974434    4.4614709 
 3060000    260.74077   -952.62816   -4536.5602    -1650.322    22773.163   -31911.872  0.048072372    1.5974029    4.4612892 
 3062000    272.46097   -952.65929   -877.70898   -7393.6431    19439.467   -38859.308  0.048084394    1.5974689    4.4612748 
 3064000    274.91859   -952.29195    -8232.666    526.44433    22423.558   -34005.249   0.04807732    1.5973741    4.4614856 
 3066000    297.87341   -952.65429   -3476.1005   -2626.0096    22996.014   -32012.182  0.048096311    1.5973753    4.4613863 
 3068000    243.52314   -952.75961   -4015.1676    1081.4195    24368.034   -38883.316   0.04811018    1.5973298    4.4611786 
 3070000    297.49566   -952.18905   -2498.4769   -4099.6332    25346.166   -31442.759  0.048102398    1.5973366    4.4614942 
 3072000    288.90888   -952.76526   -4860.3084   -3699.0542    23967.845   -37569.735  0.048152104     1.597266    4.4614217 
 3074000    275.70603    -952.6127   -3749.8626    -6322.071    26487.814   -43236.485  0.048163435    1.5972059    4.4613856 
 3076000     238.6311   -952.69261   -3831.8977   -8075.8807    23253.871   -39246.857  0.048178001    1.5970911    4.4613774 
 3078000    306.73238   -952.81284    2497.2811   -4976.1719    25863.207   -38731.593  0.048204147     1.597045     4.461406 
 3080000     311.7878   -952.22538   -10404.365   -4091.8309    24878.124   -36997.586  0.048197111    1.5971028    4.4614493 
 3082000    301.36234   -952.29506   -11451.507    3276.8015    27308.467   -29895.554  0.048206048    1.5970089     4.461373 
 3084000    311.64667   -952.96966   -2569.2494   -6582.1412    26463.644   -41246.087  0.048194482    1.5968511    4.4613144 
 3086000    285.60541   -952.62166    1917.8045   -10293.971    22023.662    -36024.58  0.048203863    1.5969401    4.4613435 
 3088000    281.83956   -952.48197   -4347.6112   -6722.1968    24978.586   -39101.554  0.048210764    1.5969542    4.4614724 
 3090000    299.76327   -952.54294   -1260.7323   -4985.4101    19832.924   -27349.207  0.048205901    1.5968613    4.4614586 
 3092000    337.01712   -953.06945   -2286.0506    1507.0636    19862.371    -37735.01  0.048218568    1.5968466    4.4613396 
 3094000    314.09177   -952.47566   -5634.1382   -3644.5411    19877.219   -32846.337   0.04821337    1.5968436    4.4612804 
 3096000    340.41534   -952.25949    -13187.31   -9853.4672    23775.684   -39888.445  0.048238407    1.5968755    4.4613909 
 3098000    308.48414   -952.12396   -8310.0344   -1876.8299    20972.399   -35294.499  0.048239328     1.596873    4.4615332 
 3100000    293.69356   -952.83163   -3265.7861   -4812.8599    27466.709    -36321.66  0.048244791    1.5967243    4.4612787 
 3102000    289.42579   -952.65305   -5265.9947   -9714.8227    27318.789   -41655.857  0.048262747    1.5968366    4.4613621 
 3104000     303.5146   -952.41779   -6810.1246    1132.1447    21858.658   -32763.619  0.048269131     1.596843    4.4616994 
 3106000    316.37137   -952.86811   -577.28233   -5875.5861    25485.271   -39922.231  0.048273626    1.5966611    4.4614073 
 3108000    363.21516   -952.40487   -1217.5285   -3959.8441    22417.762   -40731.839  0.048279914    1.5968055    4.4613654 
 3110000    268.47125   -952.61129   -2995.3282   -3025.5228    20149.668   -36310.782  0.048282845    1.5966692    4.4616323 
 3112000    308.98084   -952.11006    -3610.995   -6620.3016    19373.885   -35304.504  0.048290519    1.5966203    4.4617078 
 3114000    270.79898   -952.82665   -2990.6728    642.40107    24631.149   -31502.624  0.048315844    1.5967368    4.4614857 
 3116000    295.71133   -952.84537   -7088.1007   -2467.0134    23933.609   -37221.178  0.048304935    1.5965753    4.4615648 
 3118000    300.56704   -952.77789   -8626.1878   -12286.004    25902.383   -37314.472  0.048312102    1.5965821    4.4616785 
 3120000    270.36599   -952.60983   -4869.4575    879.73113    21997.743    -31386.29  0.048324947     1.596646    4.4616966 
 3122000    271.31946   -952.69247    -1523.101   -5898.3063    15229.221   -42420.933  0.048318729    1.5965219    4.4616025 
 3124000    298.83631    -952.6615   -8670.0318    3157.0975    22674.286   -39298.049  0.048335037    1.5965342    4.4617746 
 3126000    269.25257   -952.59141   -9295.2046   -4705.1595    16099.788   -41600.917  0.048332162    1.5964725    4.4618284 
 3128000    321.39087   -952.70838   -6934.9724   -8093.4103     24160.72   -35209.451   0.04833342    1.5964532    4.4616756 
 3130000     314.8255   -952.83323   -7204.3905   -8162.4015     21885.79   -44848.179  0.048339806    1.5964388    4.4617706 
 3132000    333.37517   -952.48254   -7112.3803   -3690.4971    19266.684   -36191.907  0.048343754    1.5964666    4.4617197 
 3134000    311.71641   -952.69975    -1834.182   -4190.8476    22549.782   -40009.466  0.048346357    1.5963768    4.4616688 
 3136000    293.48379    -952.1014   -2132.2789   -6138.7283    25664.375   -33931.978  0.048348878    1.5963441    4.4617646 
 3138000      318.774   -952.74321    -6198.639    -1009.308    25282.825    -30201.73  0.048358217    1.5963921    4.4617797 
 3140000    300.77795   -952.82328   -3805.6505   -3444.6909    23014.552   -39077.571   0.04835827    1.5963281    4.4617898 
 3142000    309.97664   -952.61471   -8848.2352    -5766.068    25562.984   -42224.948  0.048361467    1.5962924    4.4618392 
 3144000    244.19242   -952.42003   -6420.1709   -1999.6534    20524.455    -40138.62  0.048387612    1.5963704    4.4618198 
 3146000    317.56178   -952.55011   -2861.7924   -5945.7854    26998.639   -36419.339  0.048377777    1.5962343    4.4618969 
 3148000    279.84791   -952.72418   -685.83614   -2059.2041    22202.568   -29969.302  0.048383518     1.596279    4.4617516 
 3150000    281.61166   -952.78513   -9004.4436   -8883.8868    16874.213   -40997.581  0.048399884    1.5963297    4.4617366 
 3152000    366.37488   -952.86431     -4385.94   -6721.8493    22853.111   -36693.221  0.048391265    1.5961834     4.462031 
 3154000    292.77911   -952.67086   -3661.7495   -2628.7663    28119.065    -25758.89  0.048401178    1.5961603    4.4620063 
 3156000    255.21796   -952.88576    400.87065   -4205.5269    20463.826   -37798.509  0.048407012    1.5961456    4.4617586 
 3158000     268.3937   -952.23307   -8649.2742   -4085.1431    19818.768   -41426.934   0.04841076    1.5960965    4.4619329 
 3160000    304.94106   -952.53243   -1204.6342   -9093.2385    26886.326   -27835.407  0.048413851    1.5960972    4.4620458 
 3162000    304.92392   -952.58521   -3958.6547    -5635.783    19392.178   -31212.506  0.048418424    1.5960583    4.4617729 
 3164000     291.2358   -952.86888    -8050.306   -5550.9756    19442.947   -41012.624  0.048422166    1.5959522    4.4616415 
 3166000    366.59084   -952.84459   -7304.4436   -9339.4912     16155.65   -41500.207  0.048417534    1.5959869      4.46205 
 3168000    304.81155   -952.76146    -5065.793    -5146.069    21500.396   -35272.302  0.048426201    1.5959856    4.4618853 
 3170000     312.5605   -952.58251   -8669.5778   -8633.6162    27330.474   -34846.849   0.04842691    1.5959983    4.4618291 
 3172000      311.731   -952.17805    -5896.535   -9726.2614     18757.71   -35558.935  0.048421327    1.5959249    4.4620503 
 3174000     298.8065   -952.77181   -10180.371   -5103.7027    21977.699    -36314.41  0.048443225    1.5959341    4.4621471 
 3176000    288.42517   -952.08775   -593.89813    821.88303      18096.1   -39954.219   0.04844106    1.5958991    4.4619983 
 3178000    278.24368   -952.35233    432.58906   -5598.8655    27276.667   -40097.635  0.048440087    1.5958257    4.4618984 
 3180000    281.49752   -952.66395   -7128.6677   -10126.565    19912.629   -31020.061  0.048444658    1.5958766    4.4620786 
 3182000    279.02972    -953.0185   -2420.3074   -2166.7985    26005.311   -36047.962  0.048446093     1.595733    4.4619014 
 3184000    312.20549   -952.82677   -1458.7788   -2965.9299    22455.418   -41219.681  0.048465651    1.5958472    4.4620396 
 3186000    269.80858   -952.55064   -8225.2934    968.20302    24009.382   -38347.751  0.048461029     1.595804    4.4619331 
 3188000    311.19704   -953.05781   -2120.6708   -1349.1123    24095.266   -35634.299  0.048454631    1.5957319    4.4618585 
 3190000    262.04682   -952.43472   -2231.4785    1913.3315    14880.515   -44662.949  0.048466823    1.5957761    4.4619123 
 3192000    313.79001   -952.50249   -2354.8024   -171.58253    27124.619   -40986.966  0.048471771    1.5957169    4.4619984 
 3194000    317.43317   -952.32241   -2661.9411   -2532.1455      23789.8   -43222.255  0.048469354    1.5956352    4.4618427 
 3196000    320.53934   -953.19633    3696.8714    286.74732    23789.639   -35507.653  0.048469117    1.5957224    4.4619503 
 3198000    292.01394   -952.69993    -9759.637    1459.7609    21886.876   -41459.979  0.048475211    1.5956507    4.4619024 
 3200000    291.59694    -952.1907   -4275.2156   -459.37793    20346.206   -40113.763  0.048478845    1.5956347    4.4618968 
 3202000    309.54222   -951.99608   -2572.2517   -7745.9014     27634.91   -29621.153  0.048487075    1.5955813    4.4618243 
 3204000    273.04825   -952.55151   -5067.8003   -6479.0657    22229.562   -34834.799  0.048491149    1.5955167     4.461886 
 3206000    308.39146    -953.0755   -7198.2891   -5629.2186    24660.456   -37471.387  0.048489619    1.5955411    4.4619669 
 3208000    300.01677   -953.05493   -1983.6114   -5754.4348    21515.801   -36668.097  0.048500917     1.595529    4.4617647 
 3210000    225.85289   -952.07095    -2607.288   -8034.1336    23431.536   -40798.419  0.048508225    1.5954795     4.461799 
 3212000    287.40443   -952.74905   -3947.1816   -925.31448    27420.227   -32336.568    0.0485127    1.5954264     4.461889 
 3214000     304.7332   -952.75713   -3075.8611   -3362.1071    15772.387    -41330.46  0.048512396    1.5954324    4.4616512 
 3216000    288.44597   -952.46569    -14938.44   -4862.4932    21132.472   -41284.066  0.048527187     1.595461    4.4617321 
 3218000    249.54864    -952.7146   -12634.969    -1957.963    23181.793   -39569.441  0.048520754    1.5953389    4.4619104 
 3220000    308.45285   -952.56669   -5492.2898   -11392.018    20819.261   -30574.961  0.048516219    1.5952885    4.4617237 
 3222000     260.4171   -952.75095     -6768.13   -3225.9475    21651.469   -36539.979  0.048538049    1.5953329    4.4615918 
 3224000    287.27093   -952.37786     525.0618   -275.38432    17725.362   -40437.222  0.048537256    1.5953441    4.4619583 
 3226000    315.78478   -953.03441    -3364.962   -5218.9518    22668.893   -33029.541  0.048542691    1.5952423    4.4617799 
 3228000    284.95963   -953.11839   -1072.0784   -7732.3951    24324.264   -40138.748  0.048547971    1.5953159     4.461515 
 3230000    282.88863   -952.66669    -12313.69    -8571.028    24627.521   -45844.592  0.048562229    1.5952819    4.4618493 
 3232000    318.87386   -952.65906   -2602.3644   -2658.2633    16955.036   -31606.155  0.048572633    1.5952252    4.4620652 
 3234000     298.7125   -952.37894   -3515.4732   -5389.9987    28144.989   -38176.911  0.048576998    1.5952078    4.4617683 
 3236000    341.61542   -952.27734   -5807.3354   -3705.5272    20743.427   -39035.436  0.048586025    1.5952446      4.46167 
 3238000     271.8245   -952.81425   -6393.7819   -6486.7452    17680.803   -41136.438  0.048595105    1.5952405    4.4620836 
 3240000    317.56088    -952.7263   -6732.8983   -2236.7156    18739.406   -38656.717  0.048598375    1.5952035    4.4620206 
 3242000    309.55312    -952.7454   -533.37026    -5158.755    23325.107   -41273.335  0.048601307    1.5951089    4.4616226 
 3244000    232.95328   -952.61537   -1857.2115    1194.6477    19762.114    -43255.76  0.048611105    1.5951609    4.4618918 
 3246000    273.13298   -952.82505    390.06044   -3096.8346    14652.174   -34209.681  0.048612423    1.5951148    4.4621756 
 3248000    262.29136   -952.43778   -5099.8894    -7390.429    23017.416   -34629.523  0.048617202    1.5950377    4.4618593 
 3250000    327.33099   -952.54948   -8676.6706   -8638.4429    27709.885   -41038.941  0.048624001    1.5950403    4.4617327 
 3252000     311.5296   -952.44914   -4292.9736   -5045.2888    20359.395   -39956.328  0.048632332    1.5950447    4.4621393 
 3254000    279.40159   -952.80554   -3757.5765   -4860.6015    17871.413   -33005.242  0.048640094    1.5950051    4.4620743 
 3256000    301.75864   -952.64651   -600.93316    -2685.861    20412.845   -37331.432  0.048640854    1.5949956    4.4617731 
 3258000    346.39977   -952.52935   -6274.6881   -8162.9834    26299.071   -46616.595  0.048643173    1.5950068    4.4618308 
 3260000    296.98335    -952.7817   -3587.9071    -1715.096    23276.345   -33765.575  0.048656103    1.5950548    4.4620785 
 3262000    289.83573   -952.47603   -4298.4624   -7033.2902    24974.561   -35796.834  0.048659755    1.5949372    4.4617497 
 3264000    253.34342   -952.65513   -3551.7752   -3940.2587    18238.116   -41332.049  0.048652886    1.5949574    4.4618317 
 3266000    341.54399   -952.59896   -8299.6874   -7089.8452    23386.613   -35486.132  0.048661872    1.5948828    4.4619028 
 3268000    307.75174   -952.51778   -5919.0396   -2948.5134    20329.942   -33099.877  0.048664122    1.5949399    4.4619547 
 3270000    304.70477   -953.02298   -8906.5681   -5817.2261    21596.589   -37454.793  0.048668023    1.5949612    4.4618824 
 3272000     334.7222    -952.7719   -1443.3998   -2910.0023    17891.237   -35914.816  0.048671927    1.5949028     4.461865 
 3274000     288.6116   -952.76876   -4948.3308   -6742.2455    28802.936   -37977.437  0.048692496    1.5949305    4.4618371 
 3276000    260.30929   -952.17442   -7361.4913   -7747.7832    25884.093   -37625.033  0.048689191    1.5949171    4.4619965 
 3278000    320.74602      -952.72   -7340.6783    -3515.574    14832.995    -36656.91  0.048696005    1.5948273    4.4618977 
 3280000    294.90766   -952.35018   -8206.3978   -4064.6381    17955.778   -44277.971  0.048716685    1.5949349    4.4620835 
 3282000    274.91214    -953.0226   -7553.8696   -11793.909    18929.566   -34356.703  0.048715038    1.5948654    4.4621765 
 3284000    318.54648   -952.88393   -7448.2122   -7659.3894    25856.766   -32536.761  0.048723521    1.5948797    4.4620838 
 3286000    283.14361    -952.4987   -1236.1674   -1797.8259     21357.16   -35458.106  0.048733291    1.5948551    4.4620621 
 3288000    288.98531     -952.655   -7276.4684    -9117.001    21744.356   -35276.274  0.048730507    1.5948374    4.4621581 
 3290000    306.69976   -952.63576   -831.08419   -5971.2581    21129.452   -44864.053  0.048740222    1.5948717    4.4619411 
 3292000     295.3806   -952.43563   -147.29104   -3317.7417    26457.809   -40757.088  0.048742805     1.594826    4.4619363 
 3294000     300.2005    -952.4116    324.17453   -4430.2793     21152.75   -38732.255  0.048743665    1.5947739    4.4620047 
 3296000    298.07445   -951.95711    652.01123   -5062.5375    24307.226   -42087.249  0.048764666    1.5947929    4.4620636 
 3298000    267.98578   -952.83695    -7065.362   -7609.1882    18128.911   -35227.374  0.048761187    1.5947629     4.461962 
 3300000    293.92239   -952.83271   -5926.0558    2364.1021    18997.308   -40492.484  0.048772125    1.5947507    4.4618475 
 3302000    271.11107   -952.85247    1278.1586   -67.946647    18986.762    -41621.78  0.048781964    1.5946941    4.4621289 
 3304000    288.67337   -952.13874   -4934.6691   -8293.5165    16571.327     -32847.8  0.048785545    1.5946776    4.4619822 
 3306000    284.18118   -953.11396   -1903.5738   -5624.2705    23102.478   -41511.719   0.04879029    1.5946824    4.4617217 
 3308000    284.40936   -952.09165   -2247.2048   -6036.9941    21857.488   -45635.305  0.048794499    1.5946717    4.4619682 
 3310000    323.92083   -952.66052   -5546.0209   -5736.5867    22499.266   -37306.201  0.048801547    1.5946143    4.4620498 
 3312000    284.81783   -952.51515   -661.05195   -5992.8175    23344.876   -39284.059  0.048800502    1.5945872    4.4619158 
 3314000    280.55525   -952.86117    -6185.071    -4654.665    29369.781    -38486.66  0.048810682    1.5946123    4.4617542 
 3316000      328.262   -952.07804    -7099.724    1824.8446    20193.333   -36784.762  0.048827598     1.594643    4.4620222 
 3318000    348.71325   -952.56378     3801.775    1192.0116    27596.107   -41598.781  0.048826863    1.5945429    4.4620798 
 3320000    273.75529   -952.72814      3751.98   -3918.0133    25059.426   -32169.498  0.048837611    1.5946281    4.4617542 
 3322000    261.68078     -952.544   -3314.7557    3522.0546    17988.759   -44757.556  0.048841479    1.5946357     4.461863 
 3324000    277.51065   -952.41366   -4407.8962   -4698.3209    30872.304   -34068.786  0.048840853    1.5945424    4.4622639 
 3326000    311.35483   -952.48562     4223.119   -6628.7022    25345.551   -33557.686  0.048865047    1.5946004    4.4620616 
 3328000    315.76382    -952.5616   -5369.9868   -1561.5872    22924.763   -44242.002  0.048879091    1.5945199    4.4617846 
 3330000    354.49502   -952.59915   -5284.5146   -4521.0154    21457.672   -44053.263  0.048901571     1.594457    4.4620853 
 3332000    292.34599   -952.55423   -297.43507    508.84678     20254.59   -34182.828   0.04893268    1.5944341    4.4622619 
 3334000    261.40794   -952.74124   -7859.0688   -2871.6658    26060.641   -38994.453  0.048933588    1.5944535    4.4620161 
 3336000    337.90012   -952.06929   -6990.0553   -2446.8692    17344.524    -37172.43  0.048946226    1.5944564    4.4619404 
 3338000    315.95145   -952.79934   -4393.4747    762.92014    25044.032   -44204.762  0.048946127    1.5943515    4.4621372 
 3340000     307.5472   -952.63473    258.04908   -4446.2906    25313.895    -34830.18  0.048952126    1.5944066    4.4621384 
 3342000    295.83301   -952.55856   -4716.4365   -1442.2412    23032.803   -39267.805  0.048956716    1.5943697    4.4619417 
 3344000    344.67245   -952.90083    83.316658   -6144.8531    17631.617   -38623.243  0.048961711    1.5943246      4.46211 
 3346000    273.61933   -953.07106     -7055.02   -2408.3093    22165.553   -39237.212  0.048965136    1.5943132    4.4622628 
 3348000    336.55646    -952.5818   -3377.4268    3966.8011    26675.449   -34702.966  0.048965935    1.5942832    4.4620439 
 3350000    304.17705   -952.96169   -5656.9045   -717.28551    26053.242   -46542.912  0.048976075    1.5942932    4.4619491 
 3352000    278.76419   -952.96161   -3267.3023   -2373.9273    20086.662   -36136.056  0.048974032    1.5943317    4.4622186 
 3354000    281.46911   -952.26643    -3802.122   -3714.3167    23447.617   -37614.783  0.048976751    1.5942694    4.4619526 
 3356000      260.582   -952.38961   -4688.0722   -4194.0131    26249.299   -43224.185  0.048987721    1.5942819    4.4619521 
 3358000    241.13809   -952.65094    -7144.242   -1804.9825    27742.194   -36108.904  0.048987725     1.594269    4.4622773 
 3360000    275.67727   -952.51377   -3885.1372   -7466.8829    26234.917   -34349.255  0.048999151    1.5942196    4.4621789 
 3362000    327.53456   -952.95323    -9187.106   -5196.8058    17239.032   -38567.241  0.049007351    1.5942926    4.4620269 
 3364000    308.11051    -952.6907   -3068.9904     1681.247    23223.641   -40312.132  0.049008445    1.5942368    4.4620819 
 3366000     281.3341   -953.19699    -3618.878   -4927.9965    19309.381   -40068.596  0.049030452    1.5942718    4.4623139 
 3368000     317.3539   -952.69318     790.6067    -2681.467    20796.109   -42495.817  0.049028763    1.5942498    4.4619752 
 3370000    287.17994   -952.38291   -3741.5832    1680.7298    31129.632    -41013.29  0.049038693    1.5942141    4.4619513 
 3372000    291.26326   -952.54558   -5550.7823   -4796.4188    21179.799    -35912.86  0.049042406    1.5942511    4.4621807 
 3374000    288.40428   -952.44398    -8691.126    -2157.882    25524.098   -36031.212  0.049049058    1.5942289    4.4620953 
 3376000    286.66987   -952.10309     -940.371    959.64181    24147.274   -37502.754   0.04905705    1.5942955    4.4620118 
 3378000    368.61984   -952.86836   -7054.2805    5047.2163    23612.011   -37515.952  0.049059887     1.594178    4.4620197 
 3380000    262.46823   -952.54241    1315.0597   -7638.9456    28890.113   -42073.948  0.049062901    1.5942332    4.4621836 
 3382000    278.48979    -952.5077   -5049.3683    640.93363    19642.017   -34060.452  0.049079528    1.5943575     4.462157 
 3384000    314.21436   -953.16162   -2086.8873   -1985.6281    21343.544   -37185.416  0.049077193    1.5942547    4.4620291 
 3386000    287.30251   -952.12699   -12494.419   -7208.2795    31323.017   -39266.563  0.049079266    1.5942154    4.4620884 
 3388000    273.21972   -952.77548   -441.20778   -1109.9643    22684.452   -34370.418  0.049096204    1.5942734    4.4621853 
 3390000    265.64635   -952.22384   -3819.7183    3615.4188    24770.444    -37370.29  0.049094902    1.5942442    4.4621865 
 3392000    296.91974   -952.82747   -7842.9409   -6454.0383    36068.548   -35229.077  0.049100598    1.5942261    4.4621785 
 3394000    301.11756   -952.81702   -9922.6902   -8939.0957    22902.432   -39416.379  0.049104598    1.5942101    4.4620561 
 3396000    303.52855   -952.30218   -2640.5657   -3374.8387    21752.896   -43245.792  0.049121442    1.5941857    4.4621919 
 3398000    302.07194   -952.44625    1695.0968    1803.4116    26231.673    -32805.96  0.049132071    1.5942168    4.4623126 
 3400000    293.94571   -953.03935     319.5751    -3816.114     27671.58   -38104.601  0.049138805    1.5942061     4.462022 
 3402000    326.37189   -952.51319   -2968.2054   -3490.0368    26915.913    -49526.86  0.049144581    1.5941359    4.4620478 
 3404000    354.01858   -952.91769   -3327.9311   -1361.7847    13012.479   -40922.676  0.049148063    1.5941935    4.4623543 
 3406000    307.32561   -952.34505   -5997.7513   -491.19549    28872.833   -32817.604  0.049151325    1.5940919    4.4620256 
 3408000     311.7748   -952.36497   -5726.8898   -5482.4956    18291.516   -35842.409  0.049159943    1.5941266    4.4620136 
 3410000    340.34452   -953.28577   -9633.4434   -2921.1399    24071.811   -39112.385  0.049157103    1.5940752    4.4622809 
 3412000    314.77748   -952.53305   -11074.301   -8588.8032    26690.759   -33968.426  0.049168557    1.5940279    4.4621662 
 3414000    328.23483    -952.7464   -6446.3957   -8170.5105     21599.45   -38335.779  0.049170775    1.5940491    4.4619824 
 3416000    299.22596   -952.93036   -4062.1991   -2751.7782    22400.424   -37415.638  0.049170498    1.5939736    4.4621099 
 3418000    249.35953    -952.6143   -4174.0395   -4537.7696    18977.011   -29650.179  0.049178639    1.5939896     4.462099 
 3420000     304.1472   -952.54444   -1432.3916   -8666.3609     14357.93   -36235.498  0.049190542    1.5940342    4.4620824 
 3422000    255.43579   -952.48599   -6021.0446   -5960.1982    25490.627   -36997.497  0.049189302    1.5938992    4.4620568 
 3424000    310.24325   -952.56307   -7750.4783   -4851.1117    19243.509   -35391.407  0.049196151    1.5939291    4.4621243 
 3426000    277.81826   -952.47724   -14389.746   -5518.8044    25587.016   -39275.388  0.049200843    1.5939144    4.4620256 
 3428000    231.60155   -952.61182   -5171.1285   -6388.7516    15735.603   -37102.862  0.049203441    1.5938646    4.4619927 
 3430000    321.20738   -952.25725   -9238.8276   -7503.5052    24508.379   -29945.619  0.049206494    1.5938027     4.462088 
 3432000    314.25753   -952.42238    1432.1308   -10147.488    21099.407   -38571.551  0.049214485    1.5938468    4.4620046 
 3434000    282.31523   -952.53283   -7674.5761   -544.28731    21327.551    -41109.79  0.049214532    1.5937764    4.4618332 
 3436000    268.49411   -952.86365   -8622.7406    -3862.891    18189.751    -33018.99  0.049232679    1.5938354    4.4621308 
 3438000    291.66792   -952.45081   -1641.0706   -1446.6695    27271.493   -35161.257  0.049257236    1.5937189    4.4619953 
 3440000    256.15295   -952.82069   -12034.399   -4062.3844    20543.623   -32530.977  0.049281937    1.5936694    4.4620655 
 3442000    309.18058   -952.72331   -3413.0802   -6930.4227    19725.979   -41076.281  0.049304857    1.5936242    4.4621557 
 3444000    367.80164   -953.30972   -2977.3032   -4480.3798     19792.12   -33516.411  0.049316591    1.5936056    4.4622795 
 3446000    272.16444   -952.95846   -5117.5044   -2324.8734    15443.251   -36309.721  0.049328524    1.5936574    4.4622673 
 3448000    309.36981   -952.36899    3676.7864     -4905.68    20524.657   -35607.727   0.04933139     1.593657    4.4622312 
 3450000    320.73704   -952.75004    -1579.669   -2914.4536    24489.078   -40475.103  0.049336494    1.5935759    4.4620632 
 3452000    264.47681   -952.89768   -5827.5881    -4699.902    19985.739   -38941.815  0.049336756    1.5936039    4.4622661 
 3454000    272.14425   -952.24666   -4648.4724   -2257.6373    21322.959   -41155.529   0.04933432    1.5934979    4.4620923 
 3456000    273.35668   -952.47264   -9217.8435   -2108.7501    20303.145   -37906.568  0.049335872    1.5935375    4.4622434 
 3458000    291.89347   -952.88452   -766.21849   -5712.2789    26225.581   -35131.922  0.049323696    1.5934943      4.46232 
 3460000    296.80114   -952.56942   -2091.5727   -4487.5593    24402.415   -36177.154  0.049334021    1.5934197    4.4621428 
 3462000    296.41899   -952.36161   -6003.7386   -2043.8617    25737.362   -45581.347  0.049345098    1.5934833     4.462207 
 3464000    349.48498   -952.89315   -958.54433   -3058.2984    20874.148   -34178.025  0.049340759    1.5934447    4.4622412 
 3466000    288.59943   -952.54076   -6300.9195   -2678.3281    23362.659   -36949.448  0.049342161    1.5933825    4.4621338 
 3468000    326.36868   -952.64987   -724.66086   -1644.0345    15131.716   -42259.945  0.049356119    1.5935166    4.4622977 
 3470000    354.18227    -952.5327   -6422.6737   -3463.0676    23153.905   -43260.599  0.049357967    1.5934215    4.4623651 
 3472000    310.04622   -952.51173   -3360.4522   -8048.0251    25908.471   -35287.374  0.049357042    1.5933868    4.4622688 
 3474000    317.19707   -952.99102   -9241.1315    -2490.887    18491.816   -41193.866  0.049373392    1.5934885    4.4623392 
 3476000    283.51767   -952.62825   -1727.4497   -11473.931    27389.276   -34317.141  0.049365256    1.5933346    4.4624225 
 3478000    268.60167    -952.5521     -5245.89   -1208.3653    24648.402   -38288.646  0.049374659    1.5934065    4.4623657 
 3480000    301.96993   -952.65725    -2357.282   -8961.0869    25451.057   -39606.101  0.049381126    1.5934551    4.4623979 
 3482000    274.42981   -953.10914   -2518.5194   -3118.1725    27575.081   -42166.472  0.049388865    1.5933276    4.4624588 
 3484000    299.16576   -952.74572   -5398.8099    -565.8787     23567.24    -35702.83  0.049399014    1.5933942    4.4624829 
 3486000    334.52528   -952.39281    1967.6332    1167.5409    15919.568   -34709.846  0.049407233    1.5934548    4.4624725 
 3488000    343.81564   -952.95651   -5081.1401   -5339.7681    21202.186    -39947.43   0.04940826    1.5932685    4.4623862 
 3490000    347.23293    -952.2113   -10001.233   -7735.1446    21981.673   -36405.124  0.049413686    1.5934329    4.4626047 
 3492000    338.62566    -952.9051   -1245.3676   -7481.0215    19442.911   -36907.176  0.049426048    1.5934175    4.4625703 
 3494000    276.36499    -953.0522   -7830.0555   -5854.5392    23548.108   -35500.497  0.049414905    1.5932618    4.4625287 
 3496000    294.56726   -952.58932   -3043.0462   -7394.2975    24696.808    -41090.69  0.049429661    1.5933741    4.4626085 
 3498000    270.13475   -952.84037   -941.62495    1126.6445    18358.275   -37308.568  0.049436414    1.5934062     4.462594 
 3500000    358.50708   -952.67283    -5791.376   -5938.5379    20920.779   -38412.167  0.049428259    1.5932967    4.4625679 
 3502000    315.71657   -952.65317   -683.91523    -3906.939    23513.045   -42220.738  0.049453226    1.5933572    4.4625675 
 3504000    291.56084   -952.55158   -7793.4177   -2733.2662    18565.227   -29680.625   0.04945389    1.5933113    4.4627266 
 3506000    305.78361   -952.67856    9645.6445   -239.58518    26374.008   -38591.897   0.04945634    1.5932269    4.4625892 
 3508000    277.72676    -953.1141   -6921.0484   -1870.8245    20925.297     -42898.9  0.049475749    1.5932788    4.4625529 
 3510000    248.36384   -952.26261   -1114.7324   -1373.5547    14116.621   -37629.801  0.049468956    1.5932215    4.4625985 
 3512000    337.28527   -952.49789   -2315.9883   -7578.3462    29018.785   -41439.312   0.04947656    1.5932138    4.4627032 
 3514000    370.10498   -952.67741   -3459.9324    -7704.042    19535.499   -33347.916  0.049489646    1.5932868    4.4625745 
 3516000    276.73929   -952.39721   -2826.5757   -1869.0684    30387.423   -39054.625  0.049485727    1.5931104    4.4624932 
 3518000    260.39992   -952.51837    835.95235   -10360.871     21800.43   -35430.204  0.049489938    1.5931346    4.4626401 
 3520000    331.09336   -952.32556   -4481.0902   -3263.5953     19524.38   -39415.938  0.049493837    1.5931515    4.4624343 
 3522000     277.0052   -951.97711   -6991.6609   -5134.4199     18714.32   -37700.818  0.049495838    1.5931208    4.4624982 
 3524000     347.5744   -952.14004   -3778.6151   -6840.5184    20140.086   -31207.321  0.049499193    1.5930326    4.4624503 
 3526000    326.30304   -952.85975    1967.4315   -6360.6037     20735.25   -35611.772  0.049500266     1.593116    4.4625046 
 3528000    276.08973   -952.48491    -6168.143   -2631.2014    18726.358   -28550.994  0.049505611    1.5930277    4.4623783 
 3530000    271.46699   -952.33026    455.15273   -1149.5073    22928.112   -32744.196  0.049496889     1.593017    4.4624446 
 3532000    279.01539    -952.8494   -3046.0474   -2941.4503        25313   -32838.742  0.049510294    1.5930309    4.4624556 
 3534000    292.65024   -952.86729    89.757415   -3949.6231    14651.623   -42259.283  0.049515147    1.5929762    4.4623349 
 3536000    366.04077   -952.47988   -4271.9254   -5515.8185    23196.939    -39175.14  0.049504924    1.5929166    4.4623683 
 3538000    264.67222    -952.5989   -165.81197   -3358.9392    16661.566   -36532.698  0.049521626     1.592964    4.4623721 
 3540000    303.62537   -952.64949   -4120.2679   -5990.0581    21150.293   -33950.264  0.049513984    1.5928826    4.4623547 
 3542000    317.53827   -952.87847   -3108.1436   -1442.3647     24232.59   -37189.737  0.049531112    1.5929851    4.4624716 
 3544000    295.50951    -952.6876   -3872.4437   -3835.6351    22165.002   -41038.681  0.049533507    1.5929069    4.4622812 
 3546000    250.10336   -952.47581    -5711.203   -3840.5212    27340.065   -32135.239  0.049524646    1.5927835     4.462461 
 3548000    309.75206   -952.40942   -4359.5137   -2110.1607    25575.669   -37724.913  0.049540438    1.5928373    4.4623606 
 3550000      286.022   -952.23339   -5162.7285    -5451.181    18536.508   -36108.448  0.049543482    1.5929155    4.4624416 
 3552000    261.05633   -952.37789   -1514.2828   -2017.5607     19214.41   -36744.034  0.049538046    1.5928046    4.4625116 
 3554000    329.15413   -952.59215    -6979.008   -8734.2057    23785.813   -34208.541  0.049536402    1.5928061    4.4625179 
 3556000    274.97902    -951.9382   -10586.289   -10789.037    23852.977    -44423.91  0.049549312    1.5927896     4.462322 
 3558000    325.84386   -952.85506   -3123.7554    4914.2714    19644.388   -38257.211  0.049556438    1.5927855    4.4625619 
 3560000     260.1583   -952.58701   -3658.6714   -2649.3862    20998.667   -35771.542  0.049553781    1.5927345    4.4625872 
 3562000    274.70555   -951.98976   -12914.296   -3813.2643    24046.876   -37261.403  0.049564284    1.5927944    4.4623411 
 3564000    293.13452   -952.59055   -5117.1719   -7548.3127     20503.55    -43778.37  0.049564258    1.5927372    4.4624367 
 3566000    337.60894   -952.74507   -7436.9055   -4740.6981    25639.129   -33328.403  0.049565305    1.5926866    4.4627275 
 3568000    290.96454   -952.20141   -5569.6967   -3684.2803    19310.865    -44582.44  0.049574382    1.5927262    4.4625092 
 3570000    286.40857   -952.54114   -3069.4888   -3765.2393    19464.862   -44326.599  0.049575758    1.5926532    4.4623518 
 3572000    274.81345   -952.37625   -2487.0325    -3930.361    27266.639   -42175.768  0.049573112    1.5926992    4.4627477 
 3574000    344.35623   -951.81494    113.66675   -5452.5599    19919.361   -34269.658  0.049588244    1.5926682    4.4625964 
 3576000    294.91697    -952.1082   -9776.3225   -2971.1094    23147.919   -43222.749  0.049582052    1.5925096    4.4623928 
 3578000    301.85831   -952.19193   -7365.2568   -5371.5162    19332.922   -40020.582  0.049585241    1.5925546    4.4625771 
 3580000    292.74229   -952.50504   -6694.7921    -6939.026    22462.516    -35315.24  0.049595853    1.5925443    4.4626812 
 3582000    303.22884   -952.92493   -311.39511   -2328.0912    20947.416   -35988.846  0.049586912    1.5925323    4.4625535 
 3584000     289.1916   -952.46589   -3958.9998   -916.69404    21420.019   -41872.608  0.049593846    1.5924805    4.4624363 
 3586000    261.27244   -952.46038   -4533.4845   -1798.7284    23679.292   -35643.937  0.049589996    1.5924794    4.4626184 
 3588000    331.20658   -952.77877    -7144.445    -4929.715    21855.866   -34563.133  0.049596043    1.5924456     4.462582 
 3590000    320.99511   -952.56609   -4346.1124   -5395.1064    21142.307   -36804.967   0.04959987    1.5924681    4.4625465 
 3592000    291.19639   -952.44718    2948.7276   -6451.4098    12034.106   -35112.209  0.049596383    1.5924718    4.4625179 
 3594000    306.90151   -952.55765    84.185023   -3928.7479    23050.722   -28343.086  0.049593743    1.5924078    4.4626057 
 3596000    292.70068   -952.40137   -11106.289   -4811.2967    16172.945   -42213.211  0.049607086    1.5923865    4.4624398 
 3598000    284.18447   -952.79007   -4470.8935   -6779.4375    11687.237   -39281.003  0.049622888    1.5924356    4.4625628 
 3600000     298.1123   -952.99051   -2966.6777   -6128.5464    20592.714   -35332.621  0.049634427    1.5922533    4.4625214 
 3602000    234.39653   -953.03031   -6857.8834   -9391.5286    23724.829   -40044.428  0.049663358    1.5922917    4.4625891 
 3604000     299.0656   -952.88409   -6706.5463   -9138.0117    19557.675   -33173.193  0.049686071    1.5922427     4.462624 
 3606000    293.09654   -952.83958   -4059.6216   -12028.737    23519.682   -36226.622  0.049697839    1.5920615    4.4625294 
 3608000    244.67021   -952.58058   -9464.7767   -8400.9616    16598.859   -36108.299  0.049722898    1.5921609    4.4626152 
 3610000    259.95221   -952.55452    671.40949   -1400.0062    10622.633   -39607.888  0.049756879    1.5921141    4.4626827 
 3612000    291.63681   -952.56076   -2075.1338   -1918.3506    22805.445   -35183.115  0.049765077     1.591969    4.4626085 
 3614000    322.37164    -952.7152     -7139.71    -1722.447     21024.21   -39871.574  0.049788945    1.5920294    4.4625989 
 3616000    299.79118   -952.83901   -5317.6771   -10030.314    23162.941   -44784.602  0.049803914      1.59193    4.4625634 
 3618000    298.40989    -952.5581   -6702.6185   -7205.3243    24781.612   -33290.111   0.04981448    1.5918436    4.4626374 
 3620000    292.53281   -952.40912   -721.74349   -2440.2861    28743.184   -38831.391  0.049837498    1.5918737    4.4627154 
 3622000    300.17275   -952.50231   -4767.6867   -5440.4426    25982.491   -37356.177  0.049842869    1.5918061    4.4626213 
 3624000     258.0648    -952.2383   -3564.8315   -5613.5218    23797.489   -37429.029  0.049857127    1.5918469    4.4627087 
 3626000    317.89753   -952.65255    739.06876   -7321.1619    23683.858   -38080.409  0.049855729    1.5918242    4.4628004 
 3628000    309.84176   -952.48886     248.3928   -1248.3132    19260.741   -32502.051  0.049867435    1.5917981    4.4625748 
 3630000    320.99353   -953.17411   -4814.3652    1886.4477    24324.006   -37493.521  0.049879506    1.5918592    4.4627434 
 3632000    258.82721   -952.51242   -5005.8254   -5606.6242    16668.046   -32526.885  0.049873055    1.5918396    4.4627947 
 3634000    334.44784   -952.31709   -5026.1544   -4557.2838    24618.236   -35361.937  0.049877512    1.5917518    4.4626228 
 3636000    318.35651   -952.54093   -4014.2621   -3391.9975    18807.452    -37563.69  0.049879183    1.5917916    4.4626912 
 3638000    251.47995   -952.50567   -7920.8963    -8020.696     23565.67   -40057.033  0.049886434    1.5918327    4.4627365 
 3640000     259.2486   -952.34349   -10125.045   -8971.1047    20943.698   -41221.226  0.049891916    1.5917527    4.4627617 
 3642000    303.19757   -952.43898   -8473.2222   -6598.6725    21592.146   -30773.736  0.049888039    1.5917008    4.4626777 
 3644000    261.15785   -952.54998   -4121.8635   -3377.0952    24662.238    -41308.59  0.049894062    1.5918046     4.462668 
 3646000    302.50727   -952.71282   -4745.8256   -3884.2636    23095.457    -39202.65   0.04990743    1.5917802    4.4627256 
 3648000    259.29004   -952.93227   -4602.6101   -6824.0654     22995.87   -34312.299  0.049906043    1.5918063    4.4628269 
 3650000    299.78581   -952.97048    750.95207   -2159.5557    24637.309   -33246.601  0.049916485    1.5917013    4.4626977 
 3652000    308.11411   -952.52287   -12084.698   -7549.7363    25063.715   -39654.574  0.049922049    1.5916986    4.4628614 
 3654000    344.13406    -952.0841   -6236.7975   -7067.2272    29822.697   -38078.366  0.049929189    1.5917281     4.462894 
 3656000    278.14256    -952.9116   -2671.5858   -4787.7572    24234.999   -28973.601   0.04993447    1.5916805    4.4627936 
 3658000    251.85389   -952.54219   -1900.3694   -8797.5527    20539.753   -41026.769  0.049935944    1.5916596    4.4627945 
 3660000     274.6058    -952.5851   -4673.1104   -1307.9784    20944.021   -42013.344  0.049946177    1.5915763    4.4628965 
 3662000    282.20919   -952.51942   -7198.7535   -3803.3178    25119.001   -39462.441  0.049951516    1.5916488    4.4629276 
 3664000    297.61245    -952.7925   -7424.8007   -915.53342      21343.1   -34482.731  0.049985119    1.5915819    4.4627954 
 3666000    277.68493   -952.47667   -10063.463   -6418.3767    24113.131   -34454.385  0.049995814    1.5914578    4.4628936 
 3668000    311.87767   -952.27019   -2780.7831   -6454.3176    30162.646   -26465.282  0.050010757    1.5914508    4.4628941 
 3670000    338.63147   -952.74201   -12024.183   -6403.4548    25306.619   -33385.929  0.050032342    1.5914417     4.462795 
 3672000    338.94992   -952.54054   -7088.6298   -4807.2478    18322.492   -35715.575  0.050024883    1.5913947    4.4628015 
 3674000     257.9922   -952.26856   -9487.3387   -4048.5735    18616.377   -33976.835  0.050040378    1.5914356     4.462885 
 3676000    316.41127   -952.62677    -7113.222   -6921.0716    17274.719   -38318.221  0.050040518    1.5913879    4.4627138 
 3678000    268.99119   -952.65123    -6614.342   -2373.8571    20814.287   -30496.534  0.050051374    1.5913771    4.4627782 
 3680000    313.48696   -952.52327   -9414.5025   -8078.4293    26367.128   -33732.422  0.050074168     1.591332    4.4628518 
 3682000    293.75571    -952.6713   -10180.827    -4302.185     23712.48   -38173.756   0.05010132    1.5912265     4.462708 
 3684000    327.14907   -952.91022   -8203.0074   -3740.7762    19602.598   -42743.485  0.050116702    1.5912061    4.4627829 
 3686000    323.13245   -952.69897    1666.3678   -1655.1064    22135.736    -37659.25  0.050114729    1.5912087    4.4628391 
 3688000    327.84228   -952.70099   -1496.4521   -508.59166     18058.25   -38471.625  0.050118465     1.591129    4.4627235 
 3690000    279.89489   -952.66386   -3291.4655   -5803.8449    21577.129   -37250.768  0.050127168    1.5911503    4.4627701 
 3692000       293.09   -952.58097   -3145.3654   -9788.8753    21277.193   -39129.986   0.05014788    1.5910748    4.4626959 
 3694000    298.98067   -952.86991   -5486.7625   -4979.0396    24646.922   -33709.567  0.050162057    1.5909978    4.4628231 
 3696000    291.02377   -952.43625   -4980.6748    709.27133    28053.711   -39597.868  0.050187875    1.5909499    4.4626805 
 3698000    274.24441   -952.60767   -8741.9725   -6457.4502    24212.311   -31794.186  0.050196917    1.5909778    4.4627828 
 3700000      322.612   -952.76137   -8433.1961   -3958.1857    22394.881   -40630.236  0.050200068     1.590895    4.4627241 
 3702000     271.4872   -952.50075   -2389.6969   -1095.8479    18038.418   -37948.599  0.050200043    1.5909508    4.4627296 
 3704000    320.14538   -952.61229    721.94163   -1409.5289    21214.039   -39078.943   0.05020189    1.5908654    4.4627005 
 3706000    283.46125   -952.68233   -229.99657    -2348.381    21009.591   -45686.253  0.050199401    1.5908746     4.462764 
 3708000    305.10378   -952.64757   -6676.3583   -3268.9908    28063.683   -35717.421  0.050207944    1.5908092    4.4626328 
 3710000    319.54922   -952.67267   -2901.9023    -5114.254    17434.739   -39296.721  0.050207118     1.590857    4.4625941 
 3712000    304.58618   -952.65046    -4516.579   -1997.5116    26021.801    -38422.93  0.050214142    1.5908298    4.4625879 
 3714000    321.12978   -952.45503    -6439.314   -7714.4828    21418.115   -35400.769  0.050220948    1.5908254     4.462668 
 3716000    313.42838   -952.26267   -4610.0023   -11862.722    24427.553   -44213.689  0.050215735    1.5908015    4.4626803 
 3718000    272.09097   -952.71887   -9530.3775   -3385.4878    28848.759   -37112.478  0.050222794    1.5907457    4.4625099 
 3720000    331.77205   -953.05098   -1647.7419    -4113.544    18909.209   -37224.654  0.050223328    1.5907685    4.4626433 
 3722000    270.90481   -952.48654    -6569.929    -6747.309    27547.486   -41032.882  0.050231667    1.5907684    4.4626443 
 3724000    246.52158   -952.43345    2209.6156    222.19533    18515.182   -37740.737  0.050226715    1.5907075    4.4626089 
 3726000    280.69135   -952.92786   -7952.8217   -5219.4113    21019.919   -35620.284  0.050236776    1.5906917    4.4625818 
 3728000    273.40707   -952.70956   -10407.867   -2067.5496    25064.088   -39872.863  0.050238041    1.5907295    4.4627026 
 3730000    292.49613   -952.96275    -6614.397   -4016.9697    22677.939   -33834.076  0.050236628    1.5906757    4.4626028 
 3732000    262.96378   -952.77636    312.41845   -3143.2021    20181.409   -38549.796   0.05024726    1.5906839     4.462512 
 3734000    320.65762   -952.86953    1298.5105    -2109.875    21562.646   -44098.888  0.050244458     1.590655    4.4626237 
 3736000    333.54788   -952.40353   -7970.5577   -1086.6223    25368.989   -37337.632  0.050246562    1.5906102    4.4626944 
 3738000    326.74233   -953.04618   -3177.7996   -4931.7508    27808.215   -43072.298  0.050264498    1.5906116    4.4624892 
 3740000    245.84451   -952.54059   -5744.8642   -5457.6191    26652.814   -41541.913  0.050255404    1.5905567    4.4626639 
 3742000    316.50226   -952.69022    -6059.459   -5837.8308    22695.157   -42611.852  0.050266008     1.590592    4.4627718 
 3744000     272.4213   -952.72465   -4793.2166     1632.029    25284.176   -32021.159   0.05027224     1.590513    4.4626152 
 3746000    342.66989   -952.30955   -8510.6944   -4176.1676    26349.308   -42213.466  0.050275586     1.590506    4.4626765 
 3748000    249.08983    -952.4813    -6149.876   -12959.311    28383.594    -37387.08  0.050285095    1.5905232    4.4627627 
 3750000     291.1373   -952.50458   -6736.3649   -2239.6532    24863.302   -38783.748   0.05028641    1.5905129    4.4626646 
 3752000    273.05651    -952.5324   -7800.7552   -2980.7392    25083.871   -35944.561  0.050287874    1.5905238    4.4627028 
 3754000    275.18332   -952.81546   -7829.5619   -1835.4085    25266.738   -29322.271  0.050292961    1.5904369    4.4627161 
 3756000    258.89339     -952.705    1078.6115   -2166.8754    28419.675   -35826.826  0.050288531    1.5904634    4.4626946 
 3758000    289.77889   -952.61257   -4490.2135   -480.64097    20120.869   -28453.192  0.050295633    1.5905116    4.4626487 
 3760000    266.75534    -952.4144   -2233.7442   -2540.0015    27188.314    -35070.32  0.050290761    1.5903617    4.4625514 
 3762000    283.25163   -952.69587   -5363.7411   -3975.0407     27268.25   -35218.248  0.050296874    1.5904263    4.4626097 
 3764000    248.01379   -952.69958   -2137.8018   -1094.8964    24666.233   -42545.644  0.050309285     1.590447    4.4626747 
 3766000    294.31446   -952.93892   -7411.0494    -302.0286    23095.941   -35919.574  0.050316002    1.5904379    4.4626593 
 3768000    260.14327   -952.39107   -5509.1928   -1400.5938    23561.014   -42431.837  0.050316457    1.5903818    4.4625967 
 3770000    272.12427   -952.47648   -2055.6877   -5002.6868    18480.541   -39125.535  0.050318418    1.5904215    4.4627641 
 3772000    291.45453   -952.78254   -13850.504   -9286.0223     27770.19   -37113.133  0.050320994    1.5903971    4.4626492 
 3774000    334.81991   -952.27953   -5234.1086   -3573.3651    22478.229   -32524.863  0.050320598     1.590389    4.4626234 
 3776000    261.83942   -952.67505   -7005.0061   -1914.8706    24842.515   -32037.283  0.050323672    1.5903695    4.4626685 
 3778000    328.80019   -953.00742   -5122.0034   -7345.5246    15909.942   -35637.506  0.050332635    1.5903409    4.4626746 
 3780000    311.67869   -952.61413   -1735.0773   -5285.2316    31544.896   -41556.846  0.050337275    1.5903355    4.4625989 
 3782000     278.9705   -952.41205   -1011.4939   -4149.4101    17197.566   -35725.157  0.050346643    1.5904205    4.4625686 
 3784000    297.66557   -952.89042   -10587.125   -1653.1677    19882.317   -42499.144  0.050352855    1.5902888     4.462508 
 3786000    289.67795   -952.34918   -4571.9127   -6363.4974    21725.812   -41901.583  0.050353111    1.5903974    4.4625852 
 3788000    333.36924   -952.68043   -7493.5109    758.20496    14867.928    -33942.63   0.05036204    1.5904021    4.4625185 
 3790000    288.89029   -952.53735   -4934.1256   -4874.9909    22406.584   -40540.559  0.050364837    1.5902938    4.4624911 
 3792000    292.46666   -952.33294   -3525.1631   -271.31732    22836.966   -32886.018  0.050376729    1.5903856     4.462675 
 3794000    311.56417   -952.98308   -6250.4494   -3966.1689    18891.401   -31546.707  0.050375431    1.5903397    4.4626163 
 3796000    236.54191   -952.29828   -3596.5713   -8915.8705    20781.048    -37669.12  0.050383452    1.5902978    4.4624175 
 3798000    287.32914   -952.60788   -5663.6636    -4100.647     20156.81   -33624.691  0.050391909    1.5903244    4.4625671 
 3800000    340.55856   -952.80089   -10172.559   -6453.5697    20506.756   -36882.082  0.050406235    1.5903188    4.4625425 
 3802000    265.34654   -953.19443   -1729.1581   -2898.6876    16240.973   -36513.469  0.050425891    1.5902896    4.4624696 
 3804000    304.00811   -952.62325   -5334.1109      2949.67    28469.751   -33379.778  0.050436864     1.590252    4.4627634 
 3806000    311.75574   -952.66658   -8420.9919   -10267.267    15888.917     -38727.8  0.050463514    1.5901474     4.462677 
 3808000    315.52021   -953.08798    1330.9157   -6314.3389    20277.851    -40067.17  0.050482303    1.5901262     4.462682 
 3810000    268.59649   -952.60949    2178.2686    -13605.63    26084.336   -37349.743  0.050485686    1.5900931    4.4627284 
 3812000    330.02239   -952.42054   -5543.8882   -2396.6881    21975.407   -37217.988  0.050506016     1.590176     4.462799 
 3814000     268.5209   -952.64929   -5383.0017    145.77063    20719.035   -36957.508  0.050501846    1.5900709    4.4627827 
 3816000    315.08127   -952.57319   -8542.9767   -7650.4694    25197.942   -38496.541  0.050507986    1.5900563    4.4626279 
 3818000    308.86516   -952.75325    1686.7409   -4982.6744    20737.301   -33902.453  0.050511698    1.5900544    4.4627413 
 3820000    265.02955   -952.65136   -1369.1531   -3507.7135    22980.041   -32380.349  0.050513316    1.5900329    4.4627582 
 3822000    245.84339   -952.45671   -186.54003   -4407.1723    22644.327   -37963.717  0.050518763    1.5900551    4.4627939 
 3824000    301.07184   -952.44006   -5411.8894   -3763.2315    29042.586   -35045.511  0.050511851    1.5900094    4.4628161 
 3826000    318.99118   -953.01091   -8031.2409   -9521.5447    24791.921   -38104.977  0.050514904    1.5900002     4.462747 
 3828000    326.51341   -952.41426   -2795.0767   -8293.6103     18775.22   -42283.852  0.050520561    1.5900238    4.4627195 
 3830000    244.45747   -952.66458   -5853.6476   -1615.7125    19533.988    -33367.91  0.050523064    1.5899765    4.4626874 
 3832000    291.90923    -952.5108   -2366.5325   -4744.7468    23949.079   -34466.388  0.050521452    1.5900012    4.4627217 
 3834000    248.71435   -951.97061   -8556.8656     1487.202    17119.743   -39548.039  0.050527806    1.5900528    4.4627863 
 3836000    263.67778   -952.77957   -3746.3522   -2483.5222    22851.883   -36707.358  0.050527381    1.5899479    4.4626763 
 3838000    255.06629   -952.49378   -1217.5919   -1217.5831    24122.559    -38039.97   0.05052612    1.5899118    4.4626351 
 3840000    271.64767   -952.40418   -6386.7842    -6583.011    24678.511   -38050.491  0.050529025    1.5900133     4.462719 
 3842000    312.90125   -952.33711   -1501.6985    -3010.513    21482.404   -35106.105  0.050537245    1.5899606    4.4627336 
 3844000    292.60538   -952.92125   -840.66837    2164.9133    31638.622   -35056.438  0.050530584    1.5898625    4.4626492 
 3846000     341.5539   -952.30008   -4772.1257   -1654.0644    24560.031   -38688.041  0.050533897    1.5899569    4.4625625 
 3848000    315.39529   -952.45834   -7875.5058     2517.409    18249.052   -45297.971   0.05054071    1.5899345    4.4625121 
 3850000    319.53756   -952.06503   -4460.8587    -8261.873    28553.231   -32247.667  0.050533586     1.589925    4.4627446 
 3852000    295.46968   -952.35563   -1295.8443   -1920.9305    22796.616   -33930.228  0.050547627    1.5899715    4.4626178 
 3854000    292.66849   -952.07852   -5437.7482   -2854.1029    22384.171   -48794.126  0.050543836    1.5898607    4.4624163 
 3856000    239.46775   -952.60408   -8243.1066    -5494.313    24254.905   -41990.614  0.050548843    1.5899089    4.4627029 
 3858000    365.74898   -951.96634    6578.5522   -4930.9253    18283.397   -36991.003  0.050556844    1.5899693    4.4627706 
 3860000    263.99736   -952.39328   -5073.5155     1327.003     28315.81   -31412.532  0.050546631    1.5898369    4.4623577 
 3862000    328.26545   -952.30151   -3903.1984   -2757.4825    20270.098   -38114.092  0.050553153    1.5899262    4.4625536 
 3864000    318.53653    -952.5654     4252.085   -8549.7096    23307.838   -36082.648  0.050549788    1.5899001    4.4627387 
 3866000    263.38455   -952.69091   -1265.8519    -11378.39    20542.941   -34544.107  0.050548025    1.5897966    4.4624578 
 3868000    286.19117   -952.46429   -7467.6107    -5084.892    24591.105   -37938.326  0.050554285    1.5898261    4.4624339 
 3870000    309.27544   -952.77104   -8233.8961    -8727.695    16534.901   -35223.522  0.050551962    1.5898581    4.4626139 
 3872000    272.59103   -952.31677   -2619.3358    -9000.607    19221.225   -46969.018  0.050559999    1.5898547    4.4626236 
 3874000    260.81453   -952.60094    3634.4661    310.60509    17967.833   -35815.222   0.05055652    1.5898501    4.4624574 
 3876000    314.59825   -952.42567   -7402.5753   -3236.2569    22150.865   -36782.322  0.050559274     1.589759    4.4624645 
 3878000    263.72729   -952.41167    1958.6135   -6132.6164    21432.791   -33184.337   0.05056512    1.5898201    4.4626306 
 3880000    329.95502   -952.75068   -10109.002   -1691.9385     19256.79   -36465.234  0.050570321    1.5898507    4.4624807 
 3882000    231.58521    -952.1611   -1364.6056   -1773.8124    20250.223   -30087.377  0.050567726    1.5898196    4.4624587 
 3884000    316.76136   -952.09013   -3763.5987   -7019.9615    29527.759   -41097.547  0.050572168    1.5897143    4.4624984 
 3886000    260.95081   -952.65071   -9832.9508   -4019.3104    27800.174   -37906.032  0.050574066    1.5897689     4.462582 
 3888000    286.23146    -952.4188   -4169.9519   -2661.2141    13574.186   -36582.503  0.050590905    1.5897664    4.4625292 
 3890000    321.18833   -952.69937   -686.94906   -3877.3495    22720.814   -34422.737  0.050591055    1.5896399    4.4626909 
 3892000    279.84214   -952.38349   -2518.7517   -6400.9802    24243.669   -31824.344  0.050621951    1.5896365    4.4626075 
 3894000    326.16004   -952.53628   -4232.4682   -6104.8067      18126.2    -34874.24  0.050657195    1.5896484    4.4625654 
 3896000    289.30029   -952.23475   -18028.041   -8580.1859    24580.017   -36565.097  0.050652276    1.5894734    4.4627584 
 3898000    252.66654   -952.80686    -5679.806   -7123.7342    23250.145   -39839.052  0.050673397    1.5896061    4.4627059 
 3900000    313.08556   -952.88167   -8033.1502   -535.31404      21491.8   -41860.887  0.050677803    1.5896084    4.4627337 
 3902000    269.09146   -952.03837   -5458.6289   -5403.4192    25572.959     -45016.7  0.050675233    1.5895051    4.4627896 
 3904000    304.93387   -952.74146    361.29801   -1008.2445    26148.247   -41417.587  0.050682516    1.5895684    4.4627851 
 3906000    291.10102   -952.61222   -3330.3711   -7068.1399    18700.325   -36913.913  0.050683378    1.5895206    4.4626757 
 3908000    312.87446   -952.21314   -5018.5947   -1369.1742    25927.765   -41780.885  0.050679972     1.589482      4.46261 
 3910000    285.92044   -952.78401   -3406.6309   -1952.1828    21121.001   -33495.826  0.050690291    1.5895452    4.4626888 
 3912000    283.01329    -952.2787   -6612.3061   -4926.6166    26132.561   -33604.403   0.05069242    1.5894416    4.4625251 
 3914000    305.21455   -953.32666   -5014.4971   -1929.7804    26673.844   -38025.229  0.050686843    1.5894403    4.4626606 
 3916000    295.69223    -952.8342   -5028.8839   -9398.2739     19707.36   -36874.927  0.050704565    1.5894397    4.4626875 
 3918000    319.16441    -952.4048   -715.61238   -4035.1806    19707.996   -43425.501  0.050724538    1.5893975    4.4626109 
 3920000     284.3317   -951.93185   -4447.2434   -4267.7838    21223.169   -39640.471  0.050742992    1.5893224    4.4627592 
 3922000    331.87985   -952.29265    -6071.375   -9474.0913    18432.258    -39860.03  0.050756872    1.5893061    4.4627773 
 3924000    289.45817   -952.94045   -3396.9392   -6134.9625    27571.486   -35023.511  0.050781364     1.589278    4.4626752 
 3926000    229.74754   -952.94778   -4719.2922   -4349.8448    21610.645   -37401.979  0.050775715    1.5892832    4.4627707 
 3928000    342.11451   -952.44739   -8339.9758   -7101.3524    13770.326   -38011.788  0.050782866    1.5893789    4.4628329 
 3930000    304.55243   -952.50099   -3125.0931    -3818.378    17515.046   -39716.623  0.050792275     1.589285    4.4627635 
 3932000    285.90777     -952.432   -4769.3535   -4248.0196    24581.402   -37123.326  0.050782514     1.589278     4.462822 
 3934000    320.98886   -952.40847    -2776.172   -6854.2297    21104.793   -37506.791  0.050797351    1.5893406    4.4628164 
 3936000    254.40872   -952.50916    2239.6788     3135.815    16318.181   -40254.102  0.050798337    1.5892586    4.4628155 
 3938000    270.44126   -953.06037   -3388.0082   -10753.062     14196.83    -31061.09  0.050788205    1.5892802    4.4628142 
 3940000     319.6807   -952.45654   -12061.122   -648.54374    25511.936   -36659.791  0.050816845    1.5893449    4.4626572 
 3942000    291.50173   -953.01907   -2885.3021   -1659.1568    23149.014   -39176.969   0.05081311     1.589313    4.4628122 
 3944000    269.48834   -952.63652   -3706.3911   -4387.7674    23309.771   -36873.923   0.05081404    1.5892995    4.4628377 
 3946000    333.76726   -952.99342   -6674.1467   -2878.4605    22858.099   -38828.405  0.050820724    1.5892862    4.4626147 
 3948000    292.35854   -952.41505   -189.02857    -5526.954    32679.792   -35820.923  0.050820605    1.5893059    4.4627789 
 3950000     295.2802   -952.42841   -2894.8693     -5286.62    23812.743   -35956.568  0.050830599    1.5893183    4.4629581 
 3952000     293.9964   -952.76603   -731.94593    587.91757     24944.18   -38468.153  0.050828208    1.5892151    4.4627001 
 3954000    305.23938   -952.82871   -9529.0525    -2425.674    21761.354   -38508.138  0.050839996    1.5892924    4.4626274 
 3956000    299.93192   -952.47841    -6848.711   -4426.4366    18725.836   -42120.241  0.050840022    1.5893148    4.4628008 
 3958000    248.52205   -952.63549   -3029.9539   -978.68974    28022.951   -30550.477  0.050844954    1.5892914    4.4629967 
 3960000    266.60691   -952.94896   -1720.6327    1940.9112    26653.362   -40530.553  0.050851745    1.5892508    4.4627527 
 3962000    282.63995    -952.4468   -5163.7528   -1597.3494     24471.14   -39300.581  0.050846483    1.5891874    4.4627714 
 3964000    240.59192   -952.48135   -2344.4173   -2571.7231    25732.186    -30204.01  0.050850185    1.5892577    4.4629284 
 3966000    294.79489   -952.40442   -7723.9537   -1599.1761    20424.494   -33804.281  0.050853544     1.589251    4.4628479 
 3968000    276.24569   -952.72919   -2952.1877   -1003.1156    22217.506   -39415.413  0.050852003    1.5891748    4.4627928 
 3970000    297.82349   -952.61372   -7079.1747    1701.8869    22894.479   -36943.761  0.050866839    1.5892205    4.4627251 
 3972000    314.57093   -952.97306   -69.718669   -1704.1424    30182.586   -39035.505  0.050863001    1.5892015    4.4628944 
 3974000    337.15049   -952.47452   -7851.2502   -8235.5868    24875.205    -41914.87  0.050862592    1.5891733    4.4629007 
 3976000    255.35011   -953.15419   -9757.8929   -8039.8377    21712.767   -38835.778  0.050871409    1.5891994    4.4627351 
 3978000    329.67093   -952.62202   -3799.4651   -3548.8211    25155.862     -36423.4  0.050869192    1.5891557    4.4629176 
 3980000    256.61802   -952.61807    1703.8046   -2732.5005     21616.46    -33478.66  0.050876252    1.5891553    4.4629242 
 3982000    298.32135   -952.79071    2893.3874   -491.91021     26395.07    -43479.31  0.050874571    1.5891258    4.4627905 
 3984000    326.17624   -952.75264   -7662.3431   -5702.3442    16790.673   -39437.248  0.050875557    1.5891283     4.462843 
 3986000    270.72787   -952.38614   -7653.7387   -4592.6593    26919.543   -40109.646  0.050877464    1.5891527    4.4628445 
 3988000    260.00622    -952.4317   -3686.3547   -2793.8266    23482.344   -32266.447  0.050880081     1.589211     4.462956 
 3990000     316.9742   -952.51112   -2208.1148   -4553.1677     16168.44    -37052.49   0.05088018    1.5891245    4.4628537 
 3992000    296.46452   -952.62202   -6304.3501   -6456.1776    25707.446   -36980.713  0.050886515    1.5890658     4.462865 
 3994000    245.18572   -952.77099   -6476.6139     -6606.91    22565.763   -36613.425  0.050892995    1.5892069    4.4630714 
 3996000    304.56621   -952.64808   -6172.5832   -3679.6504    21018.551   -32470.139  0.050893065    1.5891262    4.4628957 
 3998000    342.75979   -952.54426    3995.3279   -2112.8056    23569.248   -40793.479  0.050900941    1.5890468    4.4628437 
 4000000    304.45592   -952.68195   -6399.2707   -6754.4126        19555   -30158.801  0.050911581    1.5891238    4.4629902 
 4002000    325.15921   -952.15364    -12949.37   -3542.6811    23052.938   -36961.397  0.050909642     1.589084    4.4629123 
 4004000    280.94825   -952.48163   -4365.8692   -4505.8104    19483.018   -46114.612  0.050925681     1.589116    4.4628962 
 4006000    284.77079   -952.71857    -3420.083   -5990.0411    17879.191   -34224.814  0.050920459    1.5890881    4.4630387 
 4008000    279.09669   -952.60162     3173.388    -6072.763    24996.485   -35643.466  0.050922543    1.5889765    4.4629203 
 4010000    320.09078    -952.5058   -5578.6181   -6500.5665    24546.805   -38993.813  0.050936507    1.5891064    4.4629301 
 4012000    288.72092   -952.54382   -9727.1872   -2130.0331    21751.537   -27378.095  0.050932162    1.5890738    4.4629461 
 4014000     289.5293   -952.78965   -1347.5889   -1269.3022     20693.81   -42747.374  0.050940411    1.5889917    4.4629528 
 4016000    302.15023    -952.5478   -1036.2391   -1824.1255    17792.636   -35694.498  0.050946991    1.5890722    4.4629319 
 4018000    269.07514   -951.99981    4269.0779   -283.77985    16875.638   -35224.046  0.050952449     1.589007    4.4628346 
 4020000     298.4231   -952.05751   -4891.2948   -7024.9744    23796.331    -39310.74  0.050952523    1.5889237    4.4629923 
 4022000    342.94284   -952.47101    -3771.211   -4140.3818    19757.022   -36909.684  0.050961828    1.5889736    4.4629844 
 4024000    272.38498   -952.81527    -5229.342   -4595.8129    21488.662   -35999.337  0.050957773    1.5889342    4.4629135 
 4026000     327.2352   -952.81932   -277.54734   -4514.9057    20130.304   -41264.954  0.050964133    1.5889121    4.4630567 
 4028000    260.11844   -952.43153   -4357.2255   -4693.2458    21865.702   -41120.204  0.050973587     1.588958    4.4630519 
 4030000    315.56515   -952.25603   -6834.2349   -9993.3929    20454.753   -32632.842  0.050971981    1.5888728    4.4630169 
 4032000    275.52533   -952.40246   -7221.4341   -3433.1409    26147.029   -38801.361  0.050967566    1.5888494    4.4629715 
 4034000    304.47742   -953.18419    148.76722   -786.20255    17744.016   -33226.162  0.050984031    1.5889639    4.4630232 
 4036000    299.82169   -952.71754   -5135.7187   -8108.5264    18898.356   -37600.579  0.050976163    1.5888748    4.4630272 
 4038000    329.77732   -952.23395   -6163.0973   -3751.2678    24453.684   -42558.718  0.050977237    1.5888525    4.4629554 
 4040000    315.44251   -952.47382   -10013.463   -5350.8944    21505.378   -37651.921  0.050982224    1.5888721    4.4629803 
 4042000    298.91609   -952.89697   -1723.7909     1128.903      18268.9   -36976.528  0.050984057    1.5888501     4.463041 
 4044000    261.91258   -953.27411   -4029.4855   -4671.1933    23863.283   -36204.506   0.05099118    1.5888627    4.4631502 
 4046000     295.8476   -952.10803   -8808.5745   -11414.182    14473.122   -32779.706  0.050982493     1.588836    4.4630532 
 4048000     282.6014   -952.53756   -3667.7143   -4652.5297    16925.978   -37777.239  0.050991208    1.5887921    4.4628973 
 4050000    288.20734   -952.65609   -5764.3898   -578.08428     20818.08   -34353.995  0.050995695    1.5888489    4.4631136 
 4052000     297.5598   -952.38477   -7193.6726   -2375.8984    24403.418   -26065.948  0.050990316     1.588824    4.4630889 
 4054000    277.58773   -953.20366   -4447.8208   -7703.3332    20334.529    -37274.31  0.050985805    1.5887467    4.4629265 
 4056000    284.42433   -952.52933   -16736.423   -9094.5855    21917.564   -36596.687  0.050987391    1.5887988    4.4631745 
 4058000    285.67458   -953.10099    3372.3646   -3710.6158    18290.152   -36456.243  0.050993211     1.588736    4.4632728 
 4060000     318.1114   -952.92107   -7297.9761    -2812.306    22240.378   -36200.521  0.050987714    1.5886994    4.4631344 
 4062000     299.9047   -952.41252   -2271.0252   -4574.8439    23543.746   -39796.688  0.050990385    1.5887435    4.4630351 
 4064000    282.29524   -952.54183   -5844.7725    -7263.114    26875.027   -35576.918  0.050999937    1.5887241    4.4631796 
 4066000    284.43241   -952.57741   -4173.2701   -2929.8089    19341.153   -35568.106  0.050995497    1.5887372    4.4631896 
 4068000    303.26787   -952.32351   -817.94089   -4367.5379    26760.867    -38948.06  0.050997123    1.5886702    4.4630395 
 4070000    347.48662   -952.47731     1521.553     -2027.53    21559.791   -38839.928  0.050995587    1.5887166    4.4631184 
 4072000    357.58811   -952.57249   -1558.9612   -4801.9714    26242.509   -45365.063  0.050997487    1.5886953     4.463126 
 4074000    278.55534   -952.66317   -829.25306   -2945.2107    21708.854   -35486.884  0.050999251     1.588678    4.4631173 
 4076000    369.79229   -952.53052   -8240.3565    -3682.534    21300.681   -38269.675   0.05100646    1.5886959    4.4630201 
 4078000    299.71018   -952.12538    -3351.011    171.38329    30549.273   -40293.825  0.051006906    1.5886932    4.4631437 
 4080000    314.49985   -952.84643   -6219.0747   -2366.7021    18843.849   -27419.796  0.051012806    1.5886943    4.4631526 
 4082000    354.56836   -952.67954   -5091.0267   -7621.5669    26426.335   -40176.399  0.051016345    1.5887056    4.4630389 
 4084000    327.99005   -952.56188   -6623.9923   -2990.3785    21516.792   -41786.056  0.051021529    1.5886564    4.4631503 
 4086000     304.4138   -952.82932    -9399.401   -16110.391    24595.643   -38261.905   0.05102134    1.5886199    4.4632171 
 4088000    268.03552   -952.76817   -1855.6905   -6797.4718    17829.266   -41062.455  0.051033886    1.5886695    4.4631088 
 4090000    263.58753   -952.64677   -11279.048   -2940.5041    22519.208   -33329.236  0.051030903    1.5886248     4.463122 
 4092000    252.32762   -952.73008   -3184.0048   -7102.5361    23446.063   -33642.573  0.051031592    1.5886167    4.4630938 
 4094000    270.61209   -952.95179   -6221.7785   -8502.1529    23707.136   -38006.176  0.051040879    1.5886166    4.4631531 
 4096000     253.8374     -952.757   -8179.9764   -1823.8392    21327.217   -34921.625  0.051035957    1.5885265    4.4630461 
 4098000     312.3296   -952.16628    1897.2613   -7201.4965    19078.659   -41754.696  0.051043235    1.5885498     4.463038 
 4100000    249.59755   -952.47453   -11262.874   -6228.0629    15008.178   -39541.331   0.05104454     1.588581    4.4632348 
 4102000    304.89689   -952.64809   -3899.1749    59.233541    14665.145   -36104.877  0.051039953    1.5885681    4.4631348 
 4104000    285.44989   -952.63814    -8329.451   -6648.3437    20285.018   -38469.614  0.051041264    1.5884613    4.4629653 
 4106000    286.16306   -952.66524   -6887.8818   -2522.5706    15400.092   -33987.808  0.051053795    1.5885379    4.4631377 
 4108000    305.12135   -952.74611    689.34596   -4180.2074     20635.91    -33176.46  0.051055313    1.5884722     4.463132 
 4110000    269.65316   -952.52747   -6464.1604   -8738.6844    26106.236   -43363.048  0.051048516     1.588501    4.4629967 
 4112000    333.63759   -953.04334   -7890.7625   -6139.3809    23273.938   -40520.975   0.05106828    1.5885277    4.4627946 
 4114000    268.61257   -952.19045   -5834.4289   -4029.9041    22772.392    -37709.87  0.051064535    1.5884587    4.4629834 
 4116000     277.9424   -952.62564   -1016.6242   -3417.6923    18049.574   -33079.635  0.051066209     1.588501    4.4630951 
 4118000    330.31426   -952.39149   -1763.2433    937.10607    18734.519   -34073.764  0.051077343    1.5884895    4.4628581 
 4120000    295.53057   -952.23639   -5871.1605   -5731.4048    22848.833   -39370.027  0.051065696     1.588424    4.4629466 
 4122000    289.58925    -952.3483   -4821.9751   -8522.4096    22755.456   -36502.496  0.051077502    1.5885002    4.4631348 
 4124000    278.99812   -953.11955   -4071.1454   -2960.7806    24421.349   -38145.288  0.051077906    1.5884361    4.4629574 
 4126000     305.6669   -952.20074   -6082.1239   -5442.4601    20051.863   -34296.547  0.051077991    1.5884528    4.4629117 
 4128000    342.82277   -952.38537   -6393.5708    -1771.317    27840.593   -35097.869  0.051088601    1.5884579    4.4630215 
 4130000     297.5082   -952.69189    4115.0851   -2606.5214    25042.788   -37864.826  0.051086232    1.5884216    4.4629961 
 4132000    297.46132   -952.69823   -6290.9175   -7962.0903    28659.069    -37678.41  0.051099922    1.5884451    4.4629836 
 4134000    300.00189   -953.07642   -3088.2364   -3576.3631    21131.261   -37593.562  0.051100982    1.5883749    4.4629692 
 4136000    279.48148   -952.84449   -4488.8931   -8449.8256    26009.513   -37769.583  0.051094695    1.5883806    4.4630596 
 4138000    300.21976   -952.20073   -9914.4329    806.49023    19820.303   -36961.979  0.051108091    1.5884327    4.4631398 
 4140000    279.09615   -951.84606    1376.3742   -2964.3466    12254.499   -42891.698  0.051098657    1.5883772    4.4630467 
 4142000    293.34117   -952.97731   -1358.2361   -4272.0993    24400.214   -38247.024  0.051106102    1.5883127    4.4630988 
 4144000    239.75605   -952.64097   -12074.047   -6688.4582    21307.777   -35867.129  0.051108803    1.5883233    4.4631565 
 4146000    316.87791   -952.81435   -8039.5054   -666.24363    28210.184   -36561.572  0.051110119     1.588345    4.4631249 
 4148000    304.91972   -952.45926   -8755.1163   -2362.2671    25863.221   -30548.431  0.051113136    1.5883304    4.4632014 
 4150000    279.69594    -952.8663   -6518.1996   -4667.8252    23200.583    -45746.54  0.051116397    1.5882524    4.4630479 
 4152000    309.56402   -952.80148   -6760.0909   -6274.0044     20292.65   -35754.468  0.051121461     1.588253    4.4631829 
 4154000    323.07213   -952.41879   -1657.0988   -162.56765     23198.92   -30771.543  0.051126831    1.5882494    4.4632073 
 4156000    347.12037    -952.5163    -1842.828   -3840.3095    24232.131   -31447.779  0.051129585    1.5882487    4.4630743 
 4158000    318.54055   -952.98182    -11077.88   -8282.0219    25558.671   -37028.388   0.05112998    1.5882264     4.463069 
 4160000    281.74115    -953.2349   -7178.7938   -8178.3177    24170.272    -40710.38    0.0511314    1.5882832    4.4631499 
 4162000    311.88774   -952.89524   -5703.4472   -1377.7894    22186.197   -35444.914  0.051133086    1.5881927    4.4632683 
 4164000    321.50555   -952.44178   -13621.997   -5023.3705    27916.362   -42660.274  0.051127378    1.5881299    4.4631486 
 4166000    308.58735   -952.57902   -8109.0212   -4215.6952    25268.604   -38716.026  0.051134623    1.5881802     4.463144 
 4168000       325.61   -952.92501   -5688.1256   -2553.6105     21410.31   -32417.788  0.051143153    1.5881453    4.4633892 
 4170000    326.29684   -952.14193   -2624.1429   -2631.9896    27568.171   -40314.516  0.051146517    1.5881173    4.4632703 
 4172000    256.70102   -952.45575   -2744.1393   -791.61481    22575.873   -40142.786  0.051156022    1.5881205    4.4632371 
 4174000    281.80172   -952.06744   -3714.1578    -3953.108    23991.528   -36604.983  0.051155656    1.5880884    4.4632189 
 4176000    286.99351   -952.37987   -1825.2163   -4184.6219    25178.323   -36699.484   0.05116255    1.5881522    4.4633943 
 4178000    292.76723   -952.79172   -4328.9424   -2504.7645    18495.843   -39918.017   0.05116376    1.5881281    4.4634134 
 4180000    353.15712   -952.75763   -10620.788   -334.24878    21105.917   -30891.366  0.051161048    1.5881077    4.4632207 
 4182000    254.39712   -952.81426    1345.7195   -1086.5907    26716.007   -42381.791  0.051166896    1.5880311    4.4633608 
 4184000    249.31464   -952.26117   -4592.9348    1934.2939    22167.363   -37268.041  0.051162044    1.5880466    4.4634566 
 4186000    260.82702   -952.40455   -4696.7849   -5100.9577    24761.053   -38481.812  0.051169824     1.588054      4.46322 
 4188000    288.98329   -952.15739    4308.4237    647.68234    21951.444   -38478.272  0.051165841    1.5880512    4.4632289 
 4190000    301.97585   -952.78987   -9524.3791   -3608.5927     21102.37   -33895.775  0.051162532    1.5879889    4.4633338 
 4192000    315.71464   -952.62994   -6027.2372   -1424.7755     20321.68   -38969.494  0.051163405    1.5879457    4.4632585 
 4194000    292.01917   -952.66129   -14965.409    -8121.288    26759.537   -36644.648  0.051163082    1.5879929    4.4632072 
 4196000    311.25824   -952.98536   -8147.9354   -7479.0432    24936.642   -30132.281  0.051169714    1.5879393    4.4633075 
 4198000    294.01567   -952.45687    2649.6617   -7705.8835    19655.336   -36318.281  0.051163883    1.5879178    4.4634255 
 4200000    297.91271    -952.0804     -7443.31    -1948.676    21999.124   -38742.814   0.05116416    1.5879105    4.4632635 
 4202000    280.77242   -952.34682   -5890.9105   -9107.3061     24167.76   -36943.973  0.051172708    1.5879272    4.4633039 
 4204000     292.0602   -953.26971   -7057.4666   -4987.5687    19435.091   -35983.926  0.051166152    1.5879473    4.4634183 
 4206000    283.89847   -952.14969   -4575.9117    2041.3652    25892.581   -39578.353  0.051172649      1.58792    4.4633981 
 4208000    377.20914    -952.7609   -2923.6864   -2570.7993    22196.818   -36231.771  0.051168528    1.5878948    4.4632892 
 4210000    253.93037   -952.32333    2199.5282   -1787.7153    25186.467   -45622.971   0.05117446    1.5879379    4.4634009 
 4212000    290.95561   -952.58985   -633.41586   -8506.9908    20862.175   -41527.704  0.051175627    1.5879245    4.4634736 
 4214000    307.61555   -952.59949   -1891.9839   -7217.4895    30181.369   -39845.846   0.05116994    1.5878523    4.4633149 
 4216000    318.71152   -952.45055   -1127.4816   -3077.2614    19053.244   -33531.459  0.051180552    1.5879052    4.4633475 
 4218000    269.11248   -952.71619   -4870.9343   -7267.3595    24748.692   -40109.396  0.051177339    1.5878532    4.4632918 
 4220000    277.59866   -952.43314   -5260.1448   -3873.9179    19087.081   -37167.686  0.051185834    1.5878906     4.463286 
 4222000    279.81123   -952.78969    -9805.639   -3758.2986    15194.718   -40004.538   0.05118804     1.587901    4.4633191 
 4224000    321.32891   -952.82216    -2700.602   -8901.3072    28507.447    -37807.01  0.051185696    1.5878087    4.4632163 
 4226000    344.70557    -952.5665   -3951.6826   -3811.6326    25048.855     -41741.5  0.051199518    1.5878511    4.4633116 
 4228000    276.87271   -952.98593   -5047.5491   -1891.3148    19952.961   -43105.921  0.051198336    1.5878775    4.4634035 
 4230000    285.47304   -952.79741   -7571.0846   -5751.8066    26100.248   -32758.451  0.051198177    1.5877701    4.4632657 
 4232000    313.26421   -952.99476   -8242.9927   -8047.6214    23780.073   -31677.032  0.051201357     1.587831    4.4633267 
 4234000     320.1922   -952.70139   -7280.2884   -4471.5861    31120.838    -41952.81  0.051201465    1.5878391    4.4633706 
 4236000    311.03111   -952.89709   -8505.9905   -298.01064    20358.557   -27305.733  0.051205394    1.5877584    4.4633461 
 4238000    355.64735   -952.66626   -2364.8459   -4862.8577    27561.855    -38469.72  0.051209232    1.5877427    4.4633626 
 4240000    303.24867   -952.18948   -9489.7537   -499.31052    20478.935   -35015.843  0.051207232     1.587751    4.4634458 
 4242000    257.64001   -953.10312   -2708.8109   -2574.1392    20791.605   -34928.902  0.051211974    1.5877314    4.4634675 
 4244000      295.914   -952.58742   -7410.9611   -1069.0788    21530.095   -33891.956   0.05121476     1.587754    4.4635025 
 4246000    282.34201    -953.1225   -10771.293   -6211.6479    20345.849   -30673.248  0.051219725    1.5877059    4.4634696 
 4248000    335.78263   -953.03155   -10146.397   -7511.7877    26660.832   -37063.475  0.051210688     1.587669    4.4634457 
 4250000    262.00525   -952.40018   -2304.5065   -4363.2177    24390.546   -44761.941  0.051214157    1.5877269    4.4634134 
 4252000    315.88987   -952.37784    1893.5831   -4947.8745    15433.948   -38637.386   0.05121602    1.5877013    4.4634065 
 4254000    295.98625   -952.30466   -9691.5972   -8046.0249    23263.992   -32967.146  0.051217092    1.5876322    4.4634434 
 4256000    241.08791    -952.6848    -2404.744    -5469.765    22393.619   -31345.646  0.051216639    1.5876644    4.4634303 
 4258000     315.2339   -952.38463   -6715.9279   -1958.0195     22877.13   -37892.115   0.05121581    1.5876653    4.4634135 
 4260000    315.95031   -952.74839   -6259.9057   -5200.4753    23877.576   -41289.424  0.051216629    1.5876449    4.4635017 
 4262000    314.69545   -952.14199    1449.6557   -7877.4108    21104.657   -32869.653  0.051215725    1.5876476    4.4634759 
 4264000    294.97619   -952.91006   -6766.7027   -4764.9695    20020.189   -40271.176  0.051219821    1.5875525    4.4632905 
 4266000    261.99719   -952.68536   -6723.9935   -8123.0855     24994.66   -42407.982  0.051222741    1.5876033    4.4633966 
 4268000    298.87771   -952.29711   -7843.9074   -3044.2061    18384.542    -38060.98  0.051221366    1.5875889    4.4634586 
 4270000    296.02397   -952.75915   -8603.3722   -6836.5135    20491.567   -36231.417   0.05121995    1.5875531     4.463431 
 4272000    329.77202    -952.9941   -1400.8205   -5908.4894    14483.652   -42704.785  0.051226531     1.587537    4.4633462 
 4274000    320.50859   -952.46283   -2314.0245    -3198.071    26654.359   -44238.098  0.051232792    1.5875182    4.4635502 
 4276000    354.77274   -952.25532   -3048.3369   -7784.5162    24316.427   -33088.132   0.05124116    1.5875287    4.4636098 
 4278000    288.96216   -952.62201   -10937.885   -4584.4863    19666.394   -39946.586  0.051256037    1.5876381    4.4634638 
 4280000    267.11968   -952.38882   -5026.2168   -3487.0281    20583.107   -43179.528  0.051250734    1.5875722    4.4635007 
 4282000    304.10176   -952.41075   -6370.6185   -6472.7508    24997.099   -28764.561  0.051259451    1.5875387    4.4636185 
 4284000    281.73224   -952.87802   -170.75862   -1999.5651    26078.905     -30660.5  0.051266754    1.5875285    4.4636414 
 4286000    239.31252   -952.76699   -2177.9325    99.508764    19394.925   -39226.419  0.051266994    1.5875283    4.4634902 
 4288000    313.74832   -952.92568    -1608.724   -1364.5665    22818.694   -37383.625   0.05127189    1.5875124    4.4635884 
 4290000    253.89928    -952.5209    -4765.614   -11118.358    21294.591   -36774.971  0.051269866    1.5875068    4.4638108 
 4292000    325.73942   -953.03266    1979.7283   -8052.4222    15961.828   -37095.033  0.051280524     1.587445    4.4635178 
 4294000    262.14858   -952.64355   -5114.3445   -449.85402    20625.493   -47069.074  0.051283845    1.5874502    4.4634946 
 4296000    325.76689   -952.84224   -6277.2894   -11300.927    23393.959   -39481.864   0.05128168    1.5874644    4.4637172 
 4298000     273.6559   -952.81652   -6057.0261   -4578.7172    18919.083    -40408.07  0.051281767    1.5874389    4.4636162 
 4300000    288.00721   -952.03672   -3220.5055   -1278.4573    26557.816   -43505.629   0.05128298    1.5874196    4.4635341 
 4302000    298.11664   -952.70631   -792.85279   -7091.6564    15936.703   -36876.684  0.051291218    1.5874387     4.463646 
 4304000    265.95476   -952.66712   -5569.7217    -9635.843    20899.949   -40388.142  0.051285509    1.5873404    4.4636518 
 4306000    308.47232   -952.71895   -1256.9189   -5610.3485    19966.833   -38755.711  0.051291678    1.5873961    4.4636456 
 4308000    230.32429   -952.45946   -9583.6869   -5419.0371    19754.917    -38673.27  0.051295358    1.5873585    4.4635868 
 4310000    292.50448    -952.4931   -5987.2485   -380.71145    24265.072   -39912.569  0.051294855    1.5873527     4.463693 
 4312000    303.34451   -952.54004   -8566.5446    786.38566    19205.689   -34278.146  0.051304047    1.5873417    4.4636008 
 4314000    287.09595   -952.00781   -4365.9035   -4436.2726    22870.578   -38657.097   0.05130382     1.587339    4.4634824 
 4316000     324.1758    -952.7549   -1589.4787   -3850.4696    21541.424   -35931.864  0.051298826    1.5873726    4.4636904 
 4318000    288.23953   -952.78875   -6274.6939   -5322.1993    20615.983   -33827.222  0.051307866    1.5873445    4.4637143 
 4320000    287.43994   -952.54703   -1906.2501   -8254.7548     21198.12   -39414.886  0.051298884    1.5872537     4.463558 
 4322000    311.10094   -952.61744   -12098.932   -6562.4143    27365.375   -35550.201  0.051292384    1.5872511    4.4635707 
 4324000    253.01312   -952.79273   -4982.0479   -2976.2867    23593.424   -35424.348  0.051305796    1.5872722    4.4636319 
 4326000    338.00592   -952.95829   -3955.8031   -2424.1689     22418.98   -34211.444  0.051302632    1.5873053     4.463661 
 4328000    255.70048   -952.68428   -1490.6407   -6713.2625    19659.726   -37424.843  0.051309864    1.5873551    4.4635687 
 4330000    294.62534   -952.86157   -7339.4484    -3856.898    17238.673   -37287.481  0.051314037    1.5873056    4.4634386 
 4332000    299.73829   -952.83526   -3589.2387   -743.05025    25747.218   -36432.835  0.051315583    1.5872813      4.46367 
 4334000    307.06055   -952.41018   -6266.3486   -10463.022    25666.413    -37384.16  0.051316259     1.587352    4.4637308 
 4336000    284.78153   -952.97305   -9000.7009   -8339.5574    20142.092   -37828.328  0.051325163    1.5873099    4.4634849 
 4338000    283.11502   -952.41992    -2203.917    -5665.625    25582.654   -35511.284  0.051319161    1.5872797    4.4636507 
 4340000    278.26302   -952.33809   -5487.8578   -6406.6191    19456.722   -27078.134  0.051326377    1.5873028    4.4637453 
 4342000     283.1284   -952.71099   -4719.3357   -4592.7441    25605.001   -30437.432  0.051334519    1.5873088    4.4634454 
 4344000    291.89925   -952.68222   -3683.1171   -3112.3782    27655.765   -33675.401  0.051337235    1.5873731    4.4635289 
 4346000     280.3251   -952.88261   -4878.7284   -5351.8013     20232.34   -32357.975  0.051331808    1.5873444    4.4636579 
 4348000    263.43382    -952.7239   -7070.6175   -5295.4786    26511.866   -39217.486  0.051333779    1.5872715     4.463511 
 4350000    289.72727   -952.56878   -6882.7485   -7965.2324    22314.874    -39470.54  0.051336677    1.5873068    4.4634525 
 4352000    295.53391    -952.3702    -5032.734   -2131.4347    20891.929    -39286.08  0.051335553     1.587294    4.4636953 
 4354000    344.59045   -952.16898   -2855.9106   -2567.6073    20620.151   -42937.873  0.051340527    1.5872473    4.4636223 
 4356000    297.98506   -952.63058    3363.6159   -1645.1087    20461.117   -38029.822  0.051344724    1.5872965    4.4635593 
 4358000    333.33571   -952.00342   -2895.2169   -6600.4842    22879.189   -40492.594  0.051344733    1.5872476    4.4636669 
 4360000    281.78858   -952.52784   -2195.1655   -7819.2181    23098.705   -36257.258  0.051361546    1.5871949    4.4637142 
 4362000    317.70175   -952.34879    2705.5769   -1211.2358    20882.622   -36308.916  0.051373812     1.587207    4.4637139 
 4364000    249.30704   -952.15846   -1223.9632   -447.29864    28538.227   -32981.223  0.051392638    1.5871327    4.4636093 
 4366000    321.23831   -952.37744   -5038.3745   -2399.4879    23419.712   -37835.331  0.051404134    1.5871139    4.4637094 
 4368000    252.47935    -952.7014   -7862.9616   -2151.1209    25659.235   -34074.727  0.051407777    1.5871451    4.4638303 
 4370000    290.25507   -952.85583    3085.4032   -9124.3189    18527.439    -40012.78  0.051405698    1.5871037    4.4636569 
 4372000    258.61373   -952.20212   -3214.1187   -4342.6069    25972.059   -42423.746  0.051410488     1.587075    4.4636622 
 4374000    324.02421   -952.40099    314.65332     8.592006    16604.281   -39694.096  0.051401147    1.5871475    4.4637675 
 4376000    350.54896   -952.06741   -2000.8968   -7407.4526    17948.057   -36303.263  0.051398594    1.5871055    4.4636464 
 4378000    274.81919   -952.17731   -927.85428    2239.1599    20436.997   -44169.266  0.051400865      1.58707    4.4636047 
 4380000    305.92392   -952.58499   -2969.5545     1163.784    19740.277   -36195.947  0.051394314    1.5871209    4.4636607 
 4382000    315.23204   -952.57472    2553.0584    2039.7593     19835.29   -37774.551   0.05140218    1.5870661     4.463614 
 4384000    311.60824   -952.39423   -5417.3602   -3354.4758    26970.944   -36998.261  0.051400136    1.5871445    4.4636015 
 4386000    289.83894   -953.14677   -2462.5425   -4858.0552    24770.689   -35974.604  0.051401035    1.5870537    4.4635793 
 4388000    282.61094   -952.50027   -2856.2153   -2025.4989    26153.623   -40552.163  0.051403254    1.5870204    4.4635325 
 4390000    269.36556   -952.67373   -10951.937   -9078.6426    21245.685   -41913.914  0.051416044    1.5871326    4.4636371 
 4392000    282.08713   -952.99655   -4184.7284   -3986.1503     25014.29   -31274.462   0.05140756    1.5870407    4.4636601 
 4394000    289.33286   -952.48977    3486.5006   -2207.3903    24913.539   -30373.619  0.051410739    1.5870516    4.4636065 
 4396000    297.62983   -952.34671   -5984.2828   -4940.6111    26967.621   -44755.933  0.051424202     1.587046    4.4635763 
 4398000    280.95003   -952.38589   -2043.8842   -11589.901    21801.418   -38891.802  0.051415423    1.5870133      4.46365 
 4400000    298.91387    -952.3631   -2758.2091   -384.91409    19590.455   -31786.903  0.051423641    1.5870659    4.4636652 
 4402000     228.8353   -952.64569   -6330.2585   -3071.1758    18231.164   -41645.041    0.0514229    1.5870397    4.4636383 
 4404000    273.12863   -952.32364   -8520.2226     -7891.51    26214.179   -41684.134  0.051420511    1.5870209    4.4635905 
 4406000    335.22901   -952.37742   -1515.9537   -8949.4611     20660.91   -38524.004  0.051428757     1.587009     4.463697 
 4408000    282.20128   -952.57955   -2237.3029   -7911.1004    25972.087    -43017.56  0.051424521     1.586971    4.4635633 
 4410000     244.7313   -952.57772    518.00131    -2623.605    22105.184   -41133.741  0.051435669     1.587016    4.4635513 
 4412000    361.24044   -952.34565   -9068.6147   -7234.0069    26334.893   -34416.389  0.051433305    1.5869787    4.4635693 
 4414000    342.52339   -952.62767    1005.3514   -4678.5147    20732.488   -37387.299  0.051438184    1.5869785    4.4634536 
 4416000    301.54951   -952.74586   -605.08999   -769.84962    18233.026   -41859.864  0.051444055    1.5869625    4.4635487 
 4418000    315.21408   -952.39758   -6698.5726   -5325.7524    25953.666    -37187.34   0.05144367    1.5869038    4.4635132 
 4420000    312.31304   -952.17169   -1404.8843    153.81927    23738.843   -32017.803  0.051451219    1.5869438    4.4634468 
 4422000    289.77836   -952.70025    -6370.622   -6603.3804    22106.616   -37613.277  0.051449527    1.5869379    4.4635271 
 4424000    306.97741   -952.66908   -2201.2867    1387.2319    19148.221   -33563.084  0.051447444    1.5869116    4.4634308 
 4426000     276.5604    -952.2049   -4057.7059   -4371.0275    19200.129   -37357.218   0.05146221    1.5869248    4.4633964 
 4428000    324.32504     -952.896   -598.31907   -7998.0827    16468.287   -40172.227  0.051452547    1.5868641    4.4634292 
 4430000    303.04476   -952.34194    313.09914   -2927.7349    23514.301   -37207.263  0.051456286    1.5868828    4.4634011 
 4432000    311.20881   -952.21168   -4541.1138    428.87659    14841.194   -34633.359   0.05146807    1.5869514    4.4634118 
 4434000    306.14861    -952.7603   -1749.2593   -5215.8633    17248.548   -41043.835  0.051455279    1.5868571    4.4634056 
 4436000    309.94887   -952.53873   -4638.1716   -4817.7131     24403.14   -39672.859  0.051471725    1.5868675    4.4634562 
 4438000    314.75702   -953.08535    -2992.941    -7497.383    19838.096   -40027.755  0.051469238    1.5868963    4.4634635 
 4440000    324.41342   -952.82476   -6155.3813   -2639.8504     19760.36   -36583.978  0.051474619    1.5869095    4.4634558 
 4442000     329.2965    -952.3997   -7536.3048    294.71804    19073.779   -35324.924  0.051476502    1.5868818    4.4634867 
 4444000     364.8422   -952.32301   -7509.9699   -9146.3701    18067.172   -36703.068  0.051478679    1.5868447    4.4634487 
 4446000    302.88127    -952.8563   -5380.2839   -3831.8376    25422.401   -35814.555   0.05149011    1.5868637    4.4635433 
 4448000    306.46565   -952.83795     -2904.12   -6089.1891    18626.602   -32336.488  0.051484348    1.5868443    4.4635617 
 4450000    312.39828   -952.92176   -12918.767   -7646.4093    27104.655   -36507.107  0.051494506    1.5868362    4.4634516 
 4452000    296.42576   -952.35536    268.86955    -2266.483    22271.018   -37157.414  0.051492723    1.5868084    4.4634466 
 4454000    330.69999   -952.71421    120.64113   -7282.6344    22758.363   -36040.663  0.051497911     1.586852    4.4636484 
 4456000    311.57075   -952.58115   -6513.0643   -855.83957      19737.6   -32401.368  0.051508888    1.5869034    4.4635599 
 4458000    338.79594   -952.76969   -2877.7133   -4631.3086    21522.288   -35610.299  0.051499748    1.5867506    4.4633302 
 4460000    357.45502   -952.81925   -7397.2522    -3738.324    19765.409   -47038.288  0.051509502    1.5868462    4.4635331 
 4462000    294.60371   -952.16536   -3558.3663   -6228.5944    25813.348   -36814.684  0.051518437    1.5868931    4.4636694 
 4464000    324.26309    -951.9008    5620.4965   -8466.9094    20622.955   -42893.217  0.051519526    1.5868319    4.4636048 
 4466000    278.66388   -952.68936   -7420.8768   -5916.2981    18014.043   -43346.769  0.051530048    1.5868751     4.463532 
 4468000    294.11366   -952.10452    -5948.389   -427.22284    15589.613    -41861.96  0.051530088    1.5868402    4.4635763 
 4470000    293.86471    -952.4901    395.88208   -6487.9433    24630.829    -39210.99   0.05153464    1.5868389    4.4636935 
 4472000    311.08021   -952.36505   -2481.4842     1383.307    17480.539   -38657.109  0.051547514    1.5869134    4.4636332 
 4474000    268.69625   -952.60989   -4405.4442   -3045.4214    16915.692   -35046.201  0.051542019    1.5868164    4.4634992 
 4476000    280.82709   -952.54461   -8549.5877    1578.3656    22410.231   -37310.688  0.051546534    1.5868114    4.4636487 
 4478000    260.43706   -952.67831   -6760.1645   -3953.1417    20144.246   -40315.147   0.05155244    1.5868961    4.4637692 
 4480000    283.12908   -953.08098   -2860.3657   -9717.0006    19156.264   -34360.684  0.051558702    1.5868441     4.463669 
 4482000    285.95837    -952.8413   -5012.5912   -5639.9303    16459.115   -34304.189  0.051561936    1.5868216    4.4636923 
 4484000    269.54941   -952.17726   -6167.5351   -797.36154     18796.55   -34767.982  0.051564049    1.5868051    4.4637653 
 4486000    301.54666    -952.7274   -4151.4056   -365.03795    23877.285   -38635.648  0.051574855    1.5868467    4.4637726 
 4488000     285.5139   -952.56136   -10554.598   -3165.9659    21037.066   -41307.368  0.051579325    1.5868261    4.4636813 
 4490000    321.47217   -952.62325   -8766.4911   -7788.4992    20985.141   -36575.825  0.051581267    1.5868221    4.4636621 
 4492000    290.56449   -952.62807    1213.3955   -255.65017    18561.722   -39415.505  0.051592832    1.5868305    4.4637711 
 4494000    392.46925   -952.40864   -5321.7369   -6777.1325    22630.094   -32995.416  0.051589318    1.5867961    4.4637772 
 4496000     299.4655   -952.30672    148.51328   -7478.8632    19078.842   -41005.064  0.051599257    1.5868272    4.4636489 
 4498000    330.60328   -952.79292   -10541.251   -7671.0953    19975.759   -31924.525   0.05160008    1.5868042    4.4637364 
 4500000    277.44315   -952.63409   -2556.0785   -8640.5039    26209.252   -32488.137  0.051590337    1.5867524    4.4637468 
 4502000    310.95004   -952.90881   -12256.796   -524.65327    19543.816   -33662.708  0.051597128      1.58678     4.463625 
 4504000    308.86373   -952.32555   -4879.2711   -6300.5915    20512.315   -30775.084  0.051597079    1.5867478    4.4636656 
 4506000    269.62721   -952.70253     1826.898   -6248.8546    26234.205   -36925.062   0.05159765    1.5866859    4.4636959 
 4508000    260.67822   -952.65921   -4003.8433   -4319.3426    22291.731   -50248.659  0.051599319    1.5867477    4.4636589 
 4510000    283.86373   -952.56499   -7445.7727   -7770.4212    19778.273   -40398.465   0.05160208    1.5867267    4.4636033 
 4512000    297.60689   -952.61345   -1244.5333   -3970.5946    23107.861   -38006.916  0.051608343    1.5866571    4.4636073 
 4514000    272.42372   -952.69416   -3481.2274   -9526.2716    21749.265   -36373.749  0.051607326    1.5867215    4.4637527 
 4516000     292.8881   -952.66246   -8707.5577    -5444.818    26514.283   -42046.263  0.051613513     1.586694    4.4635651 
 4518000    299.19766   -953.11596    2661.8997   -1047.6678    12024.063   -45011.748  0.051613112    1.5866619      4.46354 
 4520000     258.6764    -952.6739    1976.2681    8096.7765    23023.386   -40412.287  0.051614572    1.5866617    4.4636991 
 4522000     318.9433   -952.62369   -3331.0637   -3955.0027    22676.012   -36266.983  0.051624434    1.5866723    4.4635386 
 4524000    301.62169    -952.1147   -10363.632   -11728.574    23752.813   -40255.057   0.05161489     1.586638    4.4635103 
 4526000     294.4082   -952.53613   -9519.4813   -5645.3755    20626.051   -33034.119  0.051622327    1.5866426    4.4636282 
 4528000     350.7527   -952.45344   -2033.4625    -8061.966     19608.36   -42057.575  0.051623816    1.5865868    4.4634904 
 4530000    327.61145   -952.53933    1329.0912   -3440.5311    18045.278   -37696.633  0.051626392    1.5866315    4.4635678 
 4532000    362.21876   -952.39454   -6518.7063   -6334.7301    24665.692   -39402.256  0.051632632    1.5866182    4.4635783 
 4534000    261.50606   -953.06722   -4247.6882   -7116.3752    23975.817   -37414.982  0.051634477    1.5865835    4.4634936 
 4536000    274.11461   -952.74608   -665.90429   -4141.9081    18627.478   -32527.702  0.051643565    1.5866154    4.4635182 
 4538000    286.34644   -952.84536   -3157.6356   -1964.8676    17759.169   -37618.226  0.051641645    1.5866058    4.4634678 
 4540000    350.16465   -952.54493   -11247.927    2902.9007    20593.516   -37362.342  0.051648047     1.586561     4.463517 
 4542000    282.01654   -952.75698    -4352.681   -5494.2605    30228.742   -35679.345  0.051650143    1.5865809    4.4635448 
 4544000    267.34782   -953.04929    1443.4519   -4381.4383    23265.914   -42148.522  0.051654556    1.5865571    4.4634115 
 4546000    278.15036   -952.84813   -6942.6158   -4867.4229    14306.834   -35797.775  0.051661752    1.5865714    4.4635523 
 4548000    378.16501   -952.43906   -3823.7204   -5526.8003    24049.212   -32420.129  0.051662645    1.5865367      4.46346 
 4550000    313.16061   -952.64464   -4176.9115   -2058.1442    29412.925   -39556.867  0.051664997     1.586544    4.4634705 
 4552000    264.68938   -953.01915   -7340.3306   -7717.7677        22568   -38288.195  0.051674638     1.586538    4.4634417 
 4554000    343.86242   -953.38518    -4793.593   -184.32993     25706.43   -34990.045   0.05167007    1.5865191    4.4633875 
 4556000    287.86736   -952.45177   -4089.8712   -4996.5381    19203.914   -41084.068  0.051673175    1.5865027    4.4634897 
 4558000    318.37967   -952.77163   -4879.9881   -10632.422    23163.776   -37733.839  0.051674849    1.5864713    4.4633608 
 4560000    253.13862   -952.86181   -1393.3885   -5650.6695    21297.787   -38458.759  0.051679858    1.5864798    4.4633819 
 4562000    344.25906   -952.97485   -1705.8911   -561.19558     22128.23   -37050.944  0.051681295    1.5864806    4.4634733 
 4564000    274.97323   -952.97014   -2405.4385   -2767.5799    21394.738   -31592.582  0.051682666    1.5864596    4.4633805 
 4566000    282.72543   -952.43109   -1022.3226   -1052.5262    19469.467   -33457.568  0.051685651    1.5864677    4.4633272 
 4568000    261.47403   -952.53096   -10273.402   -2754.5714    26424.256    -36031.27  0.051689318    1.5864558     4.463366 
 4570000    308.21815   -952.66256    -5391.063   -3342.8324    20373.745   -40628.435  0.051690228    1.5864353    4.4633311 
 4572000    315.21493   -953.07903   -5147.2609    704.07573    25884.833   -40174.005  0.051690848     1.586428    4.4633705 
 4574000    279.46638   -952.37594   -8484.9556    1610.9731    19134.254   -32586.766  0.051687977    1.5863861    4.4632444 
 4576000    267.26236   -952.62532   -8079.4251   -2194.3834     23217.53   -38875.827  0.051694541    1.5864336    4.4633041 
 4578000    242.63927   -952.69965   -5274.0997   -4097.3694    15953.537   -46936.602  0.051695015    1.5864621    4.4633938 
 4580000    286.60815   -952.60959   -16119.421    2641.4341    17631.764   -38275.309    0.0516976    1.5863346     4.463246 
 4582000    307.05718   -952.64905    2306.7122   -7104.2922     22387.12   -37020.135  0.051700976    1.5863919    4.4632676 
 4584000    311.43286    -952.7035   -2522.9358   -2435.0596    24904.435   -34348.435  0.051704911    1.5864168    4.4633188 
 4586000    332.97083   -952.93822   -1131.2999    366.16914    21411.047   -40188.436  0.051703642    1.5863442    4.4632282 
 4588000    326.14909   -952.60584    495.99453   -8242.2242    21075.083   -40408.701  0.051713409    1.5863905    4.4631916 
 4590000    269.04755   -952.34209   -5481.1796   -3060.3979    23971.744   -41467.616  0.051710524    1.5863411    4.4632433 
 4592000    270.09392   -953.06294   -6365.5768   -10119.658    19639.029    -37076.36  0.051715397    1.5863369    4.4632325 
 4594000    313.18203     -952.432   -5128.4473   -7658.1078    24086.624   -40131.045  0.051721243    1.5863647    4.4632774 
 4596000    318.08557   -952.87037   -4139.6991   -1318.9552    23701.102   -37436.242  0.051717044    1.5863272    4.4632798 
 4598000    278.01575   -953.10845   -7575.1577   -3499.1944    26908.192   -44590.738  0.051722048     1.586288    4.4631762 
 4600000    300.51954   -953.04983   -6792.6263   -1407.2364    25046.446   -33920.703  0.051729018    1.5863657      4.46332 
 4602000    266.47262   -952.44882   -2829.6057   -559.02295    14851.532    -34394.87  0.051725717    1.5862815    4.4632787 
 4604000    316.33714   -952.38398   -5916.7539   -6689.7825      20248.1   -39289.252   0.05172658    1.5862141    4.4631946 
 4606000    307.42465   -952.43214   -6487.9552   -4997.9075    24741.362   -39694.757  0.051731869    1.5863242    4.4632435 
 4608000    262.15841   -952.41491    1839.8625   -1861.1827    29423.701   -35983.505  0.051737315    1.5862899    4.4631923 
 4610000    330.95036   -952.40625   -6110.2551   -8338.7909    21535.104   -36793.942  0.051737876    1.5862329    4.4632228 
 4612000     276.7941    -952.4148   -6995.3893   -5610.4404    22193.717   -37004.627  0.051744046    1.5862621    4.4630876 
 4614000     340.8539   -952.60777   -8906.9433   -2530.8552     21016.05   -38308.004  0.051747321    1.5861906    4.4631737 
 4616000    340.66648   -952.31491    4100.3217   -10886.854    26726.454   -36566.533  0.051744694    1.5862288    4.4632447 
 4618000    330.40996   -952.59254    1190.1187     2171.793    16225.304   -34444.375  0.051744408    1.5861806    4.4630672 
 4620000    308.90437   -952.44365    974.26429    742.38313    18742.849   -38149.192  0.051744253    1.5861194    4.4630437 
 4622000    269.65579   -952.33878   -2330.4067    -6229.251    20586.444   -47643.918  0.051749451    1.5861745    4.4631835 
 4624000    299.16727   -952.71836   -4141.3896   -5981.0433    21104.565   -29846.271  0.051753317    1.5861564    4.4630957 
 4626000    241.75884   -952.73173   -11940.136   -2364.0788    19571.858   -40259.289  0.051751311    1.5861134    4.4628605 
 4628000     287.0462   -952.41693   -10405.063   -7672.6035    30348.832   -36558.975  0.051755366    1.5861254    4.4630754 
 4630000    309.08702    -953.0856   -87.323571   -7684.8938    24261.031   -33596.402  0.051758849    1.5860922    4.4630902 
 4632000    291.27433   -952.88374    -4333.553   -66.516953    17611.175   -35032.584  0.051763127    1.5861265     4.462967 
 4634000    257.50237   -952.95443   -3956.5388   -2893.7372    21179.519   -37539.362  0.051760137    1.5860266    4.4629768 
 4636000    342.91271   -952.50765   -6360.0803    -5025.653    18617.529   -41976.488  0.051756373    1.5860823    4.4631598 
 4638000      359.041   -952.62501   -9085.4907   -9671.3379    19356.723   -33905.583  0.051770258    1.5860806    4.4631236 
 4640000    307.33621   -952.40587   -3981.1232   -6876.5052    19894.564   -36445.018   0.05176921    1.5860735    4.4629746 
 4642000    329.60599   -952.42521    -5498.748   -4486.2825    24943.498   -37758.643  0.051766978    1.5860634    4.4629767 
 4644000    260.77666   -952.57086   -2793.1969   -4168.8227     28208.31   -42055.575  0.051776927    1.5860294    4.4630172 
 4646000    330.54963   -952.08312   -12851.471   -4428.1272    22864.723   -39363.444  0.051773898    1.5860748    4.4629325 
 4648000    245.07843   -952.82701   -10786.432   -922.76766    19113.444   -35882.073  0.051779394    1.5860799    4.4629849 
 4650000    286.18351   -952.49114   -4071.7337   -2365.8694    17181.235   -34084.253  0.051779493    1.5860271    4.4630058 
 4652000    342.00058   -952.61376   -9176.8734   -7945.1955    24873.933   -37782.397  0.051790032    1.5860543    4.4629907 
 4654000    274.05484   -952.23178   -9490.5284   -45.004332    23804.849   -36535.557  0.051792891    1.5860668     4.463127 
 4656000    306.64816   -952.74014   -2605.0635   -9884.5028    24789.337   -38250.897   0.05180575    1.5859638    4.4629547 
 4658000    291.62922   -952.70168   -6556.3661    -6633.353     25697.11   -40600.758  0.051822831    1.5859492    4.4629286 
 4660000    275.29718   -952.35266   -5278.2624   -14658.355    17073.429   -41494.905  0.051840621    1.5859593    4.4630653 
 4662000    307.93956   -953.03752   -1940.3146   -10345.255    24752.701   -29474.979  0.051852093    1.5858219    4.4630222 
 4664000    255.37749   -952.25619   -4614.6633   -5263.3552    28308.128   -36227.253  0.051868711    1.5858367    4.4630437 
 4666000    306.35676   -952.62814   -2556.2927   -7800.4366    22816.561    -37868.91   0.05189271    1.5858821    4.4630446 
 4668000    261.69166   -952.82673   -4337.6651   -3830.0456    20771.238   -42302.693  0.051900359    1.5857582    4.4630436 
 4670000    289.67523   -952.29107    -3219.256   -5338.0055     19055.97   -34112.794  0.051905396    1.5857529    4.4630055 
 4672000    259.92458   -952.63175   -10699.938   -6455.9579    21451.813   -36817.553  0.051917665    1.5858157    4.4629737 
 4674000     309.7458   -952.41834   -4617.2344    -7455.835    22221.047    -41358.36  0.051912441      1.58576    4.4630415 
 4676000     269.0208   -953.18227   -6809.2356   -4383.5814    19039.676   -38146.173  0.051914038    1.5858235    4.4630441 
 4678000    325.36043   -952.73138   -6913.3955   -8480.5767    20721.312    -41344.37  0.051928255    1.5857841    4.4628906 
 4680000    284.94491   -952.88478   -4531.7152   -5667.4989    24882.105   -41831.058  0.051920239    1.5857624    4.4630207 
 4682000    292.80138   -952.99221    2086.4892    2223.5555    25600.512   -34528.507  0.051931133    1.5857915    4.4630201 
 4684000    298.82123   -952.72012    -3654.572    503.38759    20847.456   -38623.889  0.051927088    1.5857596    4.4629261 
 4686000    353.03339   -952.09655   -6114.7797   -3569.5956    25324.041   -39442.568    0.0519272    1.5857818    4.4628873 
 4688000    294.17329   -952.75961   -8775.0897   -4898.6709    19335.524   -33535.054  0.051938078    1.5858222    4.4631023 
 4690000    297.93302   -952.18744    -2036.166   -1383.5581    22235.198   -39346.829  0.051937618    1.5857811    4.4629545 
 4692000    288.73804   -952.64783   -856.30322   -4581.8685    22560.341   -35982.631  0.051935259    1.5857769    4.4627992 
 4694000     287.7989    -952.5521   -5050.6734   -4114.8053    21435.827   -32170.761  0.051936537    1.5857868     4.462913 
 4696000    327.76755   -952.97919   -3193.7505   -2915.2197    19920.369   -32065.932    0.0519393     1.585839    4.4631236 
 4698000     325.1136   -952.01963   -5870.4565   -10438.267    17534.348   -33176.368   0.05193951    1.5858188    4.4630374 
 4700000    295.43123   -953.16454   -5900.3075    -8295.273    21000.849   -33209.829   0.05194172    1.5857782    4.4628407 
 4702000    262.07042   -952.42851   -4501.9248   -6559.3666    27462.613   -36654.013  0.051950154    1.5858153    4.4630023 
 4704000    301.61857   -952.76289   -5296.8727   -5472.0534    20679.785   -29506.507  0.051948993    1.5858555    4.4631343 
 4706000    283.22977    -952.6486    1228.2306   -8114.8387    23933.626   -39113.205   0.05195421    1.5858257     4.462824 
 4708000    300.39869   -952.95776   -10351.127   -6505.8624    23304.021   -39380.011  0.051956385    1.5858284    4.4628592 
 4710000    271.35918   -952.68998   -6018.4452   -9028.5246    21982.434   -43806.978  0.051955994    1.5858152    4.4630965 
 4712000    282.06748   -952.34833   -357.85139   -6804.2465    23473.042   -38660.673  0.051971042    1.5857952    4.4629795 
 4714000    280.58891   -952.70369   -10135.252     223.1942    23239.261   -41988.043  0.051977359    1.5857699    4.4628949 
 4716000    310.77684   -952.69499   -612.36796   -4477.1144    24173.576   -39486.631  0.051989607    1.5857586    4.4629914 
 4718000    302.16361   -953.36772   -7425.2311    1080.0957    27617.485   -35364.429  0.052016623    1.5857419    4.4629901 
 4720000    329.95615   -952.02501   -4787.1568   -12170.265    21681.158   -33845.502  0.052018917    1.5857497    4.4628543 
 4722000    276.63032   -952.44067   -7796.8496   -4395.1144    19873.128   -40889.186  0.052012897     1.585657    4.4628692 
 4724000    286.36953   -951.56062    -1616.072    106.07957    22125.069   -36556.489  0.052018213    1.5856936    4.4629376 
 4726000    267.10319   -953.26178    -4834.388    -641.2056    22736.063   -33003.768  0.052035357    1.5858265    4.4630106 
 4728000    277.38795    -952.8604   -3315.7136   -5166.7311    20792.275   -38601.107  0.052032981    1.5857527    4.4630351 
 4730000    297.85479   -952.79438   -2795.1122   -6385.7633    24893.331   -36109.711  0.052033031    1.5856597    4.4629786 
 4732000    323.71779   -952.50821    2403.7663   -7850.4941    19641.976    -36410.37  0.052043379    1.5857693    4.4630272 
 4734000    300.90322   -952.94554    50.015256   -3338.8317    25207.834   -31799.165  0.052040026    1.5857871    4.4630864 
 4736000    298.30362   -952.40992    247.42262   -1918.0677    16247.761   -35750.392  0.052056925    1.5858368    4.4631044 
 4738000    306.81601   -952.18269   -6627.8587   -6968.1878    20191.614   -42162.744  0.052048397    1.5857507     4.462999 
 4740000    263.71048   -952.92355   -916.48356   -10191.726    22349.789   -40081.735  0.052050334    1.5857758    4.4630116 
 4742000    306.89392   -952.48415   -14229.693   -7929.9441    24823.534   -42246.942   0.05206719    1.5857866     4.463132 
 4744000    314.55142   -952.84873    -6242.494   -5856.4922    21473.985   -40329.056  0.052080475    1.5857053     4.463073 
 4746000    312.79785   -952.55519   -1620.4573   -8469.0256    25056.576   -36127.274  0.052087995    1.5856969    4.4630239 
 4748000    278.12889   -952.44156   -5841.2317    -143.6115    24034.621   -37203.701  0.052096161    1.5856973    4.4629854 
 4750000    299.50822   -952.95545    5491.2027   -699.03208    23386.597   -41341.086  0.052090795    1.5856589    4.4629734 
 4752000    334.77594   -952.58363   -5342.3289   -5315.9589     21345.58   -39985.367  0.052097438    1.5857045    4.4630344 
 4754000    287.46884   -952.84169   -2430.8795   -6434.1971     20441.83   -34800.365  0.052096496    1.5856802    4.4629964 
 4756000    268.40544   -953.09874    390.37325   -5140.4601     27992.46   -40667.518     0.052098    1.5857027    4.4631017 
 4758000    244.38391   -952.83616   -5067.1828    2395.6117    18976.372   -34755.652  0.052103718     1.585627    4.4630465 
 4760000    338.25954   -952.80609    -1143.706   -8336.0152    19168.781     -42281.8  0.052097294    1.5856373    4.4630265 
 4762000    277.02604   -952.96827   -6192.2117   -10684.468    26430.761   -42049.011  0.052102612    1.5856806    4.4630458 
 4764000    282.15641   -952.19918   -6256.8125   -1362.1065     17889.47   -40026.564   0.05210309    1.5856603      4.46302 
 4766000    324.89671   -953.06436   -6450.7082   -9680.1406    21453.215    -44631.27  0.052100367    1.5856508    4.4630327 
 4768000     268.6729   -952.63549   -3286.2689   -3327.1789    19074.082    -33371.06  0.052101001     1.585639    4.4630093 
 4770000    319.72757   -952.78418   -11750.627   -3983.4555    28721.915   -34079.359  0.052097439    1.5856257    4.4630629 
 4772000    295.60725   -952.84737   -6937.9638   -7833.3719     21107.99     -40806.7  0.052101278    1.5856722    4.4631117 
 4774000    310.04896   -952.69249    921.48393   -5442.4549    27076.737   -36792.872   0.05209674    1.5855914     4.463052 
 4776000    312.27957   -952.40226   -3595.1686    -4555.594     29032.44   -37555.365  0.052102398    1.5855814    4.4629825 
 4778000    288.02059   -952.98316    1122.7939   -11622.978    22858.229   -35484.912  0.052108392    1.5856676    4.4630034 
 4780000    313.13291   -952.82888   -10531.289   -4256.2301    20022.896   -30027.524   0.05209827    1.5856092     4.463019 
 4782000    276.06001   -952.49179   -5156.7021   -5341.3657    20411.038   -33363.894  0.052106043    1.5856059    4.4630259 
 4784000    314.51015    -952.3704   -2271.3002   -4369.2522    15934.631   -34952.361  0.052102578    1.5855941    4.4629732 
 4786000    261.16732   -952.27029   -6337.4786   -85.661849    22243.258   -38945.352  0.052101473     1.585563    4.4630095 
 4788000    296.91716   -952.45107    -1328.325   -3632.7001    21880.334   -36131.056  0.052103272    1.5855629     4.463003 
 4790000    258.34573   -952.59517   -2426.1822   -3081.8368    18616.867   -32454.619  0.052105273    1.5855576     4.463024 
 4792000    306.33316   -953.04631   -5503.3056   -4527.8007    26340.842   -37268.958  0.052105705    1.5855417    4.4630466 
 4794000    280.23672   -952.34458    2837.3429   -900.23462    16699.657   -43742.466  0.052106709    1.5855828     4.463006 
 4796000     320.6867   -952.91191   -1497.7844   -3556.6402    32898.369   -41874.396  0.052107869    1.5854885    4.4628779 
 4798000    272.26469   -953.00264   -3827.6872   -5042.6524    21936.539   -37563.423   0.05210262    1.5855037    4.4630122 
 4800000    257.74079   -952.44025    -3763.847   -4043.8947    21690.247   -33309.284  0.052115719    1.5855439    4.4630437 
 4802000    285.74853   -952.77541   -9559.4878    -6626.054     21155.06   -36663.267  0.052128032    1.5855126    4.4629913 
 4804000    232.79975   -952.25628   -5293.4995    -8014.784    21663.941   -43369.872  0.052137326     1.585426    4.4630984 
 4806000    291.29071    -951.9867   -10348.237   -6608.3797    24481.203   -41954.601  0.052144599    1.5853729    4.4630965 
 4808000    340.35857   -952.72582   -3105.4752   -2275.7007    21968.857    -36777.03  0.052154448    1.5854393    4.4630001 
 4810000     292.4794   -952.42756   -2494.0564   -5267.2197     24682.85   -38595.659  0.052162044    1.5854432    4.4630473 
 4812000    273.24108   -952.42305   -3430.9539   -8575.0467    24823.545   -32622.046  0.052154142    1.5853948    4.4630833 
 4814000     331.4713   -952.67418   -5562.4695   -4353.0381    23019.887   -34839.196  0.052159564    1.5853735    4.4629598 
 4816000    275.09793   -952.31874   -7433.4554      986.986    20183.128   -42539.685  0.052161517    1.5854255    4.4630578 
 4818000    291.48028   -952.75151   -5302.9336    2494.8407    17926.101   -36215.417  0.052159826    1.5854069    4.4631094 
 4820000     303.3101   -952.53934   -5858.5741   -4609.9547    24450.323   -40513.597  0.052164243    1.5853585    4.4630456 
 4822000    311.91961   -952.45141   -1675.4439   -291.62271    17385.719   -40669.977  0.052162675    1.5853835    4.4629981 
 4824000    286.30182   -952.48768   -7261.3814   -2988.4619    28760.848   -41926.744  0.052168708    1.5853555    4.4631246 
 4826000    344.08693   -952.38561    -8286.584   -9995.8215    21553.454   -34563.037  0.052167762     1.585399    4.4630893 
 4828000    323.18221   -952.89825   -13390.117   -4856.2821    24882.667    -36721.17  0.052164271    1.5853653    4.4629136 
 4830000    315.93234   -952.84329   -4900.9844    434.79661    17050.819   -34530.247  0.052163834     1.585379     4.463032 
 4832000    324.61915   -952.56762    7431.7995   -173.91689    21164.328   -38150.974  0.052164532    1.5853658    4.4629207 
 4834000    306.59897   -952.42736   -4398.3039    1431.1237    21623.759   -36468.532  0.052163237    1.5853801    4.4628908 
 4836000    290.50091   -952.22202    -9210.532   -4955.9323    19254.415   -39650.494  0.052161442    1.5854102    4.4629627 
 4838000    320.61131   -952.64337   -11958.083   -4391.9653    24607.422   -32344.097   0.05216288    1.5853591    4.4629006 
 4840000    316.10847   -952.43178   -2372.9611      2266.12    16208.107   -39227.147  0.052163796    1.5853533    4.4628521 
 4842000    323.81725   -952.58286   -3731.6802   -4773.0973    25545.786   -40256.158  0.052154066    1.5853923    4.4629213 
 4844000    287.16233   -952.12615   -5499.1455   -5890.8701    22787.522   -38348.885  0.052160253    1.5853365    4.4629779 
 4846000    307.87369   -952.01032   -5807.8597   -1212.7306    26442.977   -34625.457  0.052168314    1.5854005    4.4629485 
 4848000    316.94567   -952.90476      -5686.7   -639.52154    25759.816   -39180.403  0.052172754    1.5854678    4.4629949 
 4850000    311.63125   -952.76514    5929.8405   -6511.4668    18752.173   -35417.084   0.05218081     1.585426    4.4629603 
 4852000    328.36361   -952.47202   -8083.6909    -658.0719    25969.347   -38231.659  0.052182786    1.5853586    4.4630195 
 4854000    288.96041    -952.6463    5145.1587   -5281.1888    20906.802   -39823.845  0.052184629     1.585447    4.4630741 
 4856000    297.10957   -952.72893   -10483.953   -2674.6247    23794.548   -33415.258  0.052192852    1.5854356    4.4629421 
 4858000    329.67731   -952.20868   -7832.4893   -1524.2619    31211.468   -38213.781  0.052191189     1.585418     4.463044 
 4860000    275.83749   -952.69224    -11213.57   -4500.6693    27309.876   -33903.965  0.052192884    1.5854647    4.4631522 
 4862000    275.06141   -952.57927    -5163.758    2599.3778    16322.703   -36861.928  0.052193061    1.5854569    4.4630055 
 4864000    266.96915   -953.04789   -7379.5752   -2035.1466    25519.229   -35963.646  0.052192801    1.5854369    4.4629784 
 4866000    270.00315   -952.40774   -4676.3706   -5733.0133    22645.496    -46592.35  0.052195539    1.5855298     4.463042 
 4868000    267.54859   -952.72186    -2817.339   -6158.3695    23075.273   -36927.935  0.052200351    1.5854583    4.4630967 
 4870000    305.24439   -952.09626   -5665.6323   -7492.4383    26497.871   -43165.001  0.052201295    1.5854536    4.4630762 
 4872000    267.27051   -952.23968   -9794.0245   -7222.2818    22524.831   -40148.284  0.052208468    1.5855814    4.4630273 
 4874000    301.31097   -953.12109   -7189.0905   -30.060484    23584.519    -39905.42  0.052213093    1.5855077    4.4631753 
 4876000    373.68713   -952.87283   -3200.3785   -5792.3941    23491.377   -34207.905  0.052217868    1.5855316    4.4632757 
 4878000     302.3148   -952.59418   -6782.3205    -2046.913    20763.702   -40105.507    0.0522204    1.5855309    4.4630344 
 4880000     252.8149   -952.73806    -10111.97    -3045.056    17454.786   -42401.869  0.052217177    1.5855291    4.4630569 
 4882000    285.25131    -952.9466   -6531.9539   -2026.5186    19330.534    -35608.95  0.052220227    1.5855272    4.4631546 
 4884000    294.24613   -952.73862    3051.1532   -1031.3734    26709.289   -36538.577  0.052218676    1.5855274    4.4631102 
 4886000    274.84311    -952.0474   -808.62677    1161.2732    20046.815   -34749.718  0.052221534    1.5855081    4.4629991 
 4888000    238.91505   -952.80102   -1761.5907   -1125.2237    16602.545   -36708.222  0.052227031     1.585438    4.4631439 
 4890000    283.37609   -952.77795    -9.271368    138.65652    22935.358   -38951.413  0.052221563    1.5854595    4.4632233 
 4892000    259.73857    -952.9788   -3569.5423    2158.9197    17703.619   -42538.343  0.052231569    1.5855028    4.4630062 
 4894000     259.9672   -952.45792   -1788.2015   -2192.6745     18171.58   -42219.051  0.052227888     1.585439    4.4630586 
 4896000     314.1274   -952.82608   -2030.9962    -4293.944     24783.13   -32573.196  0.052235568    1.5854873    4.4631691 
 4898000    332.39018   -953.09835   -8736.1965   -4204.2409    21824.807   -34239.202  0.052237754    1.5854759    4.4631041 
 4900000     325.2914   -952.67073    2254.1062   -230.30582    16990.683   -41008.843  0.052231975    1.5854488    4.4631359 
 4902000    291.73056   -952.79259   -7284.4182   -8773.0169    21048.283   -37744.853  0.052232091    1.5855006     4.463115 
 4904000    310.61462   -952.81938     -1598.88   -2893.6429    16964.881   -40321.924  0.052236462    1.5854869    4.4631143 
 4906000    340.57732   -952.52678   -4090.5404    132.93509    29499.385   -37431.855  0.052231897    1.5854133    4.4630753 
 4908000    250.76245   -952.71081    1709.9965   -4556.5665    26564.454   -37443.446  0.052239425    1.5854923    4.4631525 
 4910000    304.14887    -952.6824   -12088.581    -8133.991    23027.627   -33747.393  0.052235572    1.5854569    4.4630324 
 4912000    247.01443   -952.26435   -6291.9968   -7036.8832    23116.699   -42684.885  0.052238501    1.5854496    4.4630762 
 4914000    283.89331   -952.60368   -5575.7323    -5556.616    24384.198   -29370.133  0.052241797    1.5854533    4.4631432 
 4916000    282.05416   -952.77387   -1142.4874   -1363.3978     24172.98   -38052.346  0.052239356    1.5853955    4.4630338 
 4918000    278.54817   -952.72319   -3820.7894   -4932.5563    20420.041   -31398.425  0.052253565    1.5854459    4.4631148 
 4920000     349.4457   -952.76831   -11116.153   -1892.0697    20303.572   -35007.309  0.052250246    1.5854147    4.4631186 
 4922000    309.45559   -952.39596    1528.2067   -4278.0268    29568.024   -37574.843  0.052261084    1.5853962     4.463084 
 4924000    327.83305   -952.33105   -9031.5054   -9105.9437    21761.523   -39857.513  0.052283853     1.585377    4.4630636 
 4926000     305.5666    -952.8763   -11422.219   -5523.9562    19474.271   -34803.621  0.052292924    1.5853373    4.4631437 
 4928000    331.08978   -952.80412   -3423.4397   -4104.4657    29105.071   -38432.976  0.052319011    1.5852954    4.4630741 
 4930000    292.09699   -952.46743   -593.78944   -9100.5966    18841.421   -38594.945  0.052319825    1.5853245    4.4630458 
 4932000    267.25855   -952.19557   -5021.7681    -3731.332    20737.387   -43551.255  0.052323955    1.5852912    4.4631103 
 4934000    293.87133   -952.66574   -12054.953   -5574.3768    18937.802   -38361.939  0.052329625    1.5852627    4.4631253 
 4936000    308.28183   -952.69873   -240.91571   -5928.6799    26509.416   -39782.895  0.052325532    1.5852046    4.4630343 
 4938000    297.11135   -952.77531   -113.76248    2409.8871    23204.772    -40238.53  0.052354756    1.5852648    4.4630661 
 4940000    260.94808   -952.41968   -4475.7824   -566.93453    18028.402   -39274.916  0.052366158    1.5851988    4.4630234 
 4942000    299.74287   -952.31596   -6510.6428   -5720.1056     24310.55     -37802.9   0.05237033     1.585127    4.4630408 
 4944000    296.36386   -952.65415   -10144.524   -5984.4898    28594.333    -44084.94  0.052382018    1.5851732     4.463015 
 4946000    293.96843   -952.81505   -5814.9483   -709.46564    29913.327   -42442.327  0.052380972    1.5852101    4.4631443 
 4948000    315.22681   -952.88548   -2173.5779    3791.0254    25274.461   -39394.479  0.052385289    1.5852072    4.4631611 
 4950000    279.57367   -953.19749   -5576.9651   -6033.7089    20364.856   -33436.409  0.052383998    1.5851782    4.4630692 
 4952000    336.17555    -952.7783   -527.88115   -4261.0224    19586.993     -37242.3  0.052385552    1.5851777    4.4630346 
 4954000    253.98239   -953.00528   -1667.5231   -3905.2208    24222.078   -34434.396  0.052395324    1.5852704    4.4631901 
 4956000    310.73163   -952.86759   -3871.4781   -4590.3137    23893.681   -34593.815  0.052392719    1.5852003    4.4631514 
 4958000    265.00989   -952.53314   -5830.6886   -6608.6452    27961.422   -39126.798  0.052389635    1.5852236    4.4630486 
 4960000    265.86533   -952.50812   -8504.4628   -6366.7912    20635.417   -35496.804  0.052395793    1.5852199    4.4630544 
 4962000    321.87461    -952.6321   -6065.4756    1066.7868    22623.384   -37578.178  0.052391721     1.585151    4.4631858 
 4964000    293.84579    -952.7504   -3484.1257   -4595.7505    24460.123   -31003.942   0.05239816    1.5852028     4.463088 
 4966000    316.90817   -952.39315   -9404.3693   -6210.6176    19599.313   -40133.185  0.052396798    1.5851949     4.463016 
 4968000    265.58865   -952.40378   -7789.6118   -3481.9476    26561.013    -37540.15  0.052400135    1.5851881    4.4631285 
 4970000     291.0079   -952.83823   -7383.6362   -6810.4873    22667.333   -34124.235  0.052408788    1.5852378    4.4630971 
 4972000    313.61565   -953.37617   -9990.7355   -3178.3183    24056.536   -38782.762  0.052402376    1.5851579    4.4629043 
 4974000    304.28793   -952.18775   -10155.721   -5045.1613    21569.841   -36292.718  0.052406453    1.5852243    4.4630952 
 4976000    310.20805    -953.0096    -7060.566   -2271.0048    21741.448   -38542.382  0.052408041    1.5852015     4.463276 
 4978000     266.0688   -952.12001   -537.82609   -3246.7308    23175.236   -43535.769   0.05241015    1.5852135    4.4631649 
 4980000    322.36076   -953.14067   -4529.6988   -2320.8633    20143.372   -40947.125  0.052410494    1.5851506    4.4629973 
 4982000    274.19615   -952.58625   -5028.0132   -4041.5718    19978.114   -37536.787  0.052410067    1.5851485    4.4632522 
 4984000    298.58318   -952.62438   -6807.4214   -4518.3642    25970.067    -30067.85  0.052416133      1.58523    4.4632325 
 4986000    338.06193   -952.46216    -12199.07   -6084.7153    23755.525   -38334.652  0.052410862    1.5851693    4.4630318 
 4988000    240.74946   -952.39556   -9016.4397   -4237.5388    26401.423   -42170.419  0.052412339    1.5851356    4.4631404 
 4990000    300.44565   -952.60339   -1795.9434   -8569.3646    19428.969   -37539.952  0.052416704    1.5852132    4.4633436 
 4992000     284.4099   -952.82062    351.04517   -1900.0108     23524.36   -37928.039  0.052412927    1.5851135    4.4631783 
 4994000    314.39965    -952.6242   -3715.8912    -6.309415    22384.613   -37708.289  0.052424708     1.585198     4.463112 
 4996000    286.22021   -952.79949   -3594.4173   -6177.7677    21749.056   -32332.997  0.052419849    1.5851657    4.4633345 
 4998000    285.75391   -952.29726   -939.56717   -3250.8411    28106.728   -36306.557  0.052421548    1.5851242    4.4632784 
 5000000    289.60061   -952.53124   -6052.7106   -4465.0635    26725.167   -43952.554  0.052432195    1.5851742    4.4631698 
 5002000    337.36902   -952.96248   -2735.5842   -1409.8171    24889.349   -41734.124  0.052430478    1.5851053    4.4632328 
 5004000    286.35395   -952.91077    2567.4495   -6033.1605    23408.643   -39335.848  0.052449454    1.5851104    4.4633569 
 5006000    291.69226   -952.52332   -11.288955    478.78588    22276.492   -33182.519  0.052464663    1.5851107    4.4634122 
 5008000    290.76846    -952.8701   -2833.1121   -4259.2381    24190.778    -38732.69  0.052468829    1.5850403    4.4633707 
 5010000    254.05665   -953.01013   -5632.1513   -8170.0468     25555.22   -39941.937  0.052492189    1.5850165    4.4633978 
 5012000    265.95014   -952.62333   -6646.1194   -2891.2956    20415.606   -37189.012  0.052507439      1.58502    4.4635354 
 5014000    337.96697   -952.44362   -10873.676    -6151.862    22281.926   -36471.042  0.052518496    1.5849661    4.4634549 
 5016000    308.42857   -952.60134    -6845.877   -8186.3727    22095.657   -39331.249   0.05253179    1.5849297    4.4634964 
 5018000    344.80333   -952.71366   -1859.4389   -10352.689    29172.442   -40017.668  0.052532843    1.5849619    4.4635375 
 5020000    273.57464   -952.24975   -7085.2302   -6262.4401    17274.141   -38220.924  0.052541603    1.5850087    4.4636221 
 5022000    321.54095   -952.17469   -2318.0982   -6044.8688    22003.732   -40490.295  0.052534474    1.5849565    4.4636172 
 5024000     253.1727   -951.85418   -11996.253    -3231.867    17210.248   -35276.583  0.052538281      1.58493    4.4635459 
 5026000    313.65056   -952.25286   -3533.7731    -6742.854    21292.095   -36236.709  0.052534722    1.5849623    4.4635933 
 5028000    258.37831   -952.86961   -2000.9274   -2667.9828    25696.397    -37515.51  0.052531415    1.5849051    4.4635833 
 5030000    325.35946   -952.50292    -4703.007    906.46265    24725.813   -32938.374  0.052539392    1.5848982    4.4635655 
 5032000    295.40346   -952.48558   -2075.7334     -7809.45    22964.558   -38926.857  0.052536137    1.5849195    4.4634708 
 5034000    315.74706   -951.88373   -12276.679   -11598.349    26291.409    -41362.06  0.052535401    1.5848851    4.4634818 
 5036000    280.39939   -952.80088   -12213.355   -4366.5923    18909.214   -36180.492  0.052543225    1.5849324    4.4636393 
 5038000    278.11418   -953.12064   -8045.5361   -3532.5816    21380.635   -36612.466  0.052536558    1.5848256    4.4635248 
 5040000    288.14507   -952.43207   -844.00729   -1225.4369    23438.869   -35762.273  0.052546572    1.5848655    4.4634928 
 5042000    292.41946   -952.54407   -4264.5907   -2204.3588    19668.741   -38220.514    0.0525484    1.5848842    4.4636272 
 5044000    284.65781    -953.0568    -3166.377   -5328.1623    23197.049   -35541.644  0.052538508    1.5848578    4.4636953 
 5046000    285.38773   -952.82008   -7077.6375   -6717.5158    26413.653   -43498.925  0.052554767     1.584821    4.4635021 
 5048000    303.25986   -952.70256   -13974.484   -6668.6532     21113.38   -40247.601  0.052552559    1.5848443    4.4635252 
 5050000    359.56751   -952.27039   -9192.5448   -6646.1082    21869.964   -37058.173  0.052549448    1.5848481    4.4636231 
 5052000    318.43615   -952.62408   -8677.1203   -97.574589    21322.853   -40918.598  0.052556492    1.5848248    4.4635377 
 5054000    293.32267   -952.62793    -207.7566   -3536.9466    24543.245   -35562.662  0.052547764    1.5847827    4.4635348 
 5056000    276.76134   -952.80233   -3388.6402   -4961.8193    18875.619   -36373.994  0.052556118    1.5848372    4.4635676 
 5058000    289.31379     -953.013    689.69479   -13209.958    23150.834   -35726.125  0.052557303    1.5848088    4.4635178 
 5060000     290.8688   -952.98263   -1398.8901   -437.73869    24956.794   -33271.301  0.052556065    1.5848047    4.4634707 
 5062000    285.93054   -952.16855   -3829.8223   -520.46602    22401.625   -32286.103  0.052560421    1.5848364    4.4634869 
 5064000     270.4285   -952.55215     3481.677   -969.35865    22234.769   -38746.086  0.052563151    1.5848113     4.463447 
 5066000    295.19451   -952.82196   -3955.1739   -3412.9638    24238.869   -35477.133  0.052569751    1.5848289    4.4634699 
 5068000    276.18963   -952.86666   -1999.2062   -1119.8612    23578.468   -35411.556  0.052564409    1.5847756    4.4635241 
 5070000    298.25674   -952.39794   -2292.3387   -8765.7612    31985.424   -41388.848  0.052573439    1.5847409    4.4634462 
 5072000    291.86101   -952.08022     -4590.26   -2250.6921    25820.654   -41405.948  0.052581396    1.5848596    4.4635587 
 5074000    259.10322   -952.66096   -5106.8137   -9468.9777    29446.268   -38177.574  0.052577325    1.5848291    4.4636398 
 5076000    295.09824   -952.63943   -4955.7389   -2044.4667    21879.714   -36122.538  0.052583927    1.5848206    4.4635838 
 5078000    294.52605   -952.65009   -7269.9839   -3537.1648    20585.238   -39343.862  0.052589926    1.5848302    4.4634521 
 5080000    322.70885   -952.34035   -5701.4171   -3292.2968    27416.095   -33505.912  0.052587393    1.5848249    4.4636005 
 5082000    330.36986   -952.82079   -10934.167     -4287.44    20503.492   -38153.193  0.052593198    1.5848005    4.4636225 
 5084000    334.13984   -952.83032    -7274.098     -4275.37    23191.516   -39439.287   0.05258732    1.5847292    4.4634948 
 5086000    302.03656   -952.56464   -6024.3555    1863.2427    17127.155   -38006.079  0.052594974    1.5847712    4.4635788 
 5088000    336.57682   -952.95362    3836.2764   -7601.9712    23588.067    -41545.66  0.052602074    1.5847582    4.4636111 
 5090000    292.77784    -952.6758   -6279.3213   -9902.6877    22435.148   -38319.047  0.052598401    1.5847258    4.4636484 
 5092000    261.75545   -952.07531   -9097.7788   -776.55428    17428.902   -38156.843  0.052606847    1.5847409    4.4635305 
 5094000    301.98951   -953.06856   -8381.7394   -7927.5803    23016.066   -40617.678   0.05260572    1.5846907      4.46357 
 5096000    281.13162    -952.7722    -6356.785    -4106.185    23599.742   -45449.825  0.052612569    1.5847301    4.4637021 
 5098000    356.71092   -952.00284   -4030.7432   -2569.7026    13021.507   -37868.361  0.052616161     1.584756    4.4636891 
 5100000    293.33662   -952.93822   -5741.7537   -7964.8718    27114.025   -40929.728  0.052611796    1.5845984    4.4635793 
 5102000     265.2147   -952.74683    1385.4281   -6643.2131    24480.102   -39738.402  0.052616614    1.5846937    4.4636805 
 5104000    275.15256   -952.53781    286.32583    1997.6168    20893.101   -36455.241  0.052617914    1.5846745    4.4637427 
 5106000    284.06359   -952.75085    -4737.999   -5164.9827    23728.942   -39912.032   0.05262313     1.584613    4.4636969 
 5108000    294.33268   -952.24617   -6321.3697    -1239.047    20451.936   -30832.294  0.052617725      1.58465    4.4636701 
 5110000    321.65033   -952.51556   -4760.9341   -1400.8705    20920.342   -34769.289  0.052624666    1.5846184    4.4635805 
 5112000    312.35265   -952.94604   -2875.4292    -1480.131     28017.56   -37781.955  0.052630182    1.5846302    4.4636162 
 5114000    285.65291   -952.08212    -1908.217    2638.6703    17708.983   -35096.143  0.052624028    1.5846159    4.4637216 
 5116000    313.11818   -952.43254   -3982.8285   -6726.5063    28235.187   -40073.061  0.052630224    1.5845714    4.4636353 
 5118000     294.9261   -952.09213   -6034.6706   -3225.7837     19945.49   -37388.228  0.052635604    1.5846123    4.4636197 
 5120000    307.71498   -952.71056   -5276.5985   -7642.2534    27159.751   -44807.504  0.052633545     1.584581     4.463689 
 5122000    309.14099   -953.14471   -6739.4979   -3184.9428     25520.14   -33667.649  0.052635785    1.5845664    4.4636862 
 5124000    303.44924   -952.56008   -6579.1128   -390.33915     22863.04   -35638.461  0.052640458    1.5845216    4.4635635 
 5126000    323.10417   -952.76081    467.59607   -3048.0628    27292.406   -43737.371  0.052637296    1.5845883    4.4636052 
 5128000    321.87591   -952.64788    -4045.904    3739.0636    15228.597   -35728.603  0.052641674    1.5845389    4.4636162 
 5130000     352.2959   -952.73956   -34.000888   -4750.4388    22453.719   -44049.396  0.052638207    1.5844921    4.4636458 
 5132000     340.7326   -952.78708   -4763.1334   -330.91832    19128.349   -37601.759  0.052651887    1.5845238    4.4635147 
 5134000    324.70999   -952.08364    -10717.09    -3170.371    17322.974   -34097.349   0.05266688    1.5844737    4.4636151 
 5136000    323.06942    -952.5178    -3842.046   -14291.236    26191.726   -36397.231  0.052671895    1.5843983    4.4636841 
 5138000    294.78523    -952.8227   -5923.4254    2370.8831    16458.312   -37138.681   0.05269711    1.5844329    4.4635637 
 5140000    357.93269   -952.73433   -1633.6549   -2985.3239    23323.206   -36946.587  0.052694902    1.5843971    4.4635286 
 5142000    327.64044   -952.82885     1280.506   -5485.9943     19046.96   -37559.216  0.052693028    1.5843732    4.4635551 
 5144000    285.31304   -952.75072   -10219.167   -3827.7147    22772.012     -37945.3  0.052697584    1.5844361    4.4635806 
 5146000    318.10221   -952.43866   -5214.1196   -9369.3757    22714.512   -41036.221  0.052698528    1.5843838    4.4635037 
 5148000    327.44603   -952.72033   -6469.2973    -2760.748    24532.157   -38908.358  0.052700615    1.5844058    4.4635985 
 5150000    281.24552   -952.28454     1086.015    2442.4922    23921.471   -26068.123   0.05269857    1.5843349    4.4636365 
 5152000    260.59301   -952.38364   -7040.8235   -2565.2731    31703.325     -29969.3  0.052698722    1.5843143     4.463521 
 5154000    276.40003   -952.38921   -9024.6462   -2557.4542    28452.986   -36434.704  0.052707055    1.5843804    4.4635676 
 5156000    298.71328    -952.3666   -8578.3134   -10918.521     20986.47   -38374.663  0.052708793    1.5843619    4.4635825 
 5158000     315.1668   -952.67419   -2589.8242   -4798.0375    19444.082    -40140.44  0.052710915    1.5843208    4.4635455 
 5160000    297.99969   -952.10575   -9772.4379   -3158.1562    27483.581    -36714.53  0.052711461    1.5843031    4.4634801 
 5162000    263.96692   -952.54217   -6938.0065    -5471.978    18748.119   -31711.402  0.052716658    1.5843481    4.4635892 
 5164000    202.80869   -952.77243   -4219.2411   -5320.9184    25386.789   -35086.865  0.052719755    1.5843413    4.4636198 
 5166000    308.17468   -952.80795   -3765.0339   -4157.1021    21670.222   -35712.351  0.052713467    1.5842663    4.4635321 
 5168000    292.06909   -952.57312   -6559.5665    675.40326    27727.373   -35551.568  0.052720869    1.5843265    4.4635084 
 5170000    320.02069   -952.84855   -3390.3142   -1295.0691    17456.407   -37896.521  0.052729615    1.5843121    4.4635304 
 5172000    293.70761   -952.53982   -365.94338   -9736.9138    22829.375   -39131.617  0.052723263    1.5842938    4.4635027 
 5174000    303.70491   -952.97895    -3125.864   -5621.9118    19894.209   -33802.871  0.052728409    1.5843266    4.4633961 
 5176000    294.51099   -952.09474    -2444.451    3713.2051    17305.887   -36932.869  0.052730123    1.5842955    4.4634653 
 5178000    259.40979   -952.72188    2357.6439   -1750.2333    25750.765   -34239.854  0.052732948    1.5843112      4.46354 
 5180000    251.20572   -952.55551    2574.4362   -3505.0978    18688.861   -40664.163  0.052733641    1.5842872    4.4634083 
 5182000     276.1318   -952.47281   -4060.3267    476.82272    19278.336   -36307.484  0.052728767    1.5842373      4.46338 
 5184000    308.35987   -952.59996   -8183.1992   -8154.3433    24907.188   -42611.029  0.052740982    1.5843508    4.4635429 
 5186000    303.34898   -952.80024   -5649.8565   -7855.5653    13191.782   -36199.482    0.0527403    1.5842948    4.4634372 
 5188000    324.80731   -952.93578   -6973.4139   -9362.8659    22442.812   -39423.755    0.0527428    1.5842555    4.4633689 
 5190000    328.57189   -952.89875   -4174.3757   -6639.8384    18907.769   -41727.819  0.052741223    1.5842786    4.4634434 
 5192000    280.96895   -952.09593   -5795.3167   -2687.9081    21951.826   -37227.315  0.052749525    1.5842797    4.4634448 
 5194000    308.00321   -953.07994   -4851.6604   -6098.8601    21772.211   -33504.582  0.052750668    1.5843301    4.4634592 
 5196000    266.22444   -952.79544     2179.487   -3131.2759    14233.429   -35665.196  0.052745689    1.5842353    4.4634167 
 5198000    315.78385    -952.3341   -8032.1668   -9257.7654     27268.57   -29869.389    0.0527499     1.584241    4.4634182 
 5200000     307.2351   -952.19367   -3004.1397   -7465.5709    22803.766   -31738.686  0.052757858    1.5843058     4.463526 
 5202000    266.29102   -952.40282   -6785.7433   -1187.2541    24687.381   -32478.445  0.052748833    1.5842608    4.4634396 
 5204000    282.83052   -952.19126    458.41695   -8280.5358    23388.377   -36416.758  0.052758933    1.5843035    4.4633554 
 5206000    332.26413   -952.91843   -2961.0698    171.99963    16757.105   -40052.317  0.052756861     1.584305    4.4634368 
 5208000    346.40612   -951.55368   -2678.3946   -1689.0928    21777.077   -34770.845  0.052759638    1.5842609    4.4635403 
 5210000    297.96472   -952.64834   -4732.2545   -9183.2485    19509.534   -35669.024  0.052770145    1.5842718    4.4633835 
 5212000    266.55961    -952.7525   -7839.4541   -8700.6265    20478.657   -41133.702  0.052761382    1.5842748    4.4634301 
 5214000    337.80076   -953.28471   -13875.177   -7564.6409    24777.467   -37966.059  0.052770294    1.5842844    4.4634944 
 5216000    332.66029    -952.1412   -2037.2059    1463.2688    17599.362   -38071.959   0.05277076    1.5843013    4.4634897 
 5218000     286.0124   -952.55737   -6209.6924   -6632.8648    24374.472    -33140.54  0.052771059    1.5842822    4.4634035 
 5220000    295.12407   -952.59392   -8524.3625   -7274.6048    23664.201   -43090.409  0.052771506    1.5842626    4.4633676 
 5222000    291.85424    -952.9315   -1462.7261    -5732.331    19711.013   -39754.639  0.052766608    1.5842401    4.4635659 
 5224000    347.89317   -952.67281   -2944.7843   -2467.3017    24745.802   -36018.692  0.052776108    1.5842439     4.463419 
 5226000    321.10003   -952.34372    1734.5183    339.57385    21192.123   -38948.035  0.052770778    1.5842057    4.4633268 
 5228000    280.45701   -952.71932   -2751.0837    -6264.973    18738.598   -38277.821  0.052776916    1.5842212    4.4635151 
 5230000    297.30839   -952.67244    -2828.593    -513.9439    15360.902   -37975.398   0.05278161    1.5842433     4.463492 
 5232000     294.0768   -952.66787   -8853.3719   -3548.2236    29211.047   -35937.857  0.052778629    1.5841538    4.4633332 
 5234000    288.27247   -952.67281   -10374.857   -9206.0566    28904.907   -37465.259  0.052789742     1.584239    4.4633982 
 5236000    293.97417   -952.21006   -2437.3663   -2773.0962    25208.885   -34676.479  0.052782974    1.5842005    4.4634713 
 5238000    289.18255   -952.30063   -5126.8451    -3066.277    30935.866   -29948.547  0.052784419    1.5841715     4.463327 
 5240000    266.95955   -952.64858    3003.0547    596.97934    17052.212    -36764.98  0.052786084    1.5842148    4.4633227 
 5242000    317.06658   -952.34873   -7857.7407   -1647.3009    18828.714    -40154.69  0.052782121    1.5841049     4.463412 
 5244000    292.32966   -952.59052   -2411.2512   -4107.5767    18053.763   -33563.346   0.05278433    1.5841617    4.4633737 
 5246000    325.09186   -953.04778   -241.34123    1719.1339    13701.159   -39522.922  0.052786714     1.584164    4.4633216 
 5248000     351.0026   -952.06789   -5171.1503    -6649.907    17491.486    -38511.52  0.052783177     1.584102    4.4633789 
 5250000    297.03033   -952.84989   -193.92757    842.13957    22129.478   -41275.639   0.05279576    1.5841636    4.4633113 
 5252000    338.82457   -952.49088   -6752.6984   -7438.2437    22263.911    -43286.45  0.052797653    1.5841376    4.4633464 
 5254000    306.06164   -952.42263   -5072.7136   -10172.446    19597.574   -38605.171  0.052795307    1.5841212    4.4633989 
 5256000    300.29653   -952.30939   -1990.6888    434.80261    23972.824   -41544.291  0.052808688    1.5841113    4.4633382 
 5258000    316.99639   -952.22641    3134.5717   -3933.5695    18688.788   -44145.713   0.05281083    1.5841314    4.4634225 
 5260000    261.07958   -952.54943   -4028.7363   -2946.1533    24830.391   -34849.486  0.052807733    1.5840855    4.4633982 
 5262000    274.82595   -952.41241     1017.576   -5053.9932    24544.367    -44447.33   0.05281786    1.5841085    4.4633523 
 5264000    291.98454     -952.638   -3435.0943   -9695.4297    19808.297   -36926.627   0.05282052     1.584131    4.4634654 
 5266000    315.90731    -953.1153   -3537.5525   -1766.4355    21758.133   -34110.641  0.052819037    1.5840581    4.4635056 
 5268000    311.04208   -952.38937   -2029.0173   -3988.4504    23184.594   -37308.037   0.05282582    1.5841022    4.4634379 
 5270000    290.77721   -952.28769   -911.76437   -9311.6498    17572.839   -39955.212  0.052827563    1.5840841    4.4633844 
 5272000    343.24764   -952.45707   -1001.6281   -1861.4321    18253.934   -45052.403  0.052826694      1.58402    4.4635464 
 5274000    290.59757   -953.04217      1145.11   -4399.6185    16148.047   -38108.127  0.052835856    1.5840778    4.4635598 
 5276000    332.93508   -952.73112   -4514.0076   -2830.4202    20133.231   -34941.939  0.052833167    1.5840297    4.4634014 
 5278000    313.35576   -953.08313   -11561.313   -6391.8135    21498.783   -37150.693  0.052839363    1.5840302    4.4636075 
 5280000    304.12259   -952.57841   -8678.9876   -10303.195    25697.619   -33050.672  0.052849237    1.5840146    4.4636851 
 5282000    307.95252    -952.5892   -6008.1462   -4528.2655    20558.085   -34587.314  0.052863502    1.5839448    4.4634873 
 5284000    302.92114   -952.64538   -4909.5595   -6909.7894    21662.524   -43109.655  0.052877859    1.5839179    4.4635419 
 5286000    324.53454   -952.85541   -4905.9652   -6449.7095    26370.279   -28122.466  0.052877948    1.5838983    4.4636441 
 5288000    306.01273   -952.26875    1153.5659   -3805.5377    18090.555   -34277.816  0.052887035    1.5839133    4.4635909 
 5290000    266.84117   -952.48191   -9074.7072   -596.39734    24396.994   -40912.792  0.052885666    1.5838806    4.4636213 
 5292000    279.74619   -952.80267    -3817.841   -4918.6051    27133.564   -39670.751  0.052892318    1.5838928    4.4636437 
 5294000    332.34565   -951.60263     226.6588   -1783.4559    28762.587   -38785.563  0.052895182    1.5839215    4.4637569 
 5296000    344.26447   -951.77413   -2989.0189    3326.4303     26712.89   -39367.568  0.052894899    1.5838449    4.4636471 
 5298000     291.8287   -952.65855   -11199.828   -6992.4022    22552.477   -43404.712  0.052899778     1.583876    4.4635949 
 5300000    301.13164   -952.68983   -124.38733   -6636.8113     20852.46   -38413.489  0.052901669    1.5838841    4.4637835 
 5302000    318.35683   -952.71679   -2040.4836   -5599.6268     25328.14   -37691.192  0.052895626    1.5838267    4.4636297 
 5304000    302.30605   -952.96347   -959.55713   -3174.0756    15322.817   -39713.202  0.052900191    1.5839363    4.4635407 
 5306000     263.6692   -952.33651   -1110.5564   -3526.0615    22111.643     -42914.9  0.052902217    1.5838586    4.4635851 
 5308000     268.0299   -952.38027   -5820.3323   -7857.5047    22052.493   -42327.721  0.052902499    1.5838934    4.4636508 
 5310000    315.32295   -952.70932    27.223978   -3147.1519    23297.536   -39515.293  0.052912577    1.5838924    4.4635579 
 5312000     292.6343   -952.77408   -10806.439   -10113.153    24903.555   -34120.004  0.052908752    1.5838662    4.4634869 
 5314000    351.31457   -952.66752   -2046.7807   -8656.4633    29256.516   -39418.028  0.052914841    1.5838839    4.4635411 
 5316000    296.49693   -952.59908   -6347.7035    702.61606    22284.522   -29759.834  0.052912656    1.5839064    4.4636665 
 5318000    301.52304   -952.01345   -10068.769   -7339.8265    26589.058   -35412.469  0.052909663    1.5838097    4.4634695 
 5320000    331.35632    -952.2498   -8089.6851   -2209.9728    20658.191    -41679.35  0.052914976    1.5838425     4.463509 
 5322000    295.45528   -952.82704    1961.4055   -3456.3412    28503.363   -34001.206  0.052916018    1.5838376    4.4636962 
 5324000    284.01133   -952.63746   -4758.7785   -1192.3671    15169.936   -37708.755  0.052925993    1.5838283    4.4636329 
 5326000    383.95837   -952.24925   -4830.0226   -5637.3216    29083.323   -40312.822  0.052930748    1.5837585    4.4635133 
 5328000    251.50055   -952.74882   -2932.9713   -3777.0986    24291.922   -39089.104  0.052951367    1.5837839    4.4637032 
 5330000    284.48615    -952.4727   -8335.7598   -7863.8297    24692.418   -35935.423  0.052962248    1.5837499    4.4637378 
 5332000    324.91886   -952.66217   -9593.0015   -7388.6583    24228.312   -41807.854  0.052972213    1.5836902    4.4636151 
 5334000    268.93194   -952.92537   -5862.7681   -4714.3744    20913.815   -35967.694  0.052995047    1.5836951    4.4636192 
 5336000    358.10264   -952.57705   -2122.0541   -2138.2939    26939.149    -38376.62  0.053001175    1.5836191    4.4637315 
 5338000    364.17575   -952.81349   -3482.7664   -3768.7326     22952.16   -36268.822  0.053012444    1.5836785    4.4637517 
 5340000    311.22497   -952.80998   -6058.4806   -3259.3737    12357.907   -38493.623  0.053018119    1.5836878    4.4636235 
 5342000    346.56542    -952.3695   -8423.5908   -6656.8821    23348.326    -45233.76  0.053011338    1.5835588    4.4636221 
 5344000    242.78878   -952.39892   -2377.9013     955.6798    18189.331   -39636.551   0.05301658    1.5836615    4.4637638 
 5346000    284.88966   -952.67355   -2898.5945    -2245.336    24447.639   -31006.731  0.053020368    1.5836265    4.4635737 
 5348000    295.41601   -952.85256   -6434.9287   -7896.8087    20410.559   -40796.937  0.053011083    1.5835848    4.4635498 
 5350000     265.5783   -952.44698   -6976.6774   -5814.9435    28448.084   -32344.029  0.053026321    1.5836063    4.4637549 
 5352000    293.49318   -952.62636   -4713.5999   -5443.2312    22128.299   -34281.783  0.053027725    1.5836256    4.4637581 
 5354000    302.52781   -952.89555   -2670.7312   -5647.7333    26409.056   -42083.837  0.053029198    1.5836059    4.4636755 
 5356000    317.88197   -952.12618      52.0201    -673.2864    25556.869   -40259.303   0.05303533    1.5836218    4.4637126 
 5358000    265.08483   -952.42495   -3277.6058   -6745.2566    22547.315   -39410.389  0.053036735    1.5836039    4.4637363 
 5360000    313.13224    -952.5839   -4814.6948   -5836.7075     17233.95   -40787.114  0.053039611    1.5835874    4.4636279 
 5362000    308.80758   -952.76987   -9548.3597   -4519.3816    21269.756   -37681.471  0.053037288    1.5835545    4.4636106 
 5364000    304.67964   -953.26045   -10969.738   -5432.8875    17668.851   -39360.154  0.053037696    1.5835731    4.4636134 
 5366000    371.21698   -952.24371   -2946.6951    1193.8366    23461.145   -38864.498  0.053042279    1.5835581    4.4636523 
 5368000    303.49867   -952.71837   -3376.8163   -5660.6625     18672.86   -35491.003  0.053036149    1.5835335    4.4636217 
 5370000    288.26921   -952.64916   -5042.1148   -5194.6318    16639.576    -34593.34   0.05303815    1.5835401    4.4635993 
 5372000    339.58903   -952.35525   -11173.297   -5713.9163     19732.43   -45461.145  0.053038422    1.5835148    4.4635469 
 5374000    288.96669    -952.8673   -7210.2352   -405.38507    16390.822   -38212.125  0.053047058    1.5835529    4.4636703 
 5376000    270.92361   -952.58334   -387.71864   -8088.0612    21549.394   -33059.867   0.05304965    1.5835204    4.4636545 
 5378000    299.94976   -952.28337   -7490.9229   -13680.297    30095.235   -37473.723  0.053044852    1.5834836    4.4635938 
 5380000    283.48948   -953.17513    2305.3496   -4245.3701    21032.065   -42253.104  0.053050661    1.5835398    4.4636823 
 5382000    309.65048   -952.30248    1916.7093    1141.5709     15660.34   -36871.698  0.053056636    1.5834924    4.4635973 
 5384000    329.26081   -952.48167   -5490.6577   -8083.8262    27658.053   -44653.835  0.053052092    1.5835157    4.4635545 
 5386000    293.99677   -952.57627   -1947.9473   -6003.4414    14528.519   -36337.234  0.053055597    1.5835317    4.4636087 
 5388000    259.20658   -952.74583   -12845.607   -9103.5289    18423.539   -40568.051  0.053051827    1.5834591    4.4636595 
 5390000    291.92052   -952.99713   -6292.3749   -7180.4979     29135.83   -39112.927  0.053060855    1.5835024    4.4635883 
 5392000    339.66258   -952.56386   -3467.3568   -5057.8753    14699.732    -36804.52  0.053059609    1.5835089    4.4635855 
 5394000    311.11212    -952.8917     -9067.49    -2753.318    27747.392   -41413.674  0.053050502    1.5834248    4.4635911 
 5396000    304.65499   -952.08153   -2506.2399   -2300.0042    21164.154   -33560.447   0.05306025     1.583519    4.4636466 
 5398000    245.34663   -952.66508   -234.92284   -4484.5497    24203.169   -31110.465  0.053060236    1.5834609    4.4635341 
 5400000    288.02962   -952.82528   -10358.847   -6690.0477    20290.375   -35774.731  0.053061084    1.5834468    4.4636379 
 5402000    340.32006   -952.25745   -7458.4163   -3748.6025    18585.728   -34105.762  0.053062967      1.58347    4.4636709 
 5404000    290.26659   -953.18333   -1374.2543   -2863.0633    21182.216   -42437.939  0.053062099    1.5834201     4.463534 
 5406000    328.97156   -952.84048   -6330.3138   -4243.3314    24361.186   -39967.468  0.053068427    1.5834817    4.4636011 
 5408000     295.8106    -952.4064   -7789.9073   -1549.6472    18676.926   -33948.354  0.053063348    1.5834471     4.463678 
 5410000    343.00878   -952.57158   -6844.3851   -5469.7038    19938.284     -37931.1  0.053064404    1.5833644    4.4635723 
 5412000    300.75217   -952.47324    -4726.414    1011.8813    20545.626   -41326.555  0.053069349    1.5834448    4.4636184 
 5414000    276.90871   -952.74239   -3975.2798   -9225.9557    24799.981   -36075.299  0.053065893    1.5833822    4.4635804 
 5416000    279.55278   -952.56687   -2539.4272   -4617.2682    24303.739   -41645.203  0.053068634    1.5834034    4.4634738 
 5418000    297.47783   -952.40284   -1374.3285   -2279.5099    17226.119   -38055.703   0.05307439    1.5834371    4.4634811 
 5420000    304.27319   -952.99805   -1158.7509   -1437.8307    24846.852   -31984.922  0.053071674    1.5833541    4.4634818 
 5422000    291.59378   -952.44662   -1149.2082   -4342.4714     14640.15   -38705.872  0.053078664    1.5834129     4.463511 
 5424000    321.73584   -952.44902   -9271.2678   -6856.1874    17819.289   -37675.917  0.053082242    1.5834095    4.4634531 
 5426000    272.81645   -952.59447    3106.1843   -795.54247    25661.534   -35043.998  0.053076361    1.5833782    4.4634565 
 5428000    293.25604   -952.29411   -2958.0182    -3641.014    18347.957   -33903.977   0.05308248    1.5834069    4.4634887 
 5430000     301.9729   -952.59436   -4757.8639    4162.4509    19592.108   -30265.184  0.053083198    1.5833653    4.4634503 
 5432000    318.90123   -952.58098   -5891.6892   -7689.3143    19474.467   -38884.434  0.053083997    1.5833603    4.4634192 
 5434000    272.52577   -952.57609   -7126.0517   -2976.8603    23569.658   -36392.412  0.053082124    1.5833763    4.4634186 
 5436000     267.9937   -952.72382    1563.5096   -3049.0629    19619.601   -39599.196  0.053084905     1.583335    4.4634032 
 5438000    232.20099   -952.12289   -1487.3498   -752.50498    21012.552   -36376.578  0.053089631    1.5834064    4.4635304 
 5440000    271.08234   -952.17906   -3939.0772   -8870.8701    27250.945   -36869.238  0.053088297    1.5833418    4.4634481 
 5442000    312.51685   -952.41974   -13149.499   -9348.6503    17056.616   -40126.152  0.053091271    1.5833305    4.4633553 
 5444000    281.46276   -952.32221   -6003.8382    173.34498    21602.692   -45168.505  0.053096284    1.5833633     4.463467 
 5446000    255.17212   -953.23744   -2029.1034   -3160.2352    23229.257   -32460.869  0.053092681    1.5833566    4.4634633 
 5448000    274.54823   -953.21306   -7469.6939   -8515.1447     24330.32   -33098.053  0.053095434     1.583373    4.4633825 
 5450000    290.88612   -953.13173    2138.8201    371.55941    19981.067   -41744.283  0.053097969    1.5833464    4.4633972 
 5452000     261.5564   -953.30802   -8938.1478   -2188.2644    18583.082   -40543.489  0.053093975    1.5833033    4.4634698 
 5454000    342.04288   -952.57604    -2880.299   -6476.8383    25570.164   -40740.412  0.053103782    1.5833495      4.46343 
 5456000    320.06927   -951.95669   -9854.3072   -15030.778    17976.215   -38199.308  0.053098199    1.5832987    4.4633626 
 5458000    297.77786   -952.43376   -5374.7727   -4247.4209    21367.918   -37020.334  0.053100489    1.5833144    4.4634331 
 5460000    329.44688   -952.68389    611.42542    1014.5349    25120.943   -33718.097  0.053106542     1.583338    4.4634879 
 5462000    268.90056   -952.65345   -215.04947   -6138.3186    13392.091    -36980.29  0.053105562    1.5833379    4.4633996 
 5464000     273.9419   -952.41869   -6690.3309   -142.12938    16252.038   -44599.394   0.05310787    1.5832516    4.4633863 
 5466000    318.78023   -952.48993   -1423.4107   -1759.6049    21356.158   -41371.111   0.05310945    1.5832936      4.46348 
 5468000    318.62375   -952.99529   -8352.1481   -963.34055    21610.536   -35563.441  0.053114402    1.5833096    4.4634125 
 5470000    317.91274   -953.07301   -1686.1078    177.60262    20954.535   -41478.223  0.053112044    1.5833036    4.4634709 
 5472000    296.14808   -952.61406   -7206.5067   -7097.3666    21922.123   -37782.598  0.053108613    1.5832258    4.4634164 
 5474000    288.22076   -952.36807   -1964.8888   -1888.2713    23495.047   -37063.883  0.053114738    1.5832588    4.4633783 
 5476000    280.28736   -952.68721   -850.54849   -9888.4408    27118.926   -38470.744  0.053111501    1.5832117    4.4634112 
 5478000    294.08086   -952.88683   -7336.7857   -1433.3751    21701.802   -38188.641  0.053116508    1.5832625    4.4634011 
 5480000     315.9269   -952.76558    2634.8612    4723.2985    22762.587   -38529.306  0.053113481     1.583248    4.4633112 
 5482000    296.48737   -952.19567   -2625.7795   -7293.5511    28452.197   -35924.936  0.053115111    1.5832149     4.463268 
 5484000    324.18675   -952.86839    1365.8596   -528.20419    24234.963   -37822.642  0.053124457    1.5833029    4.4634038 
 5486000    292.90163   -952.86549    3744.0577    1262.5456    28190.955   -35035.664  0.053119632    1.5832208    4.4632693 
 5488000    302.41646   -952.42557   -5187.8014   -2598.2456    33171.737   -43275.495  0.053123604    1.5832158    4.4631554 
 5490000    297.99977   -952.73229   -115.29032   -5872.3351     24076.37   -37688.666  0.053127495    1.5832912    4.4632952 
 5492000    340.53476   -952.76333   -3221.7838   -493.19506    24695.401   -38936.068   0.05312211     1.583202     4.463306 
 5494000    284.81592   -953.07746    4243.2298     -1015.34    19791.268   -36221.029  0.053129982    1.5832285    4.4632337 
 5496000     291.2875   -952.30722    1601.3595    1740.5945    19142.123   -47209.022  0.053131633    1.5832173    4.4631368 
 5498000    315.15476   -953.02399   -2795.6358   -1034.2207    26401.928   -38977.709  0.053125947    1.5832133    4.4632533 
 5500000    308.16027   -952.49686   -3310.9074   -1944.7833    19427.334   -33851.352  0.053138735    1.5832474    4.4632448 
 5502000    271.13719     -952.477    -2162.776   -386.80401     27437.89   -34363.011   0.05313255    1.5831862    4.4631028 
 5504000    380.82109   -952.65567   -2485.5518   -2459.9446    14612.748   -38988.333  0.053141723    1.5832248    4.4631909 
 5506000    236.12273   -952.49565   -8445.6111   -6847.3099    22865.792   -30569.746  0.053135545    1.5832009    4.4631961 
 5508000     342.0893   -952.29872   -2548.9149   -2600.2257    23527.442   -33863.712  0.053139679    1.5831737    4.4630728 
 5510000    306.81686   -952.73287    -7957.752   -7319.6514    25093.821   -39105.716  0.053138246    1.5831932    4.4630523 
 5512000    327.39891   -952.90725   -2989.1839   -8834.3189    29861.385   -29901.306  0.053141792     1.583214    4.4630872 
 5514000    282.45051    -952.5128   -3403.0276   -5673.9976    24962.577   -35945.735  0.053146123     1.583218    4.4630122 
 5516000    290.82888   -952.92755   -1884.4201   -7272.1986    26064.021   -37839.248  0.053142303    1.5831876    4.4629712 
 5518000     296.1788   -952.41149   -2796.6143   -3101.2078    19908.253    -38734.75  0.053148875    1.5831951    4.4629817 
 5520000    290.25751   -952.64304   -8760.1691   -6903.5679    23597.424   -46507.043  0.053158029    1.5832678    4.4630154 
 5522000    285.99653   -952.74891   -1616.0426   -4023.0995    26423.535   -39555.462  0.053156389    1.5833048    4.4631518 
 5524000    305.72939   -952.83145   -4235.1391   -6401.2144    20665.956   -43693.847  0.053159437    1.5832566    4.4630012 
 5526000    264.10424   -952.63857    1695.0045   -4906.0845    20374.194   -37995.958  0.053157949    1.5832429    4.4628931 
 5528000    337.81417   -952.42648   -3298.3683   -3183.0069    29148.063   -39595.472  0.053157898    1.5832242    4.4630297 
 5530000     313.8791   -952.56546   -3133.3355   -10159.984    17888.682   -34380.896  0.053153715    1.5832468    4.4630256 
 5532000    306.75926   -952.51187    2108.0976    1524.6037    20721.859   -42239.974  0.053150806    1.5832106    4.4628989 
 5534000    285.69867   -952.69651   -7708.0975   -6893.7743    25263.181   -41719.765  0.053152018    1.5831917    4.4629188 
 5536000     291.3761   -952.29647   -3427.3907   -4025.6433    18099.847   -40385.921  0.053154545    1.5832239    4.4629786 
 5538000    282.22667   -952.33644   -8800.3373   -7033.2418    22327.123   -36840.085  0.053158068    1.5831902    4.4629812 
 5540000    327.54246   -952.69404   -4065.3038   -7398.7063    23345.814   -38330.044  0.053155148    1.5832066    4.4629656 
 5542000    288.28804   -952.45937   -4053.5845    55.852823    19527.112    -37096.92  0.053156665    1.5831846    4.4629588 
 5544000    283.33472   -952.72243    -3322.287   -7976.5218    21360.616   -39278.032  0.053156367    1.5832036    4.4629449 
 5546000    277.39955   -953.09002   -3895.1609   -6132.2535    16619.172   -42508.661  0.053157916    1.5832064    4.4628722 
 5548000    286.87905   -952.50127   -849.08349   -3658.4658    20147.323    -34527.88   0.05315821     1.583166     4.462915 
 5550000    309.91316   -952.69637   -2553.6585   -5916.4518    28009.772   -35375.133  0.053163376    1.5832104    4.4628869 
 5552000    241.38633   -952.89794   -4863.3147   -5032.0253    20811.371   -41794.051  0.053160583     1.583189    4.4628935 
 5554000    325.82208   -952.47276   -5656.1311   -932.82258    26676.677   -39589.403  0.053166788    1.5831714    4.4629113 
 5556000    261.62475   -952.25858    6365.8667   -4761.6205    24945.118   -40420.547  0.053170485    1.5831721    4.4628551 
 5558000    250.65859   -952.44446    -3560.736   -1479.9005    21390.073   -38989.186  0.053168071    1.5831337    4.4629555 
 5560000     273.0642    -952.2074   -7329.0627   -1502.4672    25122.949   -39080.281  0.053175534    1.5831651    4.4629747 
 5562000    304.69994   -952.16442   -2092.7472   -3727.4824      20898.3   -35165.852  0.053177004    1.5831595    4.4629117 
 5564000    285.02459   -952.82094   -3720.6119   -2065.9305    17496.382   -41847.546  0.053177654    1.5831188    4.4629313 
 5566000     253.3408   -952.61673   -7520.7481   -2544.6592    21929.942   -37418.328  0.053184778    1.5831562    4.4629669 
 5568000    275.31993   -952.87579   -4580.2478   -5702.0431    25289.351   -45114.742  0.053179752    1.5831458    4.4629595 
 5570000    269.83428   -952.33038   -8764.6494   -2620.6724    19673.158   -39958.381  0.053181202    1.5831369    4.4629923 
 5572000    309.17191   -951.80836    172.14268   -4017.4171    17396.747   -39950.615  0.053182963    1.5831214    4.4630384 
 5574000    292.34144   -952.83256    -1507.829   -3667.2796    18091.643   -38573.757  0.053185179    1.5831319     4.463082 
 5576000    294.12208   -952.60255   -7690.3235   -5614.9376    22206.645   -39054.595  0.053190543    1.5831643     4.463023 
 5578000    249.91915   -952.59081   -1730.3703   -7216.2989    20427.451   -37686.855  0.053186697    1.5830978     4.463036 
 5580000    321.12109   -952.97253   -7478.6135    -3328.422    26718.453   -37029.673  0.053185639    1.5831542    4.4630905 
 5582000    243.30704   -952.61803   -9514.0808   -7695.0291    20533.438   -34125.159  0.053196274    1.5831418    4.4630778 
 5584000    289.51731   -952.37224    -5985.143   -8247.5125    29075.547   -36212.511  0.053192602    1.5831158    4.4631344 
 5586000    237.99003   -952.60484   -6450.4392   -9139.3842    19417.704   -39680.038  0.053194954      1.58317    4.4631185 
 5588000    324.61539    -952.8736   -10260.205   -8445.8257    27719.818   -33460.828  0.053199603    1.5831271    4.4630761 
 5590000    292.87212   -952.45232   -13727.774   -4952.4197      30222.1   -37521.184   0.05319578     1.583114    4.4631449 
 5592000    266.98534   -952.65443   -13829.102   -3983.9798    19622.022   -34483.096  0.053205005    1.5832125    4.4632006 
 5594000    293.78022   -951.96838   -5329.1972   -8916.2282    19032.986   -35617.329  0.053201067    1.5831443     4.463101 
 5596000    290.42563   -952.12541   -4721.9488   -2835.8857    26023.817   -34607.867  0.053207732    1.5831023    4.4630788 
 5598000    305.90441   -952.43366   -11562.043   -9816.1039    22898.303   -36984.361  0.053212818    1.5831779     4.463232 
 5600000    301.49684   -952.88969   -7893.5191   -4695.7113    25345.259   -38373.581  0.053218476    1.5831222    4.4630892 
 5602000    296.23307   -952.58074   -4051.2747   -6518.6796    24989.275   -39214.629  0.053221866    1.5831108    4.4631537 
 5604000    294.03174   -952.10658   -10407.321   -7779.5245    14072.806   -36992.622  0.053222535    1.5831674     4.463262 
 5606000    321.21065   -952.91519    684.02027   -4926.5154    21347.873   -37510.047   0.05322221    1.5830807    4.4631411 
 5608000    308.89176   -952.09415   -7362.3652    -3094.346    25719.728   -33745.014  0.053222602    1.5831059     4.463174 
 5610000    288.34726   -952.54036   -8642.5848   -1008.2851     26232.65     -38190.9  0.053230412    1.5832328    4.4632726 
 5612000    285.47965   -952.68053   -4740.4817   -12164.419    23833.828    -32874.35  0.053234028    1.5831591    4.4632569 
 5614000    305.62858   -952.60364   -8274.3885   -3086.4101    21152.206   -37302.016  0.053228957    1.5831021    4.4632176 
 5616000    290.53759    -952.6602   -7154.1702   -2564.3621    22789.216   -42224.262  0.053232694    1.5831696    4.4632745 
 5618000     267.0776   -953.15646   -3077.3056   -5360.5104    18854.118   -31170.238  0.053230995    1.5831482    4.4633246 
 5620000    326.40799   -952.51359   -3232.4352   -3313.7051    23927.194   -43957.185  0.053234033    1.5831324    4.4632595 
 5622000    293.68742   -952.47777   -5769.2623   -12024.901    17927.187   -38217.128  0.053232456    1.5831503    4.4633016 
 5624000    281.80854   -952.64982   -6265.2175   -6591.9103    27400.007   -36177.527  0.053231873    1.5830764    4.4632087 
 5626000     326.5461   -952.93049   -6593.7703   -4877.5405    23939.798   -37045.585  0.053238197    1.5832147    4.4632412 
 5628000    284.50466   -951.99073   -8119.3403   -8592.2177    25248.246   -39457.168  0.053240474    1.5831985    4.4632921 
 5630000     302.9466   -952.55247    131.69013    1947.1684    28761.851   -32786.581  0.053236085    1.5831096    4.4632293 
 5632000    267.18632   -953.17247   -9355.8087   -6886.3138    26258.816   -36213.368  0.053243149    1.5831603    4.4632423 
 5634000     284.7694   -952.80176    1178.2905   -1269.5189    15801.419   -36015.431  0.053243566    1.5832126     4.463329 
 5636000    303.01174   -952.54932   -28.777989   -2724.6716    20752.589   -37569.647  0.053245872    1.5831229    4.4633428 
 5638000    297.66161   -952.71311   -8796.5082   -8716.2674    25188.431   -39311.219   0.05324829    1.5831509    4.4632728 
 5640000    235.92517   -952.64784   -6185.2609   -3823.9919     19835.75   -30991.605  0.053251064    1.5831609    4.4632789 
 5642000    300.20838     -952.728   -6144.7282   -9246.4222    24359.474   -30848.206   0.05325813    1.5831406    4.4633104 
 5644000    311.97166   -952.97871   -6885.9912   -4301.8569    22192.693   -33817.561   0.05325641    1.5831409    4.4632907 
 5646000     307.2092   -952.28072   -2807.4181   -7854.2074    24059.014   -39411.116  0.053263223    1.5831374    4.4632355 
 5648000    266.48325   -952.75172   -1025.7478    -2822.769     24946.58   -41630.532   0.05325599    1.5831209    4.4633498 
 5650000    298.24033   -952.56705   -3205.6603   -3485.9931    23122.727   -32980.014  0.053261155    1.5831474    4.4633391 
 5652000    329.12709   -952.59685   -8917.0439    2966.1219    20002.271   -46566.215  0.053266936    1.5831272    4.4632671 
 5654000    304.64187   -952.57192     1745.503    -7407.752    17825.692   -29457.305  0.053259761    1.5830708     4.463312 
 5656000    292.85808   -952.48318   -6837.8302   -6781.0981    27620.168    -38429.97  0.053269607     1.583108    4.4632567 
 5658000    289.98533   -952.89013   -8558.5095   -4177.7951    16385.733   -41682.566  0.053283482    1.5831928    4.4632748 
 5660000    282.23913   -953.11969   -3830.3021   -8309.6587    24742.919   -39278.913  0.053276616    1.5830724    4.4632761 
 5662000    312.62109   -952.94123   -6466.2379    -8481.685    21615.883   -38633.983  0.053279709    1.5831467    4.4633435 
 5664000    350.76783   -952.39634   -6201.8025   -6448.5511     21582.45   -33449.576  0.053292151     1.583134    4.4632171 
 5666000    308.75135   -952.36511   -10278.188   -537.88213    25234.623   -43393.763  0.053289795    1.5831067    4.4633026 
 5668000      309.854   -952.66338    724.88906   -1803.7955    21934.979   -36096.368  0.053291643    1.5831291    4.4633472 
 5670000    330.56306   -952.12297   -3475.0857   -7054.4472    25022.191    -41918.77  0.053295926    1.5831159    4.4632434 
 5672000    330.46663   -952.21907    7981.9271   -315.59727    22592.727   -39327.203  0.053295368    1.5830976    4.4632747 
 5674000    331.90764   -952.89063   -5552.0487    2330.4784    24618.674   -35023.179  0.053299166    1.5831186    4.4633522 
 5676000    286.79049   -952.77363   -3899.4913    -7363.907    22858.987   -37517.665  0.053296653    1.5831194    4.4632979 
 5678000    258.47259   -952.28409   -5856.8242   -6656.3043    19405.553     -36708.2  0.053301782    1.5831018    4.4633014 
 5680000    237.73246   -952.58211   -14758.796   -8036.9215    23604.842   -38047.125  0.053298079    1.5831346    4.4634629 
 5682000    290.01555   -952.59575    8855.3405    4577.9673    17510.887   -38939.436  0.053307488    1.5830931    4.4633474 
 5684000    302.77473   -952.50243   -5520.7763   -36.834608    23718.485   -32770.972  0.053300585    1.5830673    4.4633158 
 5686000     281.7725   -952.04896   -8391.6293   -9908.5321    26054.766   -40044.838  0.053303704    1.5830713    4.4633831 
 5688000    335.82491    -952.7903   -2018.1739   -2507.0174    24736.704   -39801.814  0.053313058    1.5830864     4.463371 
 5690000    364.15411   -952.56702   -11326.261   -4155.8729    24375.118   -34518.056  0.053303832    1.5830428    4.4633501 
 5692000     299.5524   -952.20357   -4286.6315   -7430.0741     21321.32    -39046.23   0.05330815    1.5830481    4.4633612 
 5694000    252.55034   -952.23842   -3308.0257   -888.86984    25825.155    -37770.67  0.053311329    1.5830746    4.4633807 
 5696000    283.67235   -953.00308   -2988.3293   -6461.4826    20091.846    -39358.99  0.053306857    1.5830251    4.4634322 
 5698000    359.06623   -952.00049     3436.365     -7695.56    25682.887    -46906.29  0.053308648    1.5830617     4.463408 
 5700000    294.75924   -952.69752   -126.58927     421.6741    19226.441   -37630.162   0.05331481     1.583064    4.4633996 
 5702000    311.89998   -952.87601   -2903.3124     2280.973    26082.834   -40366.753  0.053312984    1.5830197    4.4634639 
 5704000    268.15276   -952.56894   -4474.6413   -7787.4366     21251.72   -39018.762  0.053318366    1.5830595    4.4634524 
 5706000    249.97768   -952.25383   -6381.0649   -5708.8571    24193.746     -40606.2  0.053321261    1.5830012    4.4633106 
 5708000    306.51614   -952.51197   -3736.2609   -622.61597    31957.697   -42375.627  0.053322753    1.5830698    4.4634774 
 5710000     299.0222   -952.56088   -5864.2584   -6102.3393    24199.382   -32126.686  0.053324378    1.5830653    4.4634724 
 5712000    318.86081   -952.96894    -3348.931   -610.22099    22968.738   -45189.153  0.053325544    1.5830191    4.4633089 
 5714000    287.03558   -952.70571   -12251.072   -7206.9405    28071.354   -39912.279  0.053324871    1.5830339     4.463333 
 5716000    272.69665   -952.98615    1949.6754   -7500.1563    23763.812   -32772.767  0.053329243    1.5830394    4.4634463 
 5718000    272.67477   -952.78974   -7145.9889   -6328.6386    23874.237   -36415.187  0.053334222    1.5830422    4.4633357 
 5720000    295.13177   -952.90065   -2105.5037   -2656.0554    19165.474   -43194.783  0.053336309    1.5831006    4.4633024 
 5722000    297.21387   -952.22581   -13258.377   -3943.3263    25924.214   -39879.232  0.053336289    1.5830487    4.4633215 
 5724000     254.4909   -952.37325   -4287.3348   -8838.3301    27922.995   -40123.248  0.053343659    1.5830328    4.4633429 
 5726000    342.23192   -952.58224   -6726.3465   -4628.3781    25770.583   -34081.997  0.053341693    1.5830594    4.4633252 
 5728000    279.31486   -952.37078   -2531.9638    2498.4775      17158.5   -30628.226  0.053347595    1.5830656    4.4632789 
 5730000    283.15981   -952.55644   -7593.4544   -11612.929    19656.557   -37611.138  0.053352984    1.5830569    4.4633959 
 5732000    302.30363   -952.58827   -2975.8854   -1076.6364    14290.512   -36888.346  0.053353293    1.5830775    4.4634469 
 5734000    327.39298   -952.52287   -5806.0752   -6104.2984    25386.176   -40326.193  0.053350662     1.583004    4.4632477 
 5736000    317.75354   -952.40887   -5865.7201   -5497.2217    18720.988   -47667.451  0.053362087    1.5830678    4.4632601 
 5738000    345.99221   -952.87728   -8769.1863   -10520.043    22455.255   -34836.786  0.053358145    1.5830493    4.4633793 
 5740000    311.96588   -952.43564   -4375.2277   -2191.0756    31209.038   -32019.907  0.053359349    1.5830206    4.4632826 
 5742000     267.5179   -952.95826   -9311.9417   -4238.4224    22175.732   -37302.403  0.053364566    1.5830577    4.4631657 
 5744000    319.83541   -953.09396   -4144.1795   -7739.6981    25564.234   -40202.389  0.053364004    1.5830176    4.4633953 
 5746000    269.68001   -952.14898   -10752.286   -1519.1079    22278.638   -37231.285  0.053366822    1.5830169    4.4633945 
 5748000    314.23644    -952.8343   -7365.9846   -8524.2867    19564.821   -39455.791  0.053372405    1.5830576    4.4632685 
 5750000    291.55291   -952.47597     385.7853   -3421.0519    17054.991   -44363.697  0.053371712    1.5830176    4.4633056 
 5752000    295.81456   -953.09387   -4931.4257    3239.7997    25590.658   -36334.717  0.053376857    1.5830391     4.463397 
 5754000    304.04052   -952.64491   -2628.4154   -2624.0165    21088.397   -43681.891  0.053379664    1.5830526    4.4633337 
 5756000    305.70004   -952.93757   -2020.8206    316.68156    27665.025   -35592.686  0.053373893    1.5830445    4.4631961 
 5758000    264.06632   -952.82476   -7854.4703   -4378.1227    25245.088   -38649.406  0.053379136    1.5830294    4.4633015 
 5760000    289.48327   -952.91852     1281.319   -5895.1289    21353.046   -36626.824    0.0533793     1.583077     4.463499 
 5762000    330.54838   -952.73185   -2854.4249    -6491.625    20446.155   -33957.252  0.053378882    1.5830456    4.4632924 
 5764000    248.51675   -952.89423   -5147.3514   -6124.5709    24682.911   -38681.816  0.053385803    1.5830265    4.4632214 
 5766000    299.01293   -952.84193   -3211.0202   -4889.3976    19292.842   -32986.693   0.05338325     1.583052    4.4634767 
 5768000    320.66581   -951.91995   -8383.7879   -2753.2827    17230.386   -42934.176  0.053387967     1.583073     4.463379 
 5770000    303.10135   -952.68613   -6415.5198   -1563.8481    19384.205   -37311.983  0.053389413    1.5830803     4.463256 
 5772000    307.63468   -952.43035   -236.30926   -524.32303    23336.731   -30030.472  0.053389735    1.5830713    4.4633113 
 5774000     312.1997   -952.28919   -8512.3285   -9864.4763    21821.438   -31507.192  0.053388619    1.5830135    4.4633854 
 5776000    295.06018   -952.38681   -3425.5257    -2849.698    24541.597   -33119.728  0.053390023    1.5830599    4.4633677 
 5778000    287.85641   -952.47634   -9714.9602   -6612.5313     16088.89   -39269.037  0.053388776    1.5830398    4.4632729 
 5780000    347.96527   -952.11824    -5950.148   -8827.9968    16303.201   -35863.912  0.053390795    1.5830315    4.4633127 
 5782000    304.47892   -952.65911    1253.2385   -8721.7779    26030.314   -37141.545  0.053399181    1.5830375    4.4634105 
 5784000    340.59663   -952.75016    -4786.443   -5578.9238    20762.856   -36561.817  0.053396616    1.5830352    4.4632992 
 5786000    295.43914   -952.28215   -5581.3049   -5318.1902    22251.558   -39421.039  0.053401189    1.5830474    4.4632591 
 5788000    277.17883   -952.08625   -11746.679    -10323.55    21988.149   -33930.404  0.053401575    1.5830262    4.4634188 
 5790000     281.0605   -953.03896   -6259.2415   -4630.7453    25562.794   -29020.389  0.053400204    1.5830054    4.4633751 
 5792000    269.97453   -952.55982   -5635.5547   -8532.8312     24598.35   -37999.821   0.05341115    1.5830338    4.4632835 
 5794000    281.48048   -952.34293   -6407.9603   -4093.9051    22748.911    -40279.86  0.053407093     1.583019    4.4633467 
 5796000    304.56445   -952.84348   -3371.4952   -2356.9006    24097.592   -38659.943  0.053402092    1.5830149    4.4634039 
 5798000    293.42833    -952.4256   -4319.5689   -3375.5301    19065.584   -36177.803  0.053414316    1.5830726    4.4633561 
 5800000    392.23016   -952.42286   -6995.4763   -5675.8349    18124.412   -35467.874  0.053416392    1.5830253    4.4632798 
 5802000    276.34035   -952.26724    -8284.181   -3668.2929    23929.249   -40004.399  0.053414648    1.5830086    4.4634529 
 5804000    319.09263    -952.1633    -6302.164   -3416.0284    23496.972   -26960.232   0.05341397    1.5830167    4.4634222 
 5806000    276.56879   -952.57799   -2492.9965   -1103.5643    22779.223   -37915.033  0.053415881    1.5830057    4.4632217 
 5808000    294.41082   -952.86033   -10272.529   -8807.2522    15262.017   -36567.737  0.053416732    1.5830345    4.4634137 
 5810000    290.75721   -952.94837   -10326.122   -8164.5522    21453.132   -27337.061  0.053415652    1.5829747    4.4634463 
 5812000    334.41967   -952.74859   -2287.7736   -6862.4811    22953.817   -31756.839  0.053420169    1.5829975    4.4633158 
 5814000    332.96208   -952.24932   -9902.3389    180.49053    19214.303   -39019.299  0.053421976    1.5829976    4.4633614 
 5816000    251.77865   -952.37715     2883.509   -5428.9202    22689.541   -39060.448   0.05343121     1.583018    4.4634786 
 5818000    325.67939   -952.41222   -3789.6029   -5175.3547     27435.91   -41894.694  0.053439143    1.5830154    4.4634277 
 5820000    325.47011   -952.35102   -6866.9316   -5193.1498     20968.77   -31733.092  0.053429541    1.5829755    4.4634187 
 5822000    289.40887   -952.28276    1997.7351   -7276.6589    27160.425   -35477.946  0.053434372    1.5829511    4.4634041 
 5824000    356.52179   -952.43596   -6564.5145   -6790.7539    26055.184   -33474.907  0.053444941    1.5830133    4.4635391 
 5826000     340.1851   -952.76713   -10339.958   -7225.6121    22661.591   -37054.141  0.053441899    1.5830297    4.4635484 
 5828000     317.2305   -952.83007   -1781.2651   -11970.041    20247.672   -34619.249  0.053443129    1.5829719    4.4634423 
 5830000     279.3587   -952.52184   -8491.1516   -4465.3689    26837.021   -36146.024  0.053443409    1.5829753    4.4634368 
 5832000    352.09867    -952.2802   -1116.6128   -4354.9748    19199.862   -32033.193  0.053447099    1.5830328    4.4635526 
 5834000    304.11304   -952.32133   -6642.0773   -7643.8088    22981.155   -37427.876  0.053448903    1.5830351    4.4635586 
 5836000    286.62709   -953.66886   -1667.9797   -5567.0036     22182.68   -37408.346  0.053456282    1.5830571    4.4635828 
 5838000    288.44208    -952.7084   -5435.9806    -3046.899    18983.656   -37919.556   0.05345495    1.5830088    4.4635249 
 5840000    296.78672    -952.2561   -6415.1287    -7514.693    21893.842   -40751.246  0.053452994    1.5830148    4.4636262 
 5842000    261.66001   -952.30949   -2104.0612   -3694.2352    26806.318    -33614.53  0.053468412    1.5830692    4.4636327 
 5844000    281.96662   -952.92499   -1504.9515    3583.6636    24541.163   -33387.255  0.053465287    1.5830605    4.4635799 
 5846000    319.54469   -952.71619    2841.6809   -4582.1297    22024.171   -39944.408  0.053466975    1.5830362    4.4636669 
 5848000    302.78865   -953.45595   -5082.5715   -2416.2754    23122.701   -38166.226   0.05346953    1.5830626    4.4636394 
 5850000      295.345   -952.72917   -4791.6783      800.523    23628.647   -34335.785  0.053469678    1.5830298    4.4635887 
 5852000    277.97318   -952.84657   -6838.7319   -2799.9493    22440.337   -39469.008  0.053471811     1.583034     4.463555 
 5854000    287.94518   -953.23875    -4946.181   -2992.2224    27757.031   -34707.641  0.053476598    1.5830235    4.4635955 
 5856000    277.84573   -952.53687   -5222.1962   -1487.2265    21052.745   -34519.711  0.053478028    1.5830181    4.4636082 
 5858000    264.03383   -952.50134   -4237.8826   -8294.4895    21410.097   -39122.494  0.053475978     1.583041    4.4635697 
 5860000    305.32101   -952.51753   -3162.6207    840.29414    20429.441   -43829.834  0.053479147    1.5829986    4.4635496 
 5862000    277.69896   -953.05157    2380.0359    -2594.366     25742.93    -37285.95  0.053481037    1.5830275    4.4637181 
 5864000    322.78887   -952.64517    3523.8887   -8715.8925    22878.724   -37477.411  0.053480551    1.5830086    4.4635985 
 5866000    293.17875   -952.52441   -7472.0189   -2397.9966    20848.855    -40964.16   0.05348349    1.5830063    4.4635292 
 5868000    282.72599    -952.7598   -187.38965   -837.24529     24030.65   -39389.254  0.053482093    1.5829751    4.4636075 
 5870000    309.45932   -952.87658   -7785.5113   -6708.1266     16704.25   -33039.547  0.053486066    1.5829831    4.4636887 
 5872000    328.57671   -952.26145   -16464.223   -9008.4242    24103.091   -42479.428  0.053486743    1.5830013    4.4635676 
 5874000     279.7108   -952.43792   -5421.1196   -6667.9083    23118.415   -37454.836  0.053486994    1.5829712    4.4637342 
 5876000    294.32796   -952.34323     1413.432   -2280.2889    26419.006    -40124.32  0.053487523    1.5829358    4.4637164 
 5878000    323.56917   -953.05564   -5605.0776   -3159.6728    25537.932   -36549.311   0.05349637    1.5829824    4.4636117 
 5880000    297.45237   -952.17013   -1346.1932   -6345.8387     20065.21   -38375.461  0.053492956    1.5829407    4.4636909 
 5882000     255.4335   -952.70218   -6323.4713   -7728.1865    18746.039   -36957.459  0.053492996    1.5829375    4.4637581 
 5884000    278.67063    -953.0666   -1503.4804    1585.3493    18481.632   -38709.094  0.053495253    1.5829177    4.4636664 
 5886000    291.83718   -952.57083   -8666.6099    3105.5243    22717.442   -39669.369  0.053497832    1.5829093    4.4635788 
 5888000    266.42231   -952.30216   -5958.1749    -217.9073    23743.365    -43535.63   0.05349611    1.5828898    4.4636905 
 5890000    278.61593   -952.45521    944.20763   -5019.4301     17799.75   -40522.757  0.053493689    1.5828706    4.4636839 
 5892000    256.99042   -952.92658    -1170.775    1306.2391    25549.342   -38963.511  0.053498547    1.5828633    4.4634878 
 5894000    234.94183   -952.85206   -8800.4519    -12040.25    21792.557   -34875.017  0.053498856    1.5829149    4.4636961 
 5896000    337.66403   -952.35237   -4208.8483   -6362.5148    21494.953   -33901.183  0.053495401    1.5828834    4.4636991 
 5898000     250.5648   -952.55593   -8752.3664   -3830.0788    26477.202   -31567.344  0.053497547    1.5828543    4.4636225 
 5900000    355.55472   -952.90158   -11080.266   -8028.9963    25673.793   -38606.252  0.053501536    1.5828824    4.4636467 
 5902000    293.20545   -952.96559   -7378.8799   -3746.5165    28023.824   -42125.194  0.053502139    1.5829145    4.4637341 
 5904000    250.00731   -953.07037   -10122.461   -6626.3005     20781.17   -36040.364  0.053504204    1.5829129    4.4637114 
 5906000    334.02307   -952.35442     5955.705   -331.64667    18948.713   -35613.963  0.053509017    1.5829027     4.463609 
 5908000    242.47079   -952.60588     -5947.11   -2488.2996    22956.363   -35950.524  0.053505363    1.5829113    4.4636745 
 5910000     281.6294   -952.03183   -6434.7348   -7368.0857    25486.395   -26700.306  0.053510315    1.5829166    4.4637138 
 5912000    312.04822   -952.63957    -6547.129    4012.3223    22622.597   -38511.512  0.053508518    1.5829211    4.4635916 
 5914000    330.49345    -952.2973   -1049.6742   -4070.4769    26745.603   -35693.493  0.053510171    1.5829261    4.4636253 
 5916000    276.71186   -952.89608    749.41415   -6886.7485    23211.895   -41020.469  0.053514151    1.5829116    4.4636277 
 5918000    299.74975   -952.44276   -4824.3777   -2671.0895    19735.834    -32287.46   0.05351733    1.5829243    4.4636044 
 5920000    370.76667   -952.91602   -4156.5476    1704.5954    21209.863   -35987.036  0.053516163     1.582935    4.4635689 
 5922000    316.32124   -952.21657    878.52337   -7124.0982    16598.753   -32587.664    0.0535146     1.582927    4.4635712 
 5924000     267.3598   -952.65909   -9179.8054   -2896.4495    21679.139   -39858.064  0.053523407    1.5829259    4.4635664 
 5926000    280.11876   -952.81652    2454.1584   -1460.8595    13413.909   -33424.006  0.053520276    1.5829397    4.4636093 
 5928000     306.8854   -952.79028     1833.245   -7696.8211     22651.33   -38018.179  0.053517163    1.5828864    4.4635307 
 5930000    291.22737   -952.28425   -4919.3591    -3749.866     28556.38   -34681.053  0.053524054    1.5829436    4.4635518 
 5932000    292.33867   -953.04295   -4111.5529   -8255.8037    21898.802   -36616.711  0.053524958    1.5829853    4.4636435 
 5934000    270.51277   -952.87434   -11442.867   -6496.1411     19437.05   -36343.284  0.053522376    1.5829243    4.4635911 
 5936000    302.07102   -952.60047   -1165.1249    3185.5167    23541.744   -34990.681  0.053527627    1.5829163    4.4634614 
 5938000    303.98392   -952.38966   -300.74198   -3338.2033    24902.442   -37981.423   0.05352635    1.5829166    4.4635999 
 5940000    325.83738   -952.28455   -6535.5097   -9381.3177    16153.762   -32288.414  0.053525732    1.5829275    4.4636338 
 5942000    258.57879   -952.67234   -1086.6377   -2905.2601    23647.374    -37795.98  0.053527862    1.5828994    4.4635038 
 5944000    311.02295   -952.73578   -2993.7718      493.662    20595.836   -32845.378  0.053530049    1.5828901    4.4635642 
 5946000    302.06367   -952.39322   -4484.0901    308.09107    22671.044   -33550.695  0.053533847    1.5828559    4.4636181 
 5948000    314.00101   -952.74104    1178.9042   -4479.3051    26134.998   -34645.509  0.053533643    1.5828819    4.4635469 
 5950000    263.03522   -952.85298   -8809.4743   -9776.4254    13091.867       -35888  0.053540031    1.5829116    4.4634965 
 5952000     263.6268   -952.95653     -3817.94   -3632.8845    22440.096   -38291.981  0.053531901    1.5828225    4.4635385 
 5954000    272.55319   -952.22167   -1813.6039   -442.15828    23720.248   -26262.798  0.053537594    1.5828656    4.4635488 
 5956000    245.70838    -952.3098   -3491.1536    -6903.901    20313.229   -43181.836  0.053537877    1.5828596    4.4634429 
 5958000    331.53323   -952.10279    -2769.871   -5141.5288    17468.253   -35814.681  0.053532697    1.5827989    4.4635159 
 5960000    261.52919   -952.74551   -2124.8129   -2569.5521    14961.419   -39125.079  0.053541291    1.5828764    4.4635449 
 5962000    303.27897   -952.73389   -5674.5327   -7791.6093    17708.088   -35458.158  0.053539302    1.5828595    4.4635111 
 5964000    289.93306    -953.0221    -3974.054   -8560.8896    19270.115   -34750.386  0.053535535    1.5827743    4.4634518 
 5966000    303.87469   -952.53686    2342.0655   -6365.2553    18622.242   -38032.161  0.053540316    1.5828376    4.4635247 
 5968000    330.25665    -952.1419   -1690.5469   -7718.8058    20981.963   -35644.348  0.053539838    1.5828243    4.4634785 
 5970000    303.53528   -952.24534   -4167.3303   -6876.8922     26421.35   -40893.924  0.053541038    1.5828368     4.463434 
 5972000     283.9915   -952.51918   -102.95521   -9812.7595     19916.04   -35961.152  0.053539875     1.582875    4.4634805 
 5974000    245.56045   -952.11469     395.8132   -5075.2076    21025.613   -30035.053  0.053545931    1.5827861    4.4633463 
 5976000    270.18589    -952.2857   -4650.2852   -11082.174    21946.021   -35743.522  0.053541474    1.5828609    4.4634382 
 5978000    321.23027   -952.52492   -7028.0877    -3279.627    13582.565   -36067.766  0.053546566    1.5828696     4.463369 
 5980000    318.45387   -952.49774    -10338.88   -2789.0876    20107.088   -37001.353  0.053544152    1.5828069    4.4633371 
 5982000     303.1259   -952.02135    1708.5372    2656.1169     23762.56   -43154.192  0.053542019    1.5828449    4.4633925 
 5984000    298.86003   -952.30369   -7364.1726   -4335.0256    20347.385   -31660.106  0.053547415    1.5828831    4.4634201 
 5986000    285.21684   -953.07152   -4417.6992   -7602.8118    22931.469   -34283.402  0.053544643    1.5828184    4.4633232 
 5988000    239.04636    -953.1237   -1613.8044   -3094.7675     22221.37   -34290.814  0.053544024    1.5828213     4.463298 
 5990000    268.82184   -952.65314   -4171.0988   -3959.6991    16007.288   -30763.711  0.053550148    1.5828596    4.4634131 
 5992000    336.76967   -952.70139   -5340.4686    2730.3935    16814.745   -36507.974   0.05354889    1.5828007    4.4632622 
 5994000    251.75657    -952.6254    -1661.397   -9085.1876    28691.245   -43830.168  0.053546436    1.5827683    4.4632709 
 5996000    306.02716   -952.61587   -1299.3118    2139.3078    20928.862   -42751.165  0.053549022    1.5828207    4.4633605 
 5998000    304.53589   -952.73685    -3569.825    4202.0934      24951.7   -41547.734  0.053555787    1.5827899    4.4633209 
 6000000    300.61096   -952.63716   -2354.7531   -9700.3614    20536.875   -36021.931  0.053559566    1.5828492    4.4633551 
 6002000    324.63832   -952.76497   -6393.9619   -1540.5654    21579.901   -37557.923  0.053559144    1.5827934    4.4632831 
 6004000    341.01084   -952.87775   -7491.7278   -6012.3057    23297.652   -41341.158  0.053557687    1.5827495    4.4633324 
 6006000    283.37659   -952.45687   -11945.961   -10527.432    21800.946   -40279.494   0.05355718     1.582811    4.4632926 
 6008000    264.02969   -952.48209   -473.49637    7513.7226    25437.903   -38943.255  0.053561494    1.5828259    4.4633403 
 6010000    275.24958   -952.79363    635.14453   -3270.6229    18047.021   -38993.842  0.053556318    1.5827908    4.4633396 
 6012000    390.65456   -952.92337   -4193.5082   -3757.1531      21305.6   -38389.148  0.053554142    1.5827546    4.4633032 
 6014000    280.11304   -952.46766   -5181.9443   -7594.9917    21766.178   -40539.803  0.053554467    1.5827277    4.4632463 
 6016000    329.78246   -952.70355   -1839.4207    -12768.95    22675.259   -40649.407   0.05355652    1.5827925    4.4633458 
 6018000    306.95127   -952.43296   -3841.7055    5549.3273    20598.383   -41402.034  0.053551707    1.5827219    4.4633225 
 6020000    286.92984   -952.34386     5724.279   -2358.3584    23551.343   -34589.906  0.053557511      1.58275     4.463275 
 6022000    269.20913   -953.02318   -2437.8222    -5138.793    22501.341   -40159.759  0.053557331    1.5827668    4.4632573 
 6024000    260.31124   -952.87686   -5292.4017   -4631.5428    24219.323   -36968.341  0.053555386     1.582751    4.4634076 
 6026000    298.05797   -952.42465   -4728.2802   -1314.5355    21333.152   -37867.425  0.053555312    1.5827289    4.4633314 
 6028000    309.13731   -952.96356    -10155.92   -4234.5872     20461.42   -41034.743  0.053554438    1.5827231    4.4632693 
 6030000    288.39169   -952.80737   -7073.8367   -811.06388    17789.206   -37101.177  0.053556224     1.582728    4.4633243 
 6032000    281.12878   -952.49308   -1153.9951    14.893243     25556.38   -37861.022   0.05356339    1.5827367    4.4633385 
 6034000    341.58588   -952.53326   -4049.3869   -5303.8295    16447.778   -37101.927   0.05355925    1.5827138    4.4632822 
 6036000    288.87227    -952.5073   -9047.3874    1711.9893    21330.761   -35422.735  0.053565496    1.5827458    4.4633106 
 6038000    270.29273   -952.88093    -5364.226    -8211.056    25957.842   -34419.918  0.053567512    1.5827584     4.463288 
 6040000    283.81087   -952.10638   -9152.6098   -4535.2174     14893.91   -41226.207  0.053565641    1.5827354    4.4633211 
 6042000    313.92319   -952.51441   -2442.9439   -723.69363    14898.643   -37638.082  0.053570576    1.5827396    4.4632846 
 6044000    289.15871   -953.00109   -7443.2032   -1844.4889    23919.453   -38882.906  0.053570131    1.5827053    4.4632032 
 6046000    326.74148   -952.38615   -2869.6445   -8136.8208    19353.801   -41066.434  0.053571156     1.582787    4.4633414 
 6048000    307.24556   -952.23875   -12018.522   -7522.9937    18221.699   -33759.726  0.053567878    1.5826988    4.4632443 
 6050000    276.71428    -952.6056   -4904.8633   -8225.1676    27111.746   -34041.606  0.053564689    1.5826799    4.4631502 
 6052000    291.77988   -952.69605   -7388.1188   -10330.639    24147.121   -39894.278  0.053571891    1.5827372    4.4632285 
 6054000     254.4649   -952.68089   -981.92354   -8180.6475    25059.949     -38570.8   0.05356542    1.5827039    4.4632681 
 6056000    250.82257    -952.6992   -9577.9301    -5305.681    25355.152   -35919.864  0.053571332    1.5826807    4.4631711 
 6058000    260.29449   -952.75332   -9979.6589   -2351.2514     23591.05   -37049.881  0.053572614    1.5827177    4.4631632 
 6060000    268.60151   -952.58712   -4177.0866   -5577.5387    17451.703   -38725.796  0.053568903    1.5826705    4.4631758 
 6062000    310.52017   -953.23826   -5559.7361   -5815.3019    21156.481   -36739.669  0.053577636    1.5827366    4.4632758 
 6064000    260.60047   -952.55168   -7907.5765   -5062.6946    21462.948   -41941.942  0.053571725    1.5827136    4.4631421 
 6066000    288.76051   -952.41306   -13387.616   -5309.8959    20617.906   -41140.438  0.053575927    1.5827011    4.4631128 
 6068000    270.40698   -952.91832   -1029.0933   -6580.6179    18294.465   -36092.385  0.053586553    1.5827372    4.4632684 
 6070000     251.6575   -952.34481   -7297.6263   -1639.1246    22527.703   -30452.088  0.053578154    1.5827095    4.4631699 
 6072000    242.76579   -952.86016   -95.732403   -3330.7201    20155.431   -42579.419  0.053578748    1.5826902    4.4630785 
 6074000    268.10962   -952.34008   -11538.737   -2528.1921    19546.319   -42819.778   0.05357953    1.5827348    4.4631654 
 6076000    290.96761    -952.8663   -2965.1994   -7641.7843    19129.627   -41875.613  0.053576688    1.5826792    4.4631364 
 6078000    295.58768   -952.41168    -5675.307   -3757.5703    19584.822   -39757.547  0.053588059    1.5827388    4.4630856 
 6080000    314.67127   -952.87656   -4425.0282   -471.80638    17997.243   -38661.395  0.053581111    1.5826975    4.4630638 
 6082000    316.18509   -952.98301   -263.72659   -4811.8282    24854.714   -39915.863  0.053582428    1.5827383    4.4632027 
 6084000    264.40473   -952.52614   -6201.1672   -2103.0551    22254.874   -40109.199  0.053587892    1.5827529    4.4631924 
 6086000     286.5761   -952.87628   -8173.2817   -8288.7319    20339.618   -35035.773  0.053588682    1.5827133    4.4630849 
 6088000    332.54495   -952.99818    3039.4651   -5869.9904     23281.31   -42522.235  0.053589467    1.5827207     4.463072 
 6090000    334.51258   -952.93415   -4320.8319    121.84607    16650.824   -40392.239  0.053591225    1.5827329    4.4631565 
 6092000    321.99866   -952.24899   -4730.6014    1058.5812    14860.178   -40825.064   0.05359228    1.5827256    4.4631095 
 6094000    331.56745   -952.94165   -2491.0037     346.4061    22708.106   -35836.456  0.053598461    1.5827866    4.4630578 
 6096000    277.26631   -952.65353   -6908.9035   -9295.6229     31924.58   -32859.668  0.053597516    1.5827192    4.4631048 
 6098000    267.20042   -952.74528   -822.54035   -7539.5776    19082.408   -29326.587  0.053598279    1.5827313    4.4631432 
 6100000    268.73781   -952.67082     -5866.67   -7205.6824    21098.304   -40466.708  0.053601119    1.5827428    4.4630147 
 6102000     319.0954   -952.39265   -1608.8393   -5583.8949    22833.096   -40810.047  0.053602027    1.5827261    4.4630368 
 6104000    315.56431   -952.68289   -552.91688   -4544.8912    17993.647   -43147.341  0.053604001    1.5827411    4.4630989 
 6106000    287.37454   -952.44899   -2919.1083   -2416.5822    21782.412   -36598.841  0.053602641    1.5827327    4.4631176 
 6108000    296.70762   -952.71028    1425.2152   -2769.6389     22749.16   -35376.131  0.053603538    1.5826908    4.4629801 
 6110000    271.24499   -952.55504    -8521.876   -2091.8649    24813.987   -38066.495   0.05360034    1.5827228    4.4630564 
 6112000     310.9806   -952.57307   -2043.0997   -2374.9407    21130.547   -39840.781  0.053602835    1.5827242    4.4631534 
 6114000    324.95003    -952.6586   -1761.6434   -5001.2647    19479.336   -35325.144  0.053603986    1.5827118     4.463034 
 6116000    322.07215   -952.72659   -4884.3607   -6537.6921    25855.106   -43333.315  0.053600181    1.5826954    4.4630021 
 6118000    292.17883   -952.67789   -315.45522   -7809.1842    21401.198   -33354.847  0.053609314    1.5827103    4.4631284 
 6120000    250.93251    -952.5236   -4469.4665   -6974.8243    23260.972   -39925.617  0.053610618    1.5827065    4.4631287 
 6122000    326.13149   -952.72283   -2149.6445   -6460.0165    17014.517   -32856.325  0.053605554    1.5827108    4.4630414 
 6124000    280.85677    -952.2997   -5619.6854   -4414.5668    18596.248   -36561.865   0.05361794    1.5827097    4.4629571 
 6126000    269.15243   -952.74323   -5665.4895   -5771.5354    22008.356   -38843.545  0.053611747    1.5827189    4.4631871 
 6128000    270.53541   -952.80371    1681.7983   -5380.9481    25964.861   -35353.906  0.053615151    1.5827063    4.4630963 
 6130000    294.51238   -952.83695    -576.4176   -4741.4223    24058.734   -41729.092  0.053620714    1.5827137    4.4629353 
 6132000    275.25412   -952.77596   -11246.659   -12156.496    18388.487   -39902.155  0.053617495    1.5826986    4.4631541 
 6134000    272.66439    -952.7768   -163.50546   -6612.6155    22238.968   -35960.117  0.053621629    1.5827258    4.4631638 
 6136000    327.68478   -952.47013    3060.9852    7798.3118    10378.421   -36165.186  0.053627427    1.5827445     4.463078 
 6138000    298.51355   -952.46875   -7306.6381   -6512.8133    18031.705    -41843.17  0.053621595    1.5826916    4.4630553 
 6140000    305.64484   -952.74989   -4290.4033    -7893.484     17822.25   -40112.017  0.053624993    1.5827246    4.4631434 
 6142000    307.28209   -952.45277   -2288.3128   -394.80619     21798.61   -34139.241  0.053627238    1.5827093    4.4630941 
 6144000    258.81514    -951.8865   -3070.6607   -2423.0511    20042.052   -39879.053  0.053628534    1.5827316    4.4630175 
 6146000    266.25948     -952.501   -2205.2712   -3027.1732    19558.038   -38094.674  0.053630747    1.5827108    4.4631033 
 6148000    282.23063   -952.38384    -4629.727    344.73836    25384.866   -36632.691   0.05363686    1.5826719    4.4631302 
 6150000    286.07531   -952.31535   -3202.9552   -2968.1366    25539.246   -41927.998  0.053638496    1.5827156    4.4631096 
 6152000    341.23836   -952.83664   -2378.7465    420.32983    22261.665   -32963.012  0.053637321    1.5826777     4.463045 
 6154000    298.81293   -952.55176    1826.0877     -1951.64     22467.49   -31353.037  0.053644996    1.5826896    4.4630587 
 6156000    288.41716    -952.6469    1308.1562   -3966.9857    21614.083   -34475.885  0.053646335    1.5827133    4.4631349 
 6158000    308.00345   -952.96691    -11084.39   -2852.4423    19654.173   -34821.017  0.053643902    1.5826709    4.4630659 
 6160000    317.99782   -952.26504   -3358.5627   -9474.3536     26223.23   -41934.129  0.053650011    1.5826812    4.4629768 
 6162000    286.26204   -953.03104   -586.41252   -2671.9125    23100.529   -37980.396  0.053650093    1.5826775    4.4632059 
 6164000    286.12371   -952.73918   -2451.1717   -5000.9679    19916.994   -33660.362  0.053653346    1.5826667    4.4632054 
 6166000    319.85543   -952.62815   -4021.3919   -2612.5825     22907.62   -37044.744  0.053660532    1.5826881    4.4631047 
 6168000     293.0109    -952.2921   -3149.4575   -5419.4209    19150.911   -34553.709  0.053654311    1.5826555    4.4631802 
 6170000    309.44111    -952.9838   -2615.9222   -6034.1412    28683.569   -35745.527  0.053663147    1.5826608    4.4632587 
 6172000    302.98415   -952.65358    -2902.719    3281.4953    15730.174   -34002.704  0.053664881    1.5826727    4.4631881 
 6174000    294.12621   -952.45416   -201.69505    -6236.962    22407.196   -37484.557   0.05366243    1.5826568    4.4631219 
 6176000    286.70086   -952.79638   -2165.4739   -9926.1821    23837.549   -42017.173  0.053669623    1.5826479    4.4632685 
 6178000    223.17548   -952.81916   -5915.3696   -5396.2945    21062.814   -35877.934  0.053666404    1.5826172    4.4633028 
 6180000    357.25364   -952.61679    3253.9251   -7899.0222     19934.86   -47075.108  0.053669389    1.5826672    4.4632167 
 6182000    309.59742   -952.58496   -5814.7899   -2262.8846    20952.374   -34829.862  0.053669546    1.5826184    4.4631984 
 6184000    313.46412    -953.1951    -7431.951   -4326.2104    23574.885   -38181.663  0.053668199    1.5826291    4.4632819 
 6186000    284.04254   -952.67413    1301.2516    -4835.379    27043.275   -35544.503  0.053681515    1.5826391    4.4632158 
 6188000    330.90018   -952.86607   -6778.9625   -3662.4438    21254.944   -33961.811  0.053674058    1.5826131    4.4631832 
 6190000    292.98026   -952.68493   -8170.9471   -9527.1331    28697.189   -38811.692  0.053680772    1.5826183    4.4632343 
 6192000    315.69115   -952.46927   -6470.0096    -5327.379    20615.002   -42615.808  0.053683874    1.5826231    4.4632701 
 6194000    286.39253   -952.88897   -5323.3403   -6765.7229    24761.316   -37462.118  0.053681605    1.5825784    4.4632302 
 6196000    276.71273   -952.33382   -451.05215   -4562.8645    27330.474   -46277.408  0.053696155     1.582654    4.4633142 
 6198000    276.99874   -952.74079   -741.55072   -80.589032    18466.049   -40007.167  0.053699023    1.5826028    4.4633437 
 6200000     301.7766   -952.54815    -2321.827     -7248.72    25482.278   -40965.038  0.053712308    1.5825474    4.4633781 
 6202000    332.92703   -952.32908    59.541403   -3752.4866    19949.828   -41016.257   0.05372969    1.5825775    4.4633527 
 6204000    230.63324   -952.34343   -9352.8449   -8617.6386    22859.981   -38113.963  0.053735851    1.5824952    4.4633448 
 6206000    244.71971   -952.35528   -6049.1323   -3057.2309    21698.783    -42033.93  0.053750229     1.582525    4.4634313 
 6208000    254.01351   -952.14601   -2380.5304   -853.21787    24975.042    -35858.42  0.053746569    1.5825207    4.4634315 
 6210000    305.27226   -952.48731   -2514.5753    -4057.577     21969.76   -34659.498  0.053745863    1.5824435    4.4633637 
 6212000    306.28523   -952.55234   -5605.0614   -3967.7556    17942.021   -36963.539   0.05375486    1.5825068    4.4633876 
 6214000    331.74982   -952.81351   -836.65956   -2948.5889    25596.157   -38424.774  0.053752388    1.5824913    4.4634284 
 6216000    300.67931   -952.21634   -8826.7134    -3149.668    26017.937   -31207.865  0.053754354    1.5824892    4.4633596 
 6218000    314.76015   -952.57093   -7094.0471    1296.0667    19554.399   -37739.374  0.053756838    1.5824546    4.4633319 
 6220000    284.43002   -952.22702   -4844.8803   -6839.3847    20515.793   -33817.527  0.053755348    1.5824559    4.4633831 
 6222000    259.08262   -952.75914   -130.34504   -6732.9306    23008.757   -41636.843  0.053768374    1.5824696    4.4633632 
 6224000      268.242   -952.97131   -4491.8833   -1702.0763    18636.571   -40657.366   0.05376427    1.5824623     4.463398 
 6226000    305.72455   -953.10997    -3660.923   -2307.5064    25165.427   -36245.549  0.053766948    1.5824285     4.463415 
 6228000    319.06364   -952.38976    -3941.471    -1417.005    20978.364   -38007.099  0.053776703     1.582437    4.4634067 
 6230000    269.28559   -953.18079    856.68695   -9132.9567    21820.501   -32223.619  0.053770596     1.582443    4.4634249 
 6232000    330.20536   -952.61584   -11436.589   -773.31335    18451.901   -35694.762  0.053777565    1.5824489    4.4634146 
 6234000    293.70501   -952.25631   -4113.2246   -2889.9345     19186.16   -41552.075  0.053776273    1.5823964    4.4634873 
 6236000      332.843   -952.57925    -2326.794   -11912.079    29841.697   -30033.107  0.053778174    1.5824212    4.4634313 
 6238000    306.73328   -952.15825   -1714.1298   -901.92432    19149.073    -35761.05  0.053783842    1.5824597    4.4634471 
 6240000    270.26406   -952.49486   -2276.9834   -2013.1369    20497.574   -41427.316  0.053778316    1.5823928    4.4635047 
 6242000    299.35569   -952.29436   -1599.8593   -9196.6764     18320.03   -34731.083  0.053782598    1.5824073    4.4634151 
 6244000    261.72352   -952.61802   -4573.0326   -4191.7559    18123.978   -32247.209   0.05378377     1.582415    4.4633519 
 6246000    315.91006   -952.64826   -7230.0931   -9334.6945    21823.189   -43736.498  0.053784091    1.5824125    4.4634979 
 6248000    279.08429   -952.34565    2085.0466   -2026.4467    26904.515   -37878.621  0.053787218    1.5823814    4.4634358 
 6250000    279.18346   -952.12502    10500.778    7020.6209    27321.884   -36214.134  0.053786607    1.5823915    4.4633027 
 6252000    289.04312   -952.71669    -3330.582   -5251.9263    28017.794   -46270.475    0.0537898    1.5824039    4.4633746 
 6254000    361.32664   -952.58471    3340.5936   -340.24821    16483.254   -34080.319  0.053790025    1.5823776    4.4634557 
 6256000    296.18121   -952.20898     3918.947   -3522.0351    34251.474   -35515.281    0.0537871    1.5823401    4.4633464 
 6258000    286.42855   -953.07205    3925.9356   -1943.8982    21956.733   -42224.322  0.053797599    1.5824082    4.4633779 
 6260000    307.00398   -952.75138   -7220.6979   -7414.7414    25481.776   -37333.365  0.053788609    1.5823556    4.4634327 
 6262000    289.28006   -952.37963   -233.90687   -11613.209     27154.95   -36366.291  0.053793485    1.5823763    4.4633961 
 6264000    265.93018   -952.84021   -7655.7103   -3225.0204    18583.249   -38906.601  0.053798816    1.5823589    4.4632735 
 6266000    344.24508   -952.75674   -6456.0252   -2655.3599    22531.875   -29472.224  0.053795361    1.5823429     4.463386 
 6268000    255.23792   -952.71261   -1636.9746   -1591.3047    16604.386   -33260.477  0.053803885    1.5823801    4.4634921 
 6270000    333.91343    -952.4638   -13383.072   -4611.8593    20598.797   -32425.318  0.053799977    1.5823282    4.4633706 
 6272000    269.07299   -952.80887   -8225.5083   -9153.6992    28007.959    -37612.34  0.053800062    1.5823195    4.4632935 
 6274000    317.06283    -952.4634   -8708.2257    -3812.633    23717.647   -40693.587  0.053808786    1.5824061    4.4634712 
 6276000    296.61064   -952.60996   -9495.5743   -6914.2977    26504.201   -37889.486  0.053805477    1.5823433    4.4634296 
 6278000    268.83843   -952.39855   -7777.0678   -4959.8528    21098.554   -33128.135  0.053812784    1.5823477    4.4632856 
 6280000    293.43018    -952.6763   -7977.6544   -5328.3681    24950.035   -36620.178  0.053813384    1.5824011    4.4633331 
 6282000     288.2816   -952.67724   -4888.6632   -2921.6175    25356.301    -30468.45  0.053820694    1.5823481    4.4634211 
 6284000    381.37364   -951.89783   -7356.2518    -7736.363    21915.679   -36061.506  0.053826678    1.5824154    4.4633792 
 6286000    290.22025   -952.99344   -9593.0127   -2659.5785    27965.255    -37334.25  0.053822443    1.5823779    4.4633699 
 6288000    281.93006   -952.72056    1420.8544   -3203.6676     20985.97   -39502.934  0.053831613    1.5823482    4.4633061 
 6290000    309.88987   -952.34716   -5096.0342   -6043.4456     21733.03    -40699.82  0.053837043    1.5824421     4.463477 
 6292000    271.40085   -952.64839   -3766.6409   -3534.3789     21800.22   -39083.995  0.053837377    1.5824393    4.4635526 
 6294000    317.02898   -952.74501   -6887.8126   -7441.7928    23262.581    -30556.57  0.053838028    1.5823693    4.4633584 
 6296000    327.96174   -952.42991   -10128.826    1717.4621    20752.807   -37185.572  0.053840275    1.5823942    4.4634941 
 6298000    274.82151   -952.95007    -1248.147   -6720.2815    18274.137   -32531.986  0.053840797    1.5824025    4.4636444 
 6300000    300.02036   -953.36939   -1197.7486   -7970.3006    24011.635    -37244.68  0.053838766    1.5823871    4.4635061 
 6302000    262.29717   -952.87167   -1494.1656    748.97484    22742.218   -41297.664  0.053841974    1.5823739    4.4634875 
 6304000    275.82877   -952.74335   -1919.1678     1798.208    18865.949   -46094.084  0.053841438    1.5823927    4.4636153 
 6306000    295.47632   -952.59403    401.93958   -2407.9519    18100.334   -28483.578  0.053844996    1.5823811    4.4636079 
 6308000    258.20169   -952.15891   -1913.0437   -8279.6518     23003.19   -37224.485  0.053844996    1.5823927     4.463506 
 6310000    305.09311   -952.88841   -8065.5427   -9709.7646    21984.353   -37805.896  0.053846753     1.582387    4.4635613 
 6312000    257.20516   -952.21406   -569.15761   -2655.9658    21958.165   -37303.906   0.05385058    1.5823551     4.463705 
 6314000    311.50962   -952.71198    -4936.951   -3652.0248    22547.752   -31855.687  0.053851705    1.5823917     4.463601 
 6316000    275.91845   -952.55211   -10428.966   -12976.706    27442.163   -39929.449  0.053848951    1.5823719    4.4635514 
 6318000    303.49047   -952.83643    -7973.543   -4793.1939    18419.608   -35831.384  0.053847894    1.5823445    4.4636814 
 6320000    295.40844   -952.06472   -2906.8068   -10018.986    18305.447   -28698.088  0.053852372    1.5823842    4.4636348 
 6322000    307.74088   -952.10748    809.19375   -4011.7101    23066.336   -38581.362  0.053853572    1.5824111    4.4636207 
 6324000    279.66701    -951.9594   -6229.0611    -7054.111    16551.398   -37829.523  0.053849846    1.5823458    4.4636786 
 6326000    300.57427   -952.29487   -5252.3965     1301.604    28412.994   -38167.287  0.053852695     1.582325    4.4636435 
 6328000    326.85581   -952.93371    530.74759   -4276.0333    22469.773   -34476.283  0.053852673    1.5823689    4.4636265 
 6330000    294.22826   -952.31606   -1261.9574   -8737.5999     19261.74   -38937.562  0.053854285    1.5823433    4.4636394 
 6332000    315.03527   -952.41714   -5978.0692   -3074.3183    14133.032   -31814.436  0.053856896    1.5823009    4.4637405 
 6334000    276.00197   -952.31868   -5198.8424   -6067.4299    18332.993   -34595.805  0.053856818    1.5823105    4.4636331 
 6336000     285.4564   -952.50797   -10447.353    76.950452    20645.783   -41145.187  0.053856702    1.5823129    4.4635964 
 6338000     313.3529   -952.30169    -910.1645   -4653.3728    17276.915   -40011.724  0.053857193    1.5822812    4.4637361 
 6340000    294.67192     -952.923   -3403.6954      -7849.9    21028.803   -35391.903  0.053862501    1.5822809    4.4637475 
 6342000    271.16421   -952.29551    3991.1345   -4600.0011    23309.983   -38580.429  0.053865116    1.5822441    4.4636655 
 6344000    280.03534   -952.14058   -8578.7768   -2098.2342    29214.653   -39124.118   0.05386642    1.5822611    4.4637167 
 6346000    326.72595   -952.45374   -7726.3345   -10634.301    24061.931   -34773.633  0.053871488    1.5823004    4.4638015 
 6348000    270.15839   -952.72364   -2305.1505   -2208.2445    16868.622   -38023.453  0.053869543    1.5822273    4.4636451 
 6350000    272.76957     -952.501   -5776.4003   -5389.4512    21799.296   -36750.919  0.053865961     1.582263    4.4636984 
 6352000    274.73104   -952.47077   -856.07035   -5403.9219    17167.027   -38453.776   0.05387134    1.5822573    4.4636953 
 6354000    292.74942   -952.75581   -1256.9619   -3972.2394    16905.981   -39241.662  0.053867375    1.5822412    4.4636701 
 6356000    278.34015   -952.71498    -6573.447   -8440.7223    29969.983   -39770.526  0.053870926     1.582242    4.4636593 
 6358000    289.35224   -952.98895   -2396.2776   -6198.8671    18640.721   -39606.444  0.053869841     1.582257    4.4636377 
 6360000    270.95699   -952.84141   -7673.3473   -4091.9973    27077.391   -39887.615  0.053867843    1.5822634    4.4637053 
 6362000    344.04256   -952.37926   -2725.5915     3521.915    18538.509   -38808.168   0.05387203    1.5822647    4.4636971 
 6364000    324.08371   -952.87585   -1952.3064   -6374.1491    22699.109   -43673.732  0.053866902    1.5822021    4.4636322 
 6366000    286.85073   -952.22666   -6249.8632   -3371.4894    25364.829    -42331.83  0.053870012    1.5822218    4.4637473 
 6368000    304.44221   -952.69894   -2742.2293    3396.5294    20337.558   -41309.671  0.053871855    1.5822412    4.4637465 
 6370000     288.3369   -952.15989    973.48373    2165.0276    23726.359   -32339.616  0.053874165    1.5822373    4.4637137 
 6372000    324.73421   -952.59728   -5805.8178   -6680.6308    24258.201   -32746.935  0.053870493    1.5821998    4.4636899 
 6374000    264.92773   -952.86629   -4088.6877   -8572.6858    21087.034   -43188.653  0.053874177     1.582189    4.4636974 
 6376000    292.54372    -952.5393   -4193.3858   -7171.8992    22479.016   -34801.735   0.05387646    1.5822027    4.4638096 
 6378000    347.46134   -952.58413   -3587.7999   -872.85107    19388.641   -38658.391  0.053872708    1.5821374    4.4636563 
 6380000    305.46222   -952.08625    -3897.462    -513.0321    31698.768   -38354.314  0.053875368    1.5821614    4.4636839 
 6382000    301.33665   -952.62244   -4819.8478   -4563.3309    18259.919   -34972.727    0.0538758    1.5821625     4.463775 
 6384000    301.92069   -952.94269   -3366.8565   -2844.9539    18065.462   -36542.779  0.053871197    1.5821113    4.4636307 
 6386000    266.56831   -952.54937     -1584.67   -769.59575    28868.735   -33885.758   0.05388054    1.5821365    4.4635947 
 6388000    308.77146   -952.06241   -5384.2099   -6822.5571    24361.419   -42207.213  0.053877777    1.5821249     4.463691 
 6390000    324.50828   -952.43472   -4074.9575    -4767.026    29837.815    -42742.99  0.053876737    1.5821115    4.4636742 
 6392000    285.43138   -952.61889    424.65378   -2660.4785    26516.078   -39713.045  0.053886858     1.582134    4.4636653 
 6394000    301.49879   -952.54874   -13910.741   -4394.4018     18284.92    -38777.92   0.05388194    1.5820835     4.463663 
 6396000    300.74667   -952.55891   -3295.4598   -5098.9711    27857.661     -43573.5  0.053887301    1.5820699    4.4637342 
 6398000    284.45803   -952.96421   -2435.5793   -3515.6924    21901.566   -41101.632  0.053888497    1.5821095    4.4637138 
 6400000    295.39008   -952.57543    -7370.511   -3108.2809    18374.087   -36924.411  0.053887449    1.5820636    4.4636206 
 6402000    331.58987      -952.53   -299.72645   -4046.3075    20805.172   -40917.967  0.053884815    1.5820753    4.4637037 
 6404000    285.02957   -952.68539   -8116.8093   -1957.7752    19568.049   -32203.855  0.053887016    1.5820834    4.4636794 
 6406000    310.26006   -952.17262   -3731.2719   -9294.7065    20996.068   -33175.881  0.053886433    1.5820551    4.4636032 
 6408000    327.87695   -952.42733   -12419.187   -5184.9649    27375.359   -30158.995  0.053881616    1.5820205    4.4636159 
 6410000    300.33675   -953.07858   -1261.4216   -4266.1378     22748.09   -28932.154  0.053885135     1.582038    4.4636285 
 6412000    238.20961   -952.77696   -5377.4331    -3842.379     22056.08   -31985.136  0.053888123    1.5820553    4.4636194 
 6414000    286.48561   -952.87981   -397.39229   -6953.8906    23851.314   -38875.128  0.053886827    1.5820235    4.4636724 
 6416000    292.99071   -952.47805   -10503.882   -3362.8732    27294.758   -37031.279  0.053892866    1.5819999    4.4635651 
 6418000    268.12298   -952.25214    -8825.718   -6710.1344    23816.208   -41350.501  0.053889093     1.582036    4.4636492 
 6420000    312.99705   -952.40833   -8733.4691   -6296.2369    23246.259   -36921.915  0.053886613    1.5820098    4.4636314 
 6422000    269.55899   -952.87304   -1795.8485   -3046.0207     20910.93   -42049.266  0.053892613    1.5819996    4.4635691 
 6424000    255.66563   -952.58277   -4141.7739   -2585.7087    20839.414   -35494.303   0.05389116    1.5819676    4.4636414 
 6426000    310.88009   -952.98944   -1776.5367   -2688.7184    25670.969   -36534.197  0.053894219    1.5819907    4.4636917 
 6428000    287.97238   -952.62472   -3142.7387   -629.40834    23882.787   -38901.676  0.053893757    1.5819582    4.4636104 
 6430000    327.70622   -952.90817      7968.59   -734.91393    19799.722   -33695.258  0.053892608    1.5819755    4.4636962 
 6432000    250.54981   -952.40828   -2675.3947    -2827.434    23606.184   -46578.639  0.053895666    1.5819284    4.4635826 
 6434000    315.97335   -952.96636   -5267.8504   -4311.9896    20120.205    -36233.16  0.053896014    1.5819761    4.4636846 
 6436000    306.97654   -952.61879    2551.9241   -5460.8973    26082.946   -31689.432   0.05389601    1.5819533    4.4636938 
 6438000    274.91838   -952.09282   -8361.1381   -2679.7241     24142.68   -36837.118  0.053896123    1.5819165     4.463651 
 6440000    257.98919   -952.61627   -2154.8144   -2462.7184     27693.07   -36939.571  0.053897364    1.5819561     4.463721 
 6442000    251.40354   -952.46868   -4658.1615   -8171.8662     20516.24   -32389.769  0.053899354    1.5819486     4.463712 
 6444000    276.98806   -952.37326    99.880356   -5242.3742    18853.156   -37826.474  0.053895728    1.5818803    4.4636888 
 6446000    300.91705   -952.61551   -2855.1438   -2873.6106    22079.013   -35449.611  0.053903476     1.581912    4.4637376 
 6448000    288.02746   -952.56844   -591.11091   -3159.4493    24223.463   -43556.854  0.053900419    1.5818978    4.4637027 
 6450000    320.44081   -952.48434   -2092.4017    2433.5613    22045.421   -39014.201  0.053903727    1.5818887    4.4636732 
 6452000    238.75741   -952.63857    -9697.269   -11277.988    17218.307    -42232.66  0.053906382    1.5818966    4.4637305 
 6454000    291.95738   -952.50116   -5437.1315   -3235.8975    19803.173   -36856.337  0.053904561     1.581833    4.4636263 
 6456000    283.15475   -952.45373   -8866.5344   -10226.377    21576.188   -39139.746  0.053914771    1.5819298    4.4636863 
 6458000     281.5449   -952.06092   -6657.2474   -10459.791    17915.815   -35957.554  0.053914047    1.5819832    4.4637932 
 6460000    277.48346   -952.64361   -5076.2812   -4179.2929    23342.188   -41629.005  0.053909814    1.5818457    4.4636802 
 6462000    291.24962   -952.44661   -4280.4151   -6097.5185    18386.219   -42808.193  0.053915172    1.5819073    4.4636711 
 6464000    293.87071   -952.75577   -3896.5544   -1990.2068    19745.553   -41677.529  0.053913941    1.5819096    4.4637847 
 6466000    291.05581    -952.6652   -5175.3007   -5216.6675    21277.485   -41706.999  0.053912878    1.5818737    4.4637369 
 6468000    250.09213   -952.85861   -9561.4502   -3149.0318    20015.466   -34452.256  0.053920776     1.581907     4.463717 
 6470000    353.96771   -952.44397    911.04075    2222.5484     19857.94   -39376.193   0.05391387    1.5818713     4.463659 
 6472000     289.7592     -952.979    1539.8007   -2503.2444    24116.097   -35669.654  0.053928646    1.5819101    4.4637328 
 6474000    335.63413   -952.12089    1534.3711   -1684.8623    19352.364    -31383.27  0.053927163    1.5818943    4.4637525 
 6476000    350.19632   -952.88331    3514.3931   -4649.6704    22554.543   -35890.289  0.053924922    1.5818326    4.4636731 
 6478000    283.95256   -952.13314   -4842.9233   -3986.7335    23679.814   -42701.431  0.053937557    1.5818883    4.4637648 
 6480000    311.03291   -952.93007   -2516.4286   -6831.3483    13411.664   -42755.703  0.053939862    1.5818948    4.4637887 
 6482000    319.97986   -952.36539   -2314.1466   -9130.9755     20121.06    -37546.01  0.053935432    1.5818609    4.4637302 
 6484000    305.45006   -952.71852     -7913.41   -2674.0394    22426.811    -37636.25  0.053938214    1.5818516    4.4637643 
 6486000    295.50942   -952.95905   -10054.279   -1050.6525    25077.404   -42117.492  0.053940087    1.5818471    4.4637105 
 6488000    296.79945    -952.4132   -6929.4675   -10524.751     26558.54   -33064.157  0.053939979    1.5818886    4.4638131 
 6490000    273.01653   -952.78731   -6565.4475   -8562.4506    24441.702   -37498.058   0.05393555    1.5818092    4.4637824 
 6492000    288.02059   -952.39599   -7270.7233    621.36187     25811.01   -48569.295  0.053940287    1.5818355    4.4637383 
 6494000    292.21094   -952.59364    5635.4905    -1150.795    13860.813   -33258.587  0.053941256    1.5818532    4.4638148 
 6496000    291.70185   -952.41738   -7109.9703   -5220.3294    20307.981   -35930.923  0.053935645     1.581788    4.4637455 
 6498000    270.70808   -952.42685   -4517.2031   -5888.4902     20568.99   -43386.884  0.053937222    1.5818297     4.463739 
 6500000    310.82563    -952.1525   -6243.7244   -5486.0856    20670.134   -31441.327   0.05393768    1.5818279    4.4637681 
 6502000    308.84509   -952.56889    -4336.221   -11366.421    26982.277   -31381.644  0.053939893    1.5817846    4.4637345 
 6504000    280.49431   -952.40305   -14824.771    -3086.829    23882.574   -33570.774  0.053938669    1.5818352    4.4637283 
 6506000    275.87943   -952.02092   -7309.0966   -4700.7156    28378.432    -38811.03  0.053935727     1.581809     4.463726 
 6508000    269.39063   -952.54327   -3309.1414    2768.4506    27439.873   -35247.945  0.053939237    1.5817886    4.4636858 
 6510000    295.03202   -953.04548    1027.5127    -5107.634    19986.129    -33238.21  0.053936587    1.5818464    4.4638402 
 6512000     323.4695   -952.45301     472.3333   -4039.1032    24341.154   -38590.012   0.05393452    1.5817754    4.4637371 
 6514000    329.68952    -952.7146   -6918.9809   -5737.6092    26905.933   -35806.931  0.053942572    1.5817986    4.4637173 
 6516000    326.96062   -952.82402   -1558.8833   -3307.0903    19887.785   -32552.716  0.053940501     1.581842    4.4638472 
 6518000    303.55257   -952.69713   -2753.1078   -2393.1725    27120.307   -33725.516  0.053941768    1.5818243    4.4637494 
 6520000    298.50506   -952.74359   -12477.264   -2542.9536    27238.364   -42060.338  0.053940897    1.5818113    4.4636413 
 6522000    314.35809   -952.44007   -10477.076   -4961.8334    26044.101   -39813.114  0.053940611    1.5817964    4.4637386 
 6524000    255.14215    -952.6859   -15085.684   -9509.1999    26464.382   -33346.368  0.053942905    1.5818132    4.4637451 
 6526000    312.74906   -952.83053    -6143.783   -6017.3639    21423.311   -38104.179  0.053946717    1.5818085    4.4636933 
 6528000    319.02476   -952.42478   -3104.9252   -3618.7897    31271.524   -38468.968  0.053940934    1.5817942    4.4636979 
 6530000    284.42141   -952.36606    5799.2493    4258.0208    21258.399   -36242.504  0.053943627    1.5817877    4.4637536 
 6532000     335.2159   -952.40458   -5741.3814   -7258.9155    20331.367   -43076.733  0.053943534     1.581801    4.4637139 
 6534000    268.12045   -952.49056   -2720.6427   -3651.1749    20075.917   -40500.653  0.053940826    1.5817869     4.463646 
 6536000    296.92396   -952.79512    1470.5795   -3215.4632    22424.484   -31995.408  0.053933841    1.5817485    4.4637115 
 6538000    243.58133   -952.57389    -7789.484   -15543.361     18276.57   -34145.025  0.053938028    1.5817843    4.4636814 
 6540000    282.82358   -952.61859   -12735.785   -2866.8577    20940.528   -37124.243  0.053937689    1.5817407    4.4636149 
 6542000     268.2526   -953.24408   -2123.5662   -5467.1516    22057.155   -39664.628  0.053932983    1.5817165    4.4637357 
 6544000     283.4445   -952.75653   -288.40987   -1630.8893    17790.252   -39366.683  0.053932484    1.5817135    4.4636649 
 6546000    284.63529   -952.58037   -1313.9512   -2470.0791    17829.819   -41625.474  0.053928648    1.5817214    4.4636661 
 6548000    272.68582    -952.3786    -2719.208     -5675.75    18269.685   -37186.859   0.05392846    1.5817178    4.4636833 
 6550000    331.02068   -952.34054   -2750.3268   -3772.9451    22400.434   -33144.601  0.053932207     1.581684    4.4636817 
 6552000    273.78845   -952.72732    3414.2019   -2437.6259    25036.192   -41719.427  0.053927262    1.5816816    4.4636844 
 6554000    268.21104   -952.24315   -7177.1955    646.10577    22332.094   -41005.537  0.053933191    1.5817118    4.4636562 
 6556000     350.2998    -952.9404   -5825.1723   -1932.8894    27066.826   -39318.169   0.05393194    1.5816965    4.4636566 
 6558000    320.73236   -952.71643   -6593.6486   -6978.3167    15790.201   -39326.966  0.053931965    1.5817179    4.4636666 
 6560000    279.47342   -952.48859   -9559.5243   -9875.8607     26526.56   -36295.445  0.053929801    1.5816705    4.4636139 
 6562000    282.49853   -952.76493    3095.6337   -3120.0047    22674.962   -37224.548  0.053928573    1.5816781    4.4636213 
 6564000    311.72647    -953.0877   -5009.0931     440.0259    24509.607   -34678.469  0.053930073    1.5817342    4.4637008 
 6566000    278.07796   -952.02315   -1924.8554   -6083.9411    21209.976   -34172.486  0.053925529     1.581692    4.4636306 
 6568000    294.61568   -952.89948    -4658.553   -3425.2432    24802.959   -44287.477  0.053923256    1.5816645    4.4635784 
 6570000    243.84667   -952.45055   -1141.5367    3705.4567    17149.382   -37432.993    0.0539276    1.5817108     4.463613 
 6572000    353.59852   -951.99639    4963.8681   -3060.2221    21165.627   -37048.943  0.053919948    1.5816909    4.4635786 
 6574000    315.43104   -952.29685   -734.45351   -3192.1625    22236.852   -37880.864  0.053923209    1.5817092    4.4635869 
 6576000    306.93628   -952.95645    1302.3048   -3222.5906    19968.634   -33627.992   0.05392218    1.5817155    4.4636203 
 6578000    300.04257   -952.50116   -7178.4925   -3790.4881    23399.085   -32525.737  0.053918175    1.5816474    4.4635512 
 6580000    301.33471   -952.53189   -5867.2207   -1275.6578    28680.959   -38644.586  0.053921584    1.5817066    4.4636017 
 6582000    312.01771   -952.71386   -16624.969   -1529.7699    22467.382   -36331.987  0.053917058    1.5816725    4.4635817 
 6584000    306.33265   -953.15897   -2840.6119   -2689.4415    22480.556   -32951.714  0.053916003     1.581668    4.4635751 
 6586000     299.6193   -952.89732   -1397.5996   -3716.2769    25909.099   -35723.798  0.053917062    1.5816879    4.4635754 
 6588000    286.40841   -952.53488   -7203.5651   -2146.9127    25503.194   -30288.379  0.053913508    1.5816751    4.4635471 
 6590000    255.12329    -952.4875   -7164.7348   -6457.8191    19943.463   -37999.492  0.053914791    1.5816589     4.463547 
 6592000    293.68725   -952.71296   -603.52577   -4294.5484    21063.915   -43444.308  0.053914505    1.5816879    4.4635529 
 6594000     321.6663   -951.95322   -9558.8331   -5114.1644    23544.046   -37763.862  0.053912033    1.5816699     4.463554 
 6596000    349.85516   -952.55831   -898.97496    118.23616    19978.106   -39739.148  0.053915172    1.5816717    4.4634976 
 6598000    297.73283    -952.5968   -9216.7767   -1628.6424    24548.107   -39352.143  0.053912503    1.5816441     4.463518 
 6600000      308.363   -952.37469   -3925.0161   -9298.9254     26697.19   -41148.896  0.053916055    1.5816685    4.4635501 
 6602000    295.99502   -952.97285   -4958.4638    530.48239    20621.043   -39892.151  0.053911861    1.5816424    4.4635254 
 6604000     271.4494   -952.85652   -6477.1371   -671.29131    25698.559   -38203.074  0.053915771     1.581664    4.4635083 
 6606000    301.83318   -952.46994   -9261.1256   -3091.7868    25524.964   -40045.118   0.05391731    1.5816811    4.4635195 
 6608000    292.43846   -952.55384   -5365.8807   -6843.7336    26794.952   -38170.247  0.053914208     1.581641    4.4634968 
 6610000    288.19703   -952.98579    3062.9951   -5185.9396    25804.737   -40972.673  0.053918284    1.5816264    4.4634852 
 6612000    282.72333   -952.71433    27.501974   -8038.1522    21665.662   -38739.958  0.053919325    1.5816964    4.4634991 
 6614000    329.53062   -952.99425   -4459.5361   -4169.0489    22300.448   -40684.714  0.053916244    1.5816244    4.4634662 
 6616000     256.6328   -952.51392   -12303.929   -3434.8409    24233.684   -34124.339  0.053919702    1.5816488     4.463453 
 6618000    289.17795   -952.83494   -6178.6397   -9269.4127    23064.898   -34488.276    0.0539193    1.5816215    4.4634493 
 6620000    271.69623   -952.83119   -1171.7231     -5682.91    22633.811   -30913.695  0.053921533    1.5816495    4.4634646 
 6622000    268.72315    -952.7945   -7077.1037   -3312.3354    21960.729   -42097.658  0.053922993    1.5816503    4.4634262 
 6624000    221.84636    -952.2518   -7567.8344    -4631.728    19872.175   -38014.792  0.053922019    1.5816194     4.463442 
 6626000    260.82782   -952.10819   -3677.4288   -8191.3363    21036.655    -37153.86  0.053924708     1.581621    4.4634334 
 6628000    319.43863   -952.39932   -5238.6781   -7183.2181    19414.542   -36058.096  0.053923489    1.5816296    4.4634319 
 6630000     302.9213   -952.33423    1094.9457    429.70269    24938.175   -39466.883  0.053922395    1.5816264    4.4634828 
 6632000    309.96649   -953.04317   -9321.2218    -1503.014    17456.918   -34639.948  0.053926514    1.5816275    4.4634356 
 6634000    295.61294   -952.85822   -3844.3743   -9033.0128    29344.377    -40411.12  0.053927549    1.5816182    4.4634753 
 6636000    292.69715    -952.4222   -4099.7328   -3452.3437    21608.545   -34439.872  0.053931421    1.5816459    4.4634752 
 6638000    281.89363   -952.37335   -6726.9846   -4120.7216    20561.447   -47765.413   0.05393418      1.58159    4.4634026 
 6640000    276.14591   -952.47738   -5729.3699   -4653.0119    26900.868   -39672.756  0.053933441    1.5815964    4.4633937 
 6642000    295.02712   -952.63075   -779.26521   -3617.8679    15612.256   -33247.493  0.053934749    1.5816351    4.4634623 
 6644000    284.35889   -952.25087   -2221.5993   -8896.1467    16713.388   -42887.939  0.053930695    1.5815786    4.4634043 
 6646000    348.54666   -952.79376    1383.2438   -1764.0977     21363.37   -41874.695  0.053930856    1.5815663    4.4633469 
 6648000    322.76773   -952.63337   -2574.9326   -2455.2311    19366.322   -32859.724  0.053933453    1.5815921     4.463394 
 6650000    246.77574   -952.23566   -7749.1443   -8189.9646    29925.467   -40320.266  0.053931766    1.5815771    4.4634058 
 6652000    304.17929   -952.59648     -7931.77   -5862.2273    20504.584    -31946.76  0.053934192    1.5816319    4.4634113 
 6654000     292.3522   -952.45158   -5385.1624   -2230.6769    20551.171   -37428.885  0.053932171    1.5815549    4.4633047 
 6656000    287.25692   -952.83551   -6310.8386    -7331.749    22723.588   -36177.988  0.053930824    1.5815958    4.4633738 
 6658000    282.69259   -952.66162     -2422.89    2133.9274    19384.654   -37163.197  0.053934021    1.5815898    4.4633912 
 6660000    296.18429   -952.49247    -9180.678   -5420.1631    21913.719   -32762.295  0.053930089    1.5815787    4.4634315 
 6662000    312.35035   -952.55863   -11888.066   -9324.7659    26566.432   -30575.102  0.053935503    1.5816039    4.4633213 
 6664000    295.03044   -952.43113   -9361.6162   -6515.2475     28118.57   -40321.318  0.053935876    1.5816056      4.46344 
 6666000    276.75747   -952.74078   -6908.4198   -1759.7033    22018.445   -35177.084  0.053935483    1.5815727    4.4634776 
 6668000    282.72803    -952.1276   -8982.5955   -1504.9219    25168.202   -29741.175  0.053939376    1.5815942    4.4634099 
 6670000    300.46522   -952.64826   -10367.059   -9525.6835    31138.535   -35542.737  0.053937513    1.5815761    4.4633353 
 6672000    266.11406    -952.9381   -9744.4998   -4338.5248    28205.973    -39840.14  0.053939981    1.5816073    4.4634322 
 6674000    261.00212   -952.17625    2961.8929    2043.8282    25493.675   -32612.379  0.053938665    1.5815862     4.463411 
 6676000    339.47705    -952.4744   -1477.9549    1138.7777     22378.34   -40865.104  0.053944063    1.5815669    4.4633233 
 6678000    266.15757   -952.23662   -1326.3559    -3399.098    24548.229   -46692.888  0.053943999    1.5815996    4.4634066 
 6680000    301.81274   -952.71142   -2782.0483   -771.92918    20011.691   -32468.713  0.053945174    1.5816053    4.4635267 
 6682000    299.76467   -952.63427   -5726.4436   -7738.4109     28601.31   -38274.267  0.053949488    1.5815739    4.4634091 
 6684000    245.00581   -952.89682   -5102.4713   -6511.7692    25979.542   -37368.874  0.053943918    1.5815594    4.4633967 
 6686000    302.81553   -952.74248   -9926.0333   -4404.2056    24905.329    -34931.62  0.053948966    1.5815747    4.4634684 
 6688000    316.87407   -952.32276   -6851.4177   -5757.3188    20026.079   -39403.123  0.053948775    1.5816022    4.4634595 
 6690000     333.3262   -953.06929   -3811.3262   -335.61245    24787.458   -33157.457  0.053948906    1.5815573    4.4633697 
 6692000    355.61846   -952.79062     825.5507   -5203.9075    21815.328   -38529.328   0.05394676    1.5815717    4.4634383 
 6694000    326.44785   -953.02459   -4164.8875   -7124.9033    20439.271   -36458.091  0.053950761    1.5815251    4.4634524 
 6696000    328.82558   -952.33108    3168.4085   -4389.4544    24567.005   -32124.499  0.053950753    1.5815566    4.4634434 
 6698000    280.86573    -952.2187   -6287.0845   -7171.7814    21840.888   -33634.574  0.053952675    1.5815595    4.4634299 
 6700000    322.88266   -952.57768   -10141.976   -9535.7916    19225.433   -43495.494  0.053949713    1.5815305    4.4634328 
 6702000     347.0489   -952.51395   -8915.4373   -11380.404    23159.687   -31855.875  0.053957487    1.5816144    4.4634167 
 6704000     339.9144   -952.32066    941.43125    3161.2281    17369.963   -36123.475   0.05396134     1.581582    4.4634003 
 6706000    299.73664   -952.69811   -6042.0217   -1395.3399    16376.265   -34247.096  0.053959054    1.5815625    4.4634164 
 6708000    325.29098   -952.14179     -3839.25   -2586.5269    27543.073   -40052.623  0.053963254     1.581609    4.4634434 
 6710000    291.68024   -952.91158   -2868.4234   -6830.3023    20886.314   -30480.356  0.053955757    1.5815951    4.4634362 
 6712000    285.30171   -952.28379   -3933.2175   -7243.1469     26615.95   -45820.921  0.053965546    1.5815867    4.4633528 
 6714000    327.48988   -952.33238   -4148.6842   -5805.9348      15054.1   -37971.924  0.053971485    1.5816257    4.4634803 
 6716000    284.93184   -952.63035   -1859.4128   -8919.8483    24468.893   -41733.488  0.053963405    1.5815754    4.4633968 
 6718000    318.18015   -952.62197   -2304.1257   -2767.4305    21453.278   -36897.894  0.053974697    1.5816587    4.4633647 
 6720000    289.78547   -951.85859   -8140.3101   -6516.6215    16095.813   -35599.375  0.053975608    1.5816469    4.4633727 
 6722000    286.73786   -952.66823   -7245.5758    -7609.129    26542.376   -33076.233  0.053973913     1.581599     4.463406 
 6724000    260.40189   -952.41248   -6683.3834   -509.45902    20525.579   -33027.544   0.05398065    1.5816547    4.4634238 
 6726000    321.45468   -952.68288   -2985.0803    1280.4201    25568.505   -36691.503  0.053977243    1.5815971    4.4633025 
 6728000    275.03686   -952.43124   -8285.0689   -7578.7795    19284.202   -36524.073  0.053978369    1.5816233    4.4633752 
 6730000    278.13221   -952.60246    -5077.545   -220.95114    16288.679   -25531.275  0.053987232    1.5816082    4.4634047 
 6732000    325.79301   -952.92592   -9290.6177   -2185.0639    23238.398   -40128.645  0.053981371    1.5815559    4.4632904 
 6734000    358.97518   -952.36493   -3699.5347   -2507.4048    19661.446   -35189.814   0.05398312    1.5815939    4.4633105 
 6736000     315.6848   -952.61561    1026.2233   -2915.1507    21670.911   -40548.869  0.053981421    1.5815947     4.463322 
 6738000    355.27552   -952.09558   -4991.5834   -4444.2157    21375.469    -42056.47  0.053980667    1.5816115    4.4633228 
 6740000    256.56103   -952.35719   -1437.6706   -1771.7563    23724.925   -42264.655  0.053983498    1.5816228    4.4632923 
 6742000    284.20724    -951.7458   -1082.2662   -5415.7772    21378.911   -33400.158  0.053978531     1.581593    4.4632987 
 6744000    278.55793   -952.66867   -8359.5875   -4237.6451    30925.026   -36354.819  0.053988685    1.5815932    4.4633072 
 6746000    290.35869   -952.50342   -1660.7475   -3153.9463    23918.237    -36883.21   0.05398081    1.5816095    4.4633517 
 6748000    351.93448   -952.67543   -7598.7614   -6139.2952    25076.967   -39477.042  0.053981128    1.5815869    4.4632456 
 6750000    299.29894   -952.78875   -2482.3421   -1609.5378    21553.094   -39380.313  0.053983783    1.5816064     4.463287 
 6752000    320.39429   -952.37988    3506.7419   -269.68771    18603.403   -33462.983  0.053978051     1.581548    4.4632724 
 6754000    280.88385   -952.23158   -4921.0831    3794.3609    22078.542   -39649.398  0.053980026    1.5815645    4.4632257 
 6756000    328.04293   -952.69534    1447.5138   -596.26415    23650.228   -30449.542  0.053981491    1.5815878    4.4632356 
 6758000    308.97702   -952.05369   -6348.1014    -9924.674    25854.977   -28566.472  0.053977756    1.5815242    4.4632663 
 6760000    323.41146   -952.66645   -6351.4335   -904.16603    23982.052   -35559.915  0.053981534    1.5815683    4.4632688 
 6762000    220.39915   -952.77567   -6915.0968   -5553.9325    17166.063   -38884.714  0.053983814     1.581528    4.4632258 
 6764000    332.01123   -952.74289    -4502.804   -9325.0968    28297.905   -41223.406  0.053979306    1.5814952    4.4632255 
 6766000    252.09182   -952.50677    -5259.818    -6644.218    22562.298   -41972.165  0.053980075    1.5815364    4.4632645 
 6768000    318.84884   -952.73028   -439.03123   -8533.4455    14133.462   -41363.392  0.053981308    1.5815528    4.4632157 
 6770000    254.98353   -952.44135   -5964.1732    -26.14826    15160.634   -35662.961  0.053979034    1.5815081    4.4631771 
 6772000    321.21604   -952.51767    1843.8182   -1414.5314    20321.348   -43214.736  0.053977599    1.5815033    4.4632936 
 6774000    314.04224   -952.61657   -2827.7051   -1893.6647    24574.167   -37511.306   0.05397571    1.5814772    4.4632388 
 6776000    298.47134   -953.12821   -11079.825   -8020.6694    28281.337   -44739.471  0.053979286    1.5814934    4.4632186 
 6778000    301.00497     -952.344    5218.2707   -5440.8879    18683.396   -35405.272  0.053977303    1.5815207    4.4633728 
 6780000    352.64322   -952.22805    15.843642   -5817.5729    28017.196   -32926.876   0.05397867    1.5814642    4.4632604 
 6782000    263.50721   -952.71449   -9039.5849   -3768.3146    16118.665    -39250.22  0.053983003    1.5814689    4.4632034 
 6784000    279.24672   -952.94244   -1741.9472   -4550.4774    21265.291   -36587.631  0.053981469    1.5814839    4.4632996 
 6786000    323.23617   -952.59311   -7450.2487    610.43881    27976.338   -35613.449  0.053984823    1.5814486    4.4633126 
 6788000    282.28647   -953.02185   -5912.6842   -8942.5489    21458.864   -38214.549  0.053976573    1.5814651    4.4632768 
 6790000    318.32986   -952.31226   -4272.8149   -1955.7902    26586.853   -37922.402  0.053982457    1.5814382    4.4632595 
 6792000    280.23168   -952.89156    1524.3761   -3290.9714    16938.109   -41248.869  0.053987374    1.5814412    4.4633853 
 6794000    333.27056    -952.8922   -2429.0667    -5681.242     28483.33   -33401.423  0.053981694    1.5814171    4.4633242 
 6796000    336.42173   -952.57383   -14354.533    -701.9653    20646.718   -39380.272  0.053981988    1.5814484    4.4632853 
 6798000    284.33784   -952.73459   -4468.2779   -8527.5742    22565.828   -39510.537  0.053981908    1.5814113    4.4633172 
 6800000    282.65879   -952.90681   -6255.5335    -5139.178    25837.164   -33180.224   0.05398311    1.5814353    4.4633186 
 6802000    336.04553   -952.64913    4909.9678    -1803.615    22065.141   -40022.638   0.05398511    1.5814444    4.4632235 
 6804000    274.28403   -952.69645   -9593.3957    30.680781    28237.685   -41426.109  0.053979278    1.5814321    4.4632837 
 6806000    309.07256   -952.57935   -1075.8832   -458.67388    24706.014   -38696.423  0.053987302     1.581478    4.4633185 
 6808000    321.12064   -952.50035   -4642.2324   -8211.7088    22588.085   -35588.587  0.053986658    1.5814331    4.4632679 
 6810000    281.87071   -952.81583    -4901.267   -2571.3255    12121.096    -41191.35   0.05398358    1.5814018     4.463291 
 6812000    261.17333   -952.42425   -6727.5407    2076.6219    20656.691   -37656.145  0.053983215    1.5814342    4.4633057 
 6814000     294.9872   -952.71687   -3836.2289    -4611.359    27931.903   -33715.115  0.053986386    1.5814197    4.4632549 
 6816000    300.78806    -952.6965   -4705.9468   -3871.3919    20499.029   -39417.013  0.053991615    1.5814392    4.4632631 
 6818000    253.36432   -952.98525   -4462.9788   -6594.9127    23375.265    -37050.79  0.053984537    1.5813882    4.4633041 
 6820000    318.57165    -952.6634   -2649.4182   -5554.5951    25927.736   -37557.043  0.053988684    1.5814187    4.4633212 
 6822000    319.28492   -952.53922   -5607.4982   -6980.0525    15816.595   -39960.936  0.053990368    1.5814336    4.4632937 
 6824000    249.60008   -952.70826   -1369.6044   -5146.0691     18094.59   -36883.969  0.053984629    1.5813864     4.463282 
 6826000    282.01746   -952.76877    3429.3573   -7751.3857    22531.841   -39471.853  0.053990465    1.5814033    4.4632944 
 6828000    250.66925    -952.7211   -810.40766     -733.193    21486.394   -32016.724  0.053986617    1.5814101    4.4632328 
 6830000    303.40822   -952.66947    1205.1732   -1044.2764     27593.33   -37626.946  0.053983952    1.5813659    4.4632511 
 6832000    276.95529   -952.11407   -1129.3304   -601.85503    17948.914   -35522.634  0.053986647    1.5813826    4.4632183 
 6834000    308.72823   -952.67146   -5089.6655   -6673.4862    20453.016   -41171.248  0.053982072     1.581352    4.4631314 
 6836000    289.97135   -952.67505    288.49723   -5006.2719    25053.263    -36727.45  0.053990303    1.5813936    4.4632736 
 6838000    334.89278   -952.46358   -2956.2404    628.84804     22256.38   -36077.656  0.053990767    1.5813412    4.4632014 
 6840000     351.9317   -952.67434   -8350.0859   -1431.9472    20040.501   -35607.298  0.053989855    1.5813241    4.4631844 
 6842000    289.97271   -952.79924    -1273.685   -2386.1377    21436.267   -40652.958  0.053994207    1.5813657    4.4632208 
 6844000    310.12347   -953.04736   -7063.3022   -630.33912    19486.646   -30222.497  0.053998922    1.5813323    4.4631878 
 6846000    307.46989   -952.79443   -5454.3227   -3592.8649    21883.856   -41729.017  0.054011087     1.581324    4.4631336 
 6848000    262.30327   -952.37629   -2906.3597   -3598.8526    16162.649    -35884.85  0.054023668    1.5812905     4.463126 
 6850000    309.84596   -952.14333   -525.92811   -9221.7292    17620.884   -38980.413  0.054025868    1.5812412    4.4630985 
 6852000    326.66776   -952.58136   -2347.9748   -4334.4974    26254.579   -31805.855  0.054029497    1.5812984     4.463163 
 6854000    326.67918   -952.88015   -1608.8622   -1170.5321    15631.856    -37526.64  0.054028511     1.581257    4.4631478 
 6856000    335.35319   -952.56693    1017.6149    4138.3789     21908.57   -38268.055  0.054032396    1.5812281    4.4630805 
 6858000    307.07971   -952.59454   -7499.5334   -6724.6671     26473.62   -36690.035  0.054033068    1.5812626    4.4630952 
 6860000    331.09907   -952.56019    -1888.064     -7864.41    24047.347   -42537.945   0.05402947    1.5812442    4.4631121 
 6862000    301.14273   -952.72845    121.45169    1615.6184    23061.131     -35314.1  0.054040663      1.58124    4.4630104 
 6864000    320.45269   -952.50399    3717.9067   -1601.0954    28921.255   -42827.637  0.054032665    1.5812287    4.4631075 
 6866000     270.3843   -952.50167   -12594.094   -6865.1991    19885.654       -40267  0.054035535    1.5812194    4.4631139 
 6868000    347.16535   -952.62264   -2274.1075    1323.2839    23464.417   -36815.261  0.054036411    1.5812495    4.4630546 
 6870000    299.84893   -952.92255   -2339.7954   -1782.6055     22354.95   -38248.722  0.054034052    1.5812033    4.4630912 
 6872000    239.31941   -952.23524   -2312.6997   -962.28058     23891.54   -34572.176   0.05403447    1.5812371    4.4631608 
 6874000    324.73685   -952.67453   -1249.5423    43.572072    25468.505   -33868.524  0.054033696    1.5812258    4.4630828 
 6876000    299.99142   -952.48456   -2735.8121   -6719.9381    18859.257   -44389.679  0.054038543    1.5812071    4.4630282 
 6878000    278.61622   -952.89289    1368.2588   -5384.4967    22965.395   -29640.674  0.054036838    1.5811996    4.4630791 
 6880000    321.43383   -952.60077   -3146.3629   -1649.1932    28313.251    -31213.94  0.054035609    1.5811905    4.4630251 
 6882000    338.50008   -952.56225   -3328.4903   -4229.3004    18567.569    -32804.73  0.054042053    1.5812444    4.4629746 
 6884000    273.47328   -952.92914   -8219.5774   -8627.7032    22644.842    -42704.12   0.05403638    1.5811874    4.4630704 
 6886000    261.65047   -952.85774   -5791.9269   -7670.9984    28955.671   -38578.021  0.054039117    1.5811725     4.463072 
 6888000    301.14025   -952.73883   -9982.4698   -5544.7333    21857.877   -43406.757  0.054043184    1.5812195    4.4630114 
 6890000    325.15777   -952.44295   -1701.4749   -5084.7164    19029.305   -37370.256  0.054040363    1.5812102    4.4631065 
 6892000    286.25462   -952.23864   -3659.5106   -7687.6304    16217.305    -34556.14  0.054039074    1.5812045    4.4630244 
 6894000    251.71088   -952.64342   -9939.2769   -4206.5342    21672.353   -37302.007   0.05403854    1.5812047    4.4629306 
 6896000    294.56473   -952.53944   -10517.112   -2337.0414    17212.582   -39788.995  0.054038761    1.5811705    4.4630304 
 6898000    234.92727    -952.0688   -8485.2795    -7123.183    19156.279   -40109.764  0.054036418    1.5811647    4.4629968 
 6900000    302.89918   -953.01246    1499.7538   -4094.4691    21249.562   -33948.843  0.054035583    1.5811743    4.4629934 
 6902000    255.62891   -952.51221    208.97611   -1900.9438    18376.857   -36483.753  0.054037394    1.5811755    4.4629473 
 6904000    336.09501    -952.6789   -3387.6276   -11083.803    21536.425   -42811.458  0.054038394    1.5811542    4.4629974 
 6906000    262.24962   -952.57207   -8469.4518   -8159.4857    21235.793    -34447.88  0.054040273    1.5811492    4.4630017 
 6908000    305.46044   -952.60897     1892.633   -5632.0612    21543.258   -38143.243  0.054042667    1.5811367    4.4628675 
 6910000    308.00389   -952.41872    -7760.752   -9807.8464    26204.193   -44187.484  0.054040759    1.5811707    4.4629402 
 6912000    293.53572   -952.57019    -12867.15   -660.90352    13648.651   -37203.208  0.054045764    1.5811541    4.4630034 
 6914000    314.74213   -952.04784   -4281.0623   -3534.1722    22196.016   -37507.528  0.054042577    1.5811185    4.4629159 
 6916000    277.50999   -952.72979   -5575.5933   -8110.9679    28138.941   -41205.347  0.054044905    1.5811168    4.4629418 
 6918000    303.02791   -952.77329   -4662.1656   -1491.9714    22657.087   -36183.285  0.054047571    1.5811393    4.4629727 
 6920000     252.8294   -952.39807    2190.6761   -2276.3101    26387.234    -36645.79  0.054044232    1.5811059    4.4630013 
 6922000    346.37079   -952.31853   -6844.0206   -360.68157    26635.867   -41246.347    0.0540476    1.5811476    4.4629855 
 6924000    256.83376   -952.42938   -1970.1593    -776.6921    23472.819   -43869.323  0.054049462    1.5811228    4.4628375 
 6926000    301.50554   -952.40091   -3700.6163   -6980.6547    21171.819    -40997.37  0.054051265    1.5811069    4.4629386 
 6928000    247.23521   -952.59494   -8854.9621   -2816.0794    25433.802   -37060.025  0.054054136    1.5811519    4.4629884 
 6930000    333.36049   -952.71782   -2790.5415    2776.1839    22368.844   -31925.977  0.054053815    1.5811247    4.4628408 
 6932000    309.85859   -952.48567   -4411.1009   -56.290734    24640.415   -41733.874  0.054053546    1.5811319    4.4629024 
 6934000     357.1129   -952.47483   -8438.8407   -2852.6392    14233.013    -41701.33  0.054058246    1.5811452     4.462964 
 6936000    282.14766   -952.61041   -4508.5913   -4316.8289    22170.618   -41634.662  0.054051032    1.5810785     4.462858 
 6938000    324.15381   -952.68609    -121.4876   -6298.7168    20738.888   -36954.751  0.054053528    1.5811378    4.4628863 
 6940000      327.605   -952.45356     -2688.02    1353.3747    17370.298   -34229.335  0.054053776     1.581127    4.4628831 
 6942000     271.4526   -952.65403   -2248.4159   -5311.9728    20931.707   -36842.632  0.054054409     1.581104    4.4629039 
 6944000    320.70907   -953.22471    -5074.452   -6792.8937    20788.181   -37069.072  0.054057366     1.581114    4.4628688 
 6946000    296.59102   -952.55916   -3449.7039   -2433.5009    24782.558   -39096.507  0.054054511    1.5810702    4.4628782 
 6948000    301.06683   -953.03114   -6170.9427   -7650.1802    26877.255   -39850.553  0.054054859    1.5811013    4.4629378 
 6950000    346.88723   -952.40496   -3096.2403    1939.4394    12973.453   -33152.114  0.054056124    1.5810942     4.462905 
 6952000    349.54092   -952.11132   -6309.5742   -3978.4279    24125.158   -42445.908  0.054052373    1.5810618    4.4628487 
 6954000    274.96488   -952.41983   -818.63317   -11738.735     23006.53   -39281.002  0.054056272    1.5811155    4.4629635 
 6956000    342.24934   -952.86582     -11536.6   -2593.3324     23424.95   -36027.617  0.054055196    1.5810451    4.4628315 
 6958000    263.94672   -952.86484   -3840.7029   -3454.9923    23907.308   -42118.727   0.05405538    1.5810838     4.462791 
 6960000    254.39599   -952.81598   -5277.4615   -7291.8685    22248.403    -32872.89  0.054061844    1.5811015     4.462919 
 6962000    281.78244   -952.68467    -8910.557   -4310.0331      19015.8   -36839.884  0.054057118    1.5810628    4.4628607 
 6964000    287.79716   -952.69519   -3992.0613   -3317.4006     27194.18   -43713.233  0.054062223    1.5810834    4.4628273 
 6966000    354.24335   -952.52515   -5028.1562    849.61914    21441.655   -36062.265  0.054061819    1.5810596    4.4628844 
 6968000    235.12559   -952.47799   -6440.0384   -1502.4718    23648.477    -37249.82  0.054060069    1.5810518    4.4628572 
 6970000    278.43604   -952.60813   -6478.5781   0.66939346    26359.636    -38755.66  0.054066024    1.5810964     4.462835 
 6972000    309.57791    -952.4626   -6011.6813   -6165.6504    22880.755   -32256.548  0.054060725    1.5810521    4.4627797 
 6974000    329.79389   -952.75928    -8848.903   -8604.4016    25254.015   -37038.761  0.054060972    1.5810229    4.4627943 
 6976000     265.8924   -952.50956   -6344.8523   -2121.3949    22084.345   -33245.717  0.054065142    1.5810521    4.4628328 
 6978000    321.11816   -952.62882   -865.69449   -2971.4001    19837.601   -32951.159  0.054057707    1.5810381    4.4627621 
 6980000    290.78179   -952.43557   -8728.5302   -3499.6031    26977.545   -39192.197   0.05406183    1.5810284    4.4627553 
 6982000    314.87322   -952.41181   -8372.9969   -6232.7364    17933.651   -35544.897  0.054061448    1.5810479    4.4628144 
 6984000    254.60147   -952.44107   -7549.1022   -11540.929    25605.543   -32501.194  0.054063149    1.5810259    4.4627457 
 6986000    276.24561   -952.69753   -11573.222   -4917.6003    28012.685   -36791.029  0.054061715    1.5810161    4.4627138 
 6988000    289.26737   -952.65269   -3488.7123   -6398.8404    18523.167   -37317.051  0.054067511    1.5810655    4.4627744 
 6990000    309.12878   -952.61707    619.90687    2900.9548     24264.13   -30205.061  0.054062439    1.5810192    4.4627232 
 6992000    293.75056   -952.56211   -6134.5988   -2887.3396    22955.446    -36613.02  0.054064768    1.5810409    4.4627011 
 6994000     294.7376   -952.73627   -2447.1322   -1981.9064    24190.326   -38784.936  0.054063765    1.5810783    4.4627366 
 6996000    313.90055    -953.0114    434.32568   -221.79572    24690.863   -38095.189  0.054061189    1.5810136    4.4627222 
 6998000    257.57627   -953.11317   -1572.0221   -4003.2338    22443.004   -37239.604  0.054062145    1.5810422    4.4626943 
 7000000    313.09003   -952.62493    3057.5632    1216.0058    19084.852   -36507.315   0.05406514    1.5810594    4.4627157 
 7002000    298.58714   -952.08766    2921.7496   -5103.7102    26448.643   -36182.886   0.05406138    1.5810182    4.4627342 
 7004000      286.544   -952.40407   -338.99408   -1366.3794    26098.569   -43070.803  0.054068763    1.5810162    4.4627165 
 7006000    365.74513   -952.59085    4551.6287   -4825.0344    17753.643   -43464.225  0.054065108    1.5810336    4.4626731 
 7008000     331.6606   -952.41702   -3516.0311   -8881.4297    25456.811   -38923.826  0.054064598    1.5810295     4.462696 
 7010000     314.5873    -952.7942    -8358.462   -3018.6792    24665.947   -39065.003  0.054070475    1.5810279    4.4627605 
 7012000    294.81687   -952.86375   -406.28404   -2196.4943    25738.805   -35444.209  0.054067863    1.5810088    4.4626945 
 7014000    295.81385   -952.63006   -7052.7119   -7021.8255    20443.279   -37986.345  0.054071033    1.5810037    4.4627033 
 7016000    300.57849    -952.1556   -1136.2514   -5599.3179    13883.289   -38932.812  0.054070227    1.5810277    4.4627165 
 7018000     264.8795   -952.55917   -2681.2554   -2055.0609    19317.776   -39107.143   0.05406712    1.5809905    4.4627114 
 7020000     275.3987   -952.60145    7195.3794   -2706.1468     14165.17   -40646.378  0.054070928    1.5809879    4.4626447 
 7022000    299.40202    -952.8922   -6621.6414   -6263.3362    22903.639   -44458.892  0.054066661    1.5809944    4.4626461 
 7024000    288.99842   -952.80426   -6648.9195   -1894.7958    23417.227    -36050.86  0.054066111    1.5809947    4.4627099 
 7026000    286.25592   -952.03134   -6925.8073   -5613.0059     24225.15   -35086.442  0.054064575    1.5810094    4.4626831 
 7028000    317.15383   -952.55996   -8326.6302   -9195.3952    29968.774    -40309.75  0.054065697    1.5810016    4.4625966 
 7030000    284.80717   -952.45423    1735.3008    3094.4052    23639.729   -37887.296  0.054067459    1.5810064    4.4626603 
 7032000     255.7001   -952.84652    2295.4206    -3134.046    23168.824   -35512.295  0.054067127    1.5809828    4.4626322 
 7034000    316.75723   -952.53183   -534.46418      4821.59    22154.795   -37763.937  0.054068058    1.5809691    4.4626095 
 7036000    317.14774   -952.49735    5888.9322   -713.76256    22061.832   -32016.745  0.054062486    1.5809892     4.462619 
 7038000    292.82469   -952.12216   -1412.4807   -415.68767    27169.698   -44321.196   0.05406499    1.5809772    4.4626464 
 7040000    336.98951    -952.1794    4741.6962   -8862.0642    17210.441   -33619.705  0.054064369    1.5809855    4.4626697 
 7042000    299.21011   -953.17383   -7438.1789   -3288.1886    20751.524   -37280.043  0.054062905    1.5809196    4.4625465 
 7044000     278.4331   -951.94436   -10165.218   -3950.2019    22438.725     -44936.2  0.054067642    1.5809661    4.4626067 
 7046000    295.08759   -952.61356   -223.19911   -3957.2559    24372.724    -28416.33  0.054066664    1.5809555     4.462673 
 7048000    330.26513   -952.44689   -4126.5188    -6789.904    18921.897   -39869.178  0.054063131    1.5809329    4.4626114 
 7050000    355.80353   -952.60367   -2747.3353   -2917.8938    16237.073   -39464.363  0.054067487    1.5809132    4.4625141 
 7052000    296.39284   -952.63074   -3190.6333   -4613.0606     20512.17   -42940.832  0.054068219    1.5809039    4.4625666 
 7054000     309.4941   -952.50801    4944.8612   -9475.9824    23656.277   -42629.917  0.054073476    1.5808986    4.4626036 
 7056000    302.12422   -952.51375    813.90009    -6402.671     12502.68   -35660.645  0.054087664    1.5809077    4.4625229 
 7058000    298.61257   -952.59066   -1043.4383   -3816.1222    20449.172    -42834.68  0.054094683    1.5808151    4.4625595 
 7060000    280.13293   -952.55732   -6286.1904   -5888.6896    22074.577   -39933.486   0.05410026    1.5808034    4.4626081 
 7062000    312.53678   -952.80427    -1452.031   -388.23468    22177.247   -36049.749  0.054102371    1.5808225    4.4625953 
 7064000    321.31637   -952.36863   -5179.3558   -2853.2988    24865.591   -45821.616  0.054106137    1.5808078    4.4625553 
 7066000    317.54974    -952.8592   -6686.3967   -6882.6537    24567.314    -39600.26  0.054097313    1.5807668    4.4626024 
 7068000    288.22356   -952.81491   -5011.6884    -10000.93    27219.007   -29182.496  0.054105625    1.5808058    4.4626117 
 7070000    294.17424   -952.48142    2427.3521   -3480.3643    15965.515   -35211.022  0.054105719    1.5807921    4.4625135 
 7072000    323.65033    -952.1294   -6252.9254   -8193.3114    15251.218   -35774.135  0.054103332    1.5807523     4.462604 
 7074000    274.12709   -952.74991   -6713.0103   -6309.9742     28702.07   -36474.765  0.054103571    1.5807523    4.4625657 
 7076000    323.60452   -952.66971   -6063.0932   -3894.4822    21346.857   -35144.254  0.054101831    1.5807631     4.462513 
 7078000    351.86315   -953.07755   -13419.533   -5318.9883    25785.218    -43150.56  0.054101283    1.5807176    4.4625453 
 7080000    266.60991   -952.60191   -1947.7979    1419.9333    18755.191   -37675.877  0.054100677    1.5807019    4.4625315 
 7082000    304.59151   -952.59894    1409.4736   -4613.6777    21654.315   -35294.879  0.054102172      1.58069    4.4624053 
 7084000    283.56605   -952.65482   -996.73354    550.12614    18997.033   -41509.229   0.05410464    1.5807364    4.4624795 
 7086000    289.98853   -952.27698   -829.33297    150.35373    20633.551   -33009.569  0.054101905    1.5806847    4.4625305 
 7088000    298.15093   -952.51753   -2346.4543   -3270.3005    20781.916   -40158.104  0.054103614    1.5806623    4.4624138 
 7090000    298.05723   -952.58513   -4301.2427   -5261.6766    29100.172   -39462.283  0.054102381    1.5806809    4.4624084 
 7092000    319.30978   -952.71904   -6352.1964   -409.66079    30633.262   -37206.993  0.054109543    1.5806906    4.4625371 
 7094000    314.78871   -952.04163   -1970.8346   -1571.9248    17947.937   -36303.083  0.054112738    1.5806984    4.4625583 
 7096000    348.03165   -952.39184   -6991.1552   -9131.6632    27360.744   -35858.812  0.054122841     1.580647    4.4624305 
 7098000    296.17395   -952.28009   -9527.0987   -6968.9554     28991.23   -36155.103  0.054129503    1.5806375    4.4624622 
 7100000    275.03246   -952.42242    -5806.719   -7480.2249    24346.118   -41315.059  0.054136615    1.5806237    4.4625312 
 7102000    267.85697   -952.29065   -5899.1694   -1898.1783    18035.042   -36597.155  0.054143674    1.5806186    4.4625237 
 7104000    315.23774   -953.24386   -5725.3647   -8997.2259    21038.177   -37707.526  0.054141445    1.5806066    4.4624229 
 7106000     289.4409   -952.66074   -2909.1561   -6314.4037    25088.446   -33023.429  0.054146331    1.5806109     4.462491 
 7108000    281.22038   -952.49627    1641.7055   -1403.0375    22701.313   -34548.695  0.054142908     1.580582    4.4625647 
 7110000    323.48251   -952.37879   -5517.2579    -6943.498    27757.386   -37970.383  0.054152141    1.5805767    4.4624493 
 7112000    297.35218   -952.33536   -4130.9698   -7253.8889    20539.572    -38364.82  0.054168215     1.580599    4.4625197 
 7114000    290.56139   -952.59223   -575.43721   -1616.1568    21853.898    -43410.45  0.054176351    1.5805166    4.4625862 
 7116000    270.10861   -952.56014   -1570.7815   -3807.0714    27192.581   -40323.296  0.054178872    1.5805089    4.4625163 
 7118000    289.55705     -953.078   -2324.8312   -3952.6142    15417.159   -37647.945  0.054181545    1.5805417     4.462453 
 7120000    315.97839   -952.44077   -6730.8778   -1792.7089    31735.522   -40115.132  0.054176402    1.5805027    4.4625921 
 7122000    325.14235   -952.38916   -11135.659   -11426.461    21299.212   -32377.977  0.054182522    1.5805573    4.4626417 
 7124000    286.21798   -952.72656   -7487.5002   -5427.9063    16007.115   -40903.381  0.054183162    1.5804948    4.4624767 
 7126000    286.72317   -952.55513   -8035.5884   -5395.4042    23850.339   -41774.672  0.054181139    1.5804565    4.4625241 
 7128000     310.4265   -952.80639   -975.72876   -564.53712    21524.216   -48220.194  0.054183613    1.5805283    4.4626447 
 7130000    283.55212   -952.60144    898.43437   -3077.9699    15146.619   -38697.167  0.054184275    1.5805546    4.4626109 
 7132000    273.50932    -952.7442   -5218.9255   -3810.1799    27886.803   -46282.997  0.054181774    1.5805012    4.4624801 
 7134000    265.18438   -953.05024    -5186.451    910.39594    24404.395   -49403.949  0.054184629    1.5805078    4.4625949 
 7136000    289.39744   -952.38872   -1838.7715   -1385.6724    18464.092   -38941.381  0.054181084    1.5805171    4.4626055 
 7138000    340.09501   -952.64855   -4752.8936   -4034.4652    21498.322   -36754.003  0.054180826    1.5805443    4.4624662 
 7140000     288.8112    -952.6405   -4253.2727   -11448.847    22172.741   -41785.028   0.05418032    1.5805468     4.462585 
 7142000    261.88655   -952.73602   -11955.276   -3766.4562    33115.273   -31593.116  0.054177697    1.5804939    4.4626828 
 7144000    294.36446   -952.69541   -8970.4764   -4769.0407    33222.663   -35554.867  0.054178743    1.5805336    4.4625682 
 7146000    300.96427   -952.14477   -3233.8501   -6140.2796    24592.953   -40961.789  0.054181319    1.5805244    4.4625364 
 7148000    281.36086    -952.5938   -5717.2524    474.26088    23667.321   -36875.335  0.054183855    1.5805247    4.4626739 
 7150000    278.59549   -952.57003   -151.35158   -3058.0598    20456.062   -33720.131   0.05418492    1.5805262    4.4626682 
 7152000    261.56468   -952.58559    -6676.153   -3298.3883    20853.829   -37925.239  0.054186317    1.5805165    4.4625587 
 7154000    304.29488   -953.16919    -10483.47    -8365.497    19504.026   -41359.225  0.054189075     1.580491    4.4626181 
 7156000     289.9034   -952.57439   -8521.6577   -6034.2969    23085.169   -39170.743  0.054188036    1.5805162    4.4627092 
 7158000    268.09108    -952.4042   -9829.0475   -6587.7731    17668.346   -39228.468  0.054190597    1.5805486    4.4626085 
 7160000    312.07127   -952.14977   -8447.9352   -3095.3814    22950.709   -36800.956  0.054187404    1.5804862    4.4625865 
 7162000    305.51627   -953.15171    -3713.128    563.87584    20519.281   -38413.448  0.054179372     1.580485    4.4626781 
 7164000    288.51117   -952.30899   -3668.4977    1524.5694     23417.52   -37100.565  0.054186148    1.5805225    4.4626283 
 7166000    263.79939   -952.32963   -10461.204   -2005.2765    18980.455   -38974.405  0.054182574    1.5805288    4.4626222 
 7168000    290.92261     -952.585   -9662.2434   -4716.3988    25294.303    -35456.56  0.054180555    1.5805232    4.4627535 
 7170000    278.03509   -952.66187    2641.6928   -2282.6348    18178.008   -35970.338  0.054179363    1.5804631    4.4626643 
 7172000    348.23764   -952.56199   -9580.4032   -6616.9427    25351.885   -36711.164  0.054183096    1.5804619    4.4625993 
 7174000    301.03213   -952.83875    -44.21823     -11070.9    18941.853   -38905.433  0.054185131    1.5805101    4.4627332 
 7176000    283.03137   -952.98008   -4670.7528   -3451.4481     25315.77    -33346.98   0.05417655    1.5804512    4.4627297 
 7178000    283.41772   -952.63095   -3211.7413   -1733.7545    19935.289   -39996.612  0.054178408    1.5804794    4.4626842 
 7180000    283.58887   -952.41659   -6939.1465   -1877.2145    20741.915    -40789.62  0.054186662     1.580521    4.4626818 
 7182000    297.82291     -952.767   -8249.0101   -6372.1665    21950.857    -39915.02   0.05417652    1.5804535     4.462719 
 7184000    305.20582   -952.54257    1287.3479   -3090.3501    29912.879   -31000.525  0.054180774    1.5804561    4.4626574 
 7186000    310.43112   -952.08374   -8768.8629   -5431.2594    22633.147   -43272.459  0.054183863    1.5804923    4.4626435 
 7188000    288.38634   -952.54553   -2079.2026   -5164.3315    18399.484   -36922.286  0.054187258    1.5804594    4.4627454 
 7190000    277.39986   -952.91802   -1348.6052   -10066.112    20009.872   -34819.098  0.054200695    1.5804273     4.462762 
 7192000    333.39414   -952.65961   -9548.8247   -9607.9436    25039.111   -36377.768  0.054204701    1.5804167    4.4626779 
 7194000    336.90033   -953.22644   -4064.4244   -7597.1088    24506.656   -35976.178  0.054220673    1.5803812    4.4627589 
 7196000    344.85339   -952.58714   -9464.5536   -4570.8463    19921.977   -37798.772  0.054232559    1.5804126    4.4628644 
 7198000    309.14311   -952.33767   -5078.1848   -2635.1103    17640.409   -39432.155  0.054237495    1.5803761    4.4627588 
 7200000    322.30475   -952.32968   -10743.441   -11937.616    25338.388   -39589.702  0.054246679    1.5803646    4.4627547 
 7202000    279.87188   -952.19666   -8726.9198   -7697.4482    18075.799   -37241.852  0.054252394    1.5803189     4.462848 
 7204000    302.58032   -952.34523   -6097.7915   -9141.5501    23959.005   -31943.877  0.054266941    1.5803121    4.4628344 
 7206000     265.9201   -952.38741   -6083.8379   -4300.0122     21974.83   -40323.829  0.054269678    1.5802977    4.4627721 
 7208000    303.27035   -952.55358   -6434.5592   -7078.5756     28968.42   -33360.794  0.054271723    1.5802916    4.4628796 
 7210000    307.21386   -952.84474   -3738.4452   -5756.3686    23722.553   -33514.012  0.054277271    1.5803379    4.4629151 
 7212000    309.90072    -952.6831   -9877.3159   -6650.7829     23198.43   -29599.477  0.054274608     1.580277    4.4628323 
 7214000    305.81317   -952.82741   -7697.9392   -9545.7832    18647.437   -37807.955  0.054274228    1.5802934    4.4628191 
 7216000    264.57137   -952.43677   -4056.3134   -699.93995    28892.736   -34003.444  0.054283023    1.5803577    4.4629267 
 7218000    309.10745   -952.41445   -3483.9288   -7437.3267    19937.723   -34037.787  0.054282386    1.5803341    4.4628719 
 7220000    264.51672   -952.65277   -6731.4274   -3907.1096    25387.769   -34100.008  0.054283529     1.580337    4.4628171 
 7222000    316.77144   -952.30094   -5976.7941   -8917.7846    19325.588   -38872.154  0.054283206    1.5803238    4.4628073 
 7224000     325.4353   -952.24357   -5550.6883    223.97663    22359.346   -36412.125  0.054282826    1.5803093    4.4628516 
 7226000    263.06651   -952.08861    1007.5517    2673.6351    25879.922   -35406.572  0.054283367    1.5803086    4.4628731 
 7228000    279.31365    -952.9085   -3537.9976    559.56025    24695.668   -35989.383   0.05428206    1.5802686    4.4627841 
 7230000    309.34762   -952.27595   -5627.1218    -7587.972    17152.287   -41931.636   0.05428336    1.5802841    4.4628025 
 7232000    300.62628   -952.63039   -7440.8986   -8343.4516    22878.215    -37042.42  0.054285015    1.5802922    4.4628376 
 7234000    326.04453    -952.8445    1232.2538    -1759.996    17743.532     -32061.6  0.054284876    1.5802754    4.4627518 
 7236000    271.10874   -952.75737     -6936.96   -3437.9267    23662.459   -40524.063  0.054287837    1.5802899    4.4627426 
 7238000     301.3334   -952.87536   -3265.2306   -3032.4918    24926.024   -43148.249  0.054289257    1.5802594    4.4628664 
 7240000    289.12247    -952.2974   -8164.3763   -5238.2137    28509.296   -37294.255  0.054290497     1.580282    4.4628468 
 7242000    302.12527   -952.81281   -551.12676    480.56897    21942.702   -40051.413  0.054289805    1.5802736    4.4627597 
 7244000    337.11401    -953.0402   -9468.7381   -3967.8882    24942.183    -43743.84  0.054291347    1.5802476    4.4627393 
 7246000    264.38237   -953.25673   -6031.6114   -2710.9103    11976.866   -35031.331  0.054292975    1.5802992    4.4629463 
 7248000    279.27251   -952.50605   -3092.7967   -5249.2326    17826.896   -36154.056  0.054291857    1.5802923    4.4628628 
 7250000    342.42652   -953.11042   -7387.9822   -5854.5506    15420.407   -39857.286  0.054295362    1.5802897      4.46276 
 7252000    318.70105   -952.54435   -6245.9838   -8717.0917     23809.67   -39219.221  0.054295706    1.5803041    4.4628374 
 7254000    301.78081   -952.59461   -1302.8286   -3449.5265    22050.881    -35776.17  0.054295533    1.5802888     4.462907 
 7256000    275.16316   -952.41256   -7963.8649   -11000.469    21837.215   -38284.429  0.054300069    1.5803057       4.4628 
 7258000    344.10617    -952.4893   -2026.7068   -9098.4996    17304.141   -37906.499  0.054297764    1.5802758    4.4628742 
 7260000    281.68824   -952.49717   -9334.6577    4174.6222    26131.509   -39805.455   0.05429774    1.5802592    4.4629537 
 7262000    305.84652   -952.71851   -6196.0678   -5205.3164    24131.763   -39402.399  0.054306714    1.5803093    4.4629182 
 7264000    300.84941   -952.08494   -3442.7416   -7751.8277     21408.62   -39703.565  0.054302736    1.5802813    4.4628636 
 7266000    284.16577   -952.50163    1175.9199    3802.7309    23504.768   -41348.747  0.054301279    1.5802512    4.4628822 
 7268000    246.75255   -952.52918    5244.5928   -6687.8445    20829.444    -40833.63  0.054303685    1.5802913    4.4628572 
 7270000    280.39688   -952.91053   -3960.6182   -2083.2849    24066.228   -40238.308  0.054301127     1.580251    4.4628011 
 7272000    304.31293   -952.84285   -8155.1847   -5770.5812    20916.998    -37220.64  0.054298366    1.5802457    4.4629067 
 7274000    251.48851   -952.64341    112.68837   -5269.0908    25346.433   -41217.525  0.054300288    1.5802266     4.462874 
 7276000    312.20218   -952.99371   -10801.948   -3027.9637    22483.249   -38616.493  0.054298569    1.5802626    4.4628279 
 7278000    320.00427   -952.76219   -4683.7219   -6512.0667    23454.131   -36378.858  0.054300166     1.580227    4.4628842 
 7280000     333.3654   -952.67287   -7521.9202   -10828.327    22662.619   -41492.304  0.054298779     1.580219    4.4628789 
 7282000    316.97134   -952.49982    -2596.228   -2039.0227     18013.47   -39092.674  0.054300178    1.5802359     4.462833 
 7284000    301.65693   -952.56132    767.42957   -4127.1212    25369.443   -34623.468  0.054305716    1.5802438    4.4628651 
 7286000    279.46587    -953.1008   -2944.5721   -8129.1805    19166.296   -33034.037  0.054301748    1.5802421    4.4629354 
 7288000    247.05967   -952.94346   -1854.9951   -1588.6636    17643.204   -40763.035   0.05430576    1.5802097    4.4628638 
 7290000    270.96148   -952.85942   -2268.4945   -5073.8761    25177.536   -40418.317  0.054305089    1.5801973    4.4628459 
 7292000    277.89209   -952.44285   -6344.1715   -3173.3756    24367.628   -38264.842  0.054308037    1.5802564    4.4629552 
 7294000    304.73825   -952.20762   -1977.4557    347.63668    18430.355   -27768.401  0.054305637     1.580222     4.462929 
 7296000    274.44024   -952.68062    4129.3715    5326.9843    23274.281   -41449.376  0.054308231    1.5801851    4.4628509 
 7298000    257.53028    -952.7819   -1479.6693   -2847.9055    16292.734   -39630.289  0.054314388    1.5802578    4.4629334 
 7300000    278.62096   -953.03381   -1103.5425   -25.607566      21036.4   -29167.876  0.054314125    1.5802848    4.4630401 
 7302000    340.58476   -953.05208   -6609.0046    -1875.695    27877.696    -31058.02  0.054316048    1.5802147    4.4629447 
 7304000    289.97147   -952.83416   -4684.4084   -4108.9422    23753.199   -33733.062  0.054313821    1.5802787    4.4629547 
 7306000    320.57359   -952.66939   -1928.1709   -511.13887    21676.609   -39309.498  0.054319981    1.5802949    4.4629915 
 7308000    376.90014   -952.93696   -11177.246   -4146.6613    17954.453   -42128.981  0.054323662    1.5802721    4.4630188 
 7310000    330.49649   -952.54882    1119.4766   -1210.2475    30084.423   -36931.853  0.054319665    1.5802862    4.4630052 
 7312000    332.24121   -952.12599   -7973.4662   -4579.0944    19444.266   -40456.138  0.054321653    1.5802761    4.4629625 
 7314000    310.54535   -953.04124   -4711.2795   -6474.3558     26032.38   -41688.865  0.054324121    1.5802669    4.4629999 
 7316000    291.23518   -952.88319   -3699.5191   -6132.2664    20313.599   -38169.294  0.054325089    1.5802881    4.4630529 
 7318000    301.20827   -952.53702   -1230.0137    1532.6871    18494.957   -32879.704  0.054322123    1.5802559    4.4629789 
 7320000    328.60783   -952.44112   -2571.7633    1860.1999     24635.01   -41604.801  0.054323284    1.5802502    4.4629945 
 7322000    289.70049   -952.49175    2967.6385   -7992.1801    19630.015   -37987.795  0.054326989    1.5802986    4.4630772 
 7324000    283.08311   -952.67225   -1795.3363   -2170.6166    21342.199   -37721.115  0.054327747    1.5802631    4.4630297 
 7326000    327.10256   -952.57203   -7499.4925   -8064.4026    29067.512   -41346.031  0.054329033    1.5802352    4.4630133 
 7328000     305.9974   -952.12447   -9906.1165   -6498.1529    20719.957   -35738.467   0.05433002    1.5802625    4.4630544 
 7330000    318.46007   -952.69825   -8467.1872    3616.7352    27001.827    -37393.46  0.054335373    1.5802832     4.463076 
 7332000    273.28179   -952.62816   -5939.4572   -7932.7339    26840.372   -43587.013  0.054332485    1.5802518    4.4630339 
 7334000     326.9592   -953.17084   -9872.8783   -3855.3885    25795.293   -42912.045  0.054332168    1.5802201     4.463026 
 7336000    255.05442    -952.5011   -2658.8398      636.573    21304.026   -39057.327  0.054335939     1.580224    4.4631459 
 7338000    259.40518   -952.84888   -7932.7944    -5109.305    24912.904   -33695.035  0.054334753    1.5802242    4.4631061 
 7340000    315.64801   -952.39906   -8289.9716   -6127.6416     27579.75   -39569.086  0.054331949    1.5801898    4.4630547 
 7342000    320.07171   -952.12799   -6110.2178   -5425.9059    26325.778   -37929.896  0.054334756    1.5802187    4.4631722 
 7344000    330.65285   -952.92817   -3146.8702   -7642.4537    24086.547   -37357.348  0.054341246    1.5802156    4.4631207 
 7346000    276.04927   -952.43758   -5567.6435   -6580.0031     25047.92   -44468.709  0.054341738     1.580223    4.4630618 
 7348000    328.07489   -952.47765   -6120.5696   -6589.8159    26603.415   -35379.309  0.054342834    1.5802152    4.4631284 
 7350000    303.68318   -952.81656   -225.00883   -2992.5167    26949.879   -37652.942  0.054343665    1.5802034    4.4631543 
 7352000    389.62045   -952.20935   -3824.5107   -2485.3279    32315.619   -36401.531  0.054347205     1.580225    4.4631195 
 7354000    253.57487   -952.49703    2025.8527   -442.49608    18825.043   -34727.394  0.054349988     1.580223    4.4631543 
 7356000    290.40466   -952.38962   -5491.3323   -9190.3783    24306.818   -42450.876  0.054354958    1.5801856     4.463159 
 7358000    298.60362   -952.21024   -1849.0394   -10903.399    23631.188   -38271.293  0.054365642    1.5802271    4.4632299 
 7360000    277.64201   -952.42826   -5298.4485   -3312.3054    14587.215   -35139.372  0.054368387    1.5802307    4.4632334 
 7362000    276.67768   -952.94564   -6040.4971   -1648.5843    20250.305   -36648.142  0.054378237    1.5801749    4.4631257 
 7364000    282.69959   -952.47968   -3022.5105   -4168.9285    26842.997   -37972.329  0.054384708    1.5802051    4.4632664 
 7366000    321.82371   -952.61046   -2754.0314   -931.74809    23728.825     -35910.9  0.054398261    1.5801614    4.4632555 
 7368000    350.65541   -952.53587   -4004.8222   -8660.8633     24891.66   -45658.724  0.054401451    1.5801025    4.4631971 
 7370000    324.32741   -952.86015   -4077.0916    521.84034    20578.014   -38056.518  0.054404853     1.580141    4.4631971 
 7372000    281.28863   -952.84803   -7711.9426     458.5011    16320.277   -36860.264  0.054410603    1.5801347    4.4632564 
 7374000    298.31924   -952.88286   -6218.4289   -10176.937    17290.836   -35758.579  0.054407321    1.5801328    4.4632537 
 7376000    326.57989    -952.3392   -7396.9105   -1742.9125    19266.506   -41366.881  0.054412782    1.5801138    4.4631906 
 7378000    282.74781   -952.44578   -12619.765   -11685.812     21128.28   -44936.296  0.054411742    1.5801258     4.463118 
 7380000     265.5374   -952.96353   -2320.6433    -8416.225    22220.149   -42495.689  0.054417032     1.580139    4.4632054 
 7382000    302.61031   -952.67206    -3950.882   -5168.4839    23570.825   -35987.813  0.054413736     1.580113    4.4631834 
 7384000     250.0922   -952.61085    -3972.079   -4451.3198    22173.391    -32305.55   0.05441464    1.5800885    4.4630961 
 7386000    314.69534   -952.79397   -5622.0304   -2722.8125    18439.208   -33442.219  0.054418726    1.5801464    4.4632096 
 7388000    289.22192   -952.84419     -10367.4   -7907.7001    22220.531   -27965.342  0.054419233      1.58014    4.4632211 
 7390000    301.49092   -953.06603   -9965.2705   -9763.6895    25451.482   -36043.878  0.054417418    1.5800898     4.463149 
 7392000    335.04373   -952.49139   -3843.1044   -4822.2144    23099.802   -39330.449   0.05441723    1.5800965    4.4631397 
 7394000    309.69301    -952.6384   -7342.5657   -7107.9349    27857.665   -33996.037   0.05442195    1.5801328    4.4631588 
 7396000    303.18562   -952.70838   -4112.8989   -5829.1425    19319.167   -33579.484  0.054423796    1.5801451    4.4631526 
 7398000    254.48668   -952.87504   -928.40113   -6251.7383    20536.457   -35566.964  0.054414096    1.5801022    4.4631433 
 7400000    320.62882   -952.52211   -12362.631   -6177.8813    25414.822   -43026.651  0.054423418    1.5800905    4.4630995 
 7402000    318.16704   -952.61432   -5381.0884   -8095.5812     19575.01   -41478.663  0.054425377    1.5801584    4.4631847 
 7404000    351.49088   -952.16595   -3323.7725   -9727.2029    24666.332   -34846.237  0.054420722    1.5801412      4.46315 
 7406000    322.49428   -952.71111    -6044.056   -11263.803    24891.465   -39548.217   0.05442292    1.5801062    4.4630539 
 7408000    282.67689    -952.4865   -1939.3937    -8407.308    26682.329   -40007.404  0.054421548    1.5801206    4.4631265 
 7410000    275.42261   -952.42891   -7602.4095   -2714.7534    23750.867   -36290.198  0.054430205    1.5801394    4.4631686 
 7412000    294.78415   -952.09966   -3925.1887   -7651.4691    24232.459   -34842.496  0.054430829    1.5801133     4.463088 
 7414000    273.91387   -953.01335   -8516.3733   -3805.7532    21322.525    -43699.74  0.054429167    1.5800891    4.4630855 
 7416000    297.18334   -952.30866   -2724.7814   -2992.7253    19169.006   -41376.986  0.054433687    1.5801282    4.4631455 
 7418000    277.06912   -952.37026     1136.685   -7096.1346     15858.52   -35678.697  0.054435174    1.5801077    4.4630792 
 7420000    271.87597   -952.55039   -6259.4012   -5689.3367    21062.899   -39774.007  0.054443043    1.5800889    4.4630403 
 7422000    328.99192   -952.45069   -4091.0401   -6135.0575     22246.41   -38993.306  0.054439769    1.5800713    4.4631359 
 7424000    275.88102   -952.38605    1753.8459   -282.52366    30446.498   -36647.227  0.054448305    1.5800543    4.4631258 
 7426000      326.519   -952.38174     121.6729   -6072.9945    16197.848   -42004.203  0.054450646     1.580112    4.4631064 
 7428000    268.18121   -952.45301   -5379.5913   -1707.6483    18402.498   -31598.429  0.054448817    1.5800589    4.4631138 
 7430000    330.16902   -952.68855   -1865.8608     -2726.29     21676.65    -38134.16  0.054451464    1.5800259    4.4631004 
 7432000    263.65532   -952.19629   -4984.8261    3014.3651    20448.513   -39118.804  0.054455638     1.580055    4.4631053 
 7434000    304.47514   -952.19417   -4560.8322   -6772.9516     24954.11   -31815.135   0.05445446    1.5800379    4.4631389 
 7436000    361.26346   -952.21597     -2246.59   -8549.1658    24069.934   -29973.804  0.054456498    1.5800381    4.4631498 
 7438000    286.25609   -952.29587   -7729.6755    -6109.596    21094.327   -36745.034  0.054460994    1.5800303     4.463144 
 7440000    278.61818   -952.23242    -14053.64   -11803.052    15640.796   -40668.684  0.054458894    1.5800232    4.4631906 
 7442000    256.36089   -952.76581   -8159.9347   -5304.2054    23295.846   -34667.794  0.054473794    1.5799969    4.4631601 
 7444000    314.75345   -952.53842   -555.87897   -9460.5804    20202.768   -32286.943  0.054481301    1.5800187    4.4631679 
 7446000    231.79334   -952.53397   -9872.7361   -6488.9615    17869.087    -29935.35  0.054490853    1.5799794    4.4631708 
 7448000    318.75224   -952.10555   -7601.3748   -4589.8583     28483.58   -33823.828    0.0545013      1.57995    4.4631014 
 7450000    324.27886    -952.4747   -9146.3534   -13038.535    25379.962   -35511.897  0.054507798    1.5799626    4.4631942 
 7452000    336.38172   -952.39118   -957.47784    -4817.245     27883.43   -36803.579   0.05451166    1.5799687    4.4631949 
 7454000    260.82943    -952.4506   -4100.8989   -5727.0765     29519.09   -40406.135  0.054514094    1.5799251     4.463142 
 7456000    277.89008   -952.24401   -1454.7796   -4078.4254    22924.998    -38143.16   0.05452068     1.579944    4.4631784 
 7458000    314.72996   -952.83035   -4267.7483   -2731.0637    25446.976   -35438.256  0.054528406      1.57994     4.463227 
 7460000     311.7232   -952.29255     -9247.74   -10492.165    21033.704   -38773.982  0.054531037    1.5799195     4.463142 
 7462000    315.14232   -952.35367   -7164.4475   -4105.2756    21977.636    -37683.27  0.054530551    1.5799445    4.4631251 
 7464000    294.03417    -952.3127   -6462.1902    -4017.148    19435.383   -37901.656  0.054533063    1.5799096    4.4631285 
 7466000    342.78173   -952.36616    -3000.756   -2217.3823    24523.832   -34975.705  0.054533687    1.5799275    4.4631785 
 7468000    326.21456   -952.57495    2066.8379     1074.174    16605.392   -35168.106  0.054533433    1.5799481    4.4631694 
 7470000     258.3777   -952.20374   -5876.9514   -5135.4388    21960.491    -31209.67  0.054534537    1.5798797    4.4631212 
 7472000    271.54231   -952.65617    705.48709   -7737.3455    21954.352   -41766.111  0.054535282    1.5799242    4.4631809 
 7474000    278.11482    -952.8201   -2015.0953   -2910.2551    17985.288   -34954.959  0.054535348    1.5799233    4.4631071 
 7476000    296.12094   -952.69922   -3177.6301   -7838.2721    17295.308   -35001.612  0.054534642    1.5799022     4.463112 
 7478000    282.81463   -953.03576    -4466.674   -7042.2816    23465.634   -38621.598  0.054536623    1.5799126    4.4631203 
 7480000     286.2471    -952.1975   -1397.7284   -5595.7086    26694.454   -35090.134  0.054535217    1.5799207    4.4630858 
 7482000    287.39266   -952.90936   -3427.9094   -6734.5891    23649.255   -37624.079  0.054535257    1.5798957    4.4630592 
 7484000    298.66758   -953.01401   -2552.8526   -5948.0298    16300.797   -38575.681  0.054535975    1.5799179    4.4631413 
 7486000    276.77241   -952.72524    -9028.546   -4231.9996    24281.417    -34533.01  0.054536349    1.5798954    4.4630764 
 7488000    293.55333   -952.44012     -3766.77   -1755.3728    23137.968   -33324.837  0.054536936    1.5799046    4.4631117 
 7490000    301.68744   -952.57537   -10255.555   -2079.2697    25295.483   -39769.125  0.054534919    1.5799071     4.463122 
 7492000    280.03737     -952.391    590.40366   -4462.6562    20869.819   -41579.372   0.05454228     1.579908    4.4631667 
 7494000    276.03213   -952.84124   -813.87616   -7465.1844     20053.24    -44913.18  0.054538317    1.5799054    4.4631299 
 7496000    359.40228   -952.36533   -2823.4524   -3682.0306    25290.268   -32350.685  0.054539324    1.5799006    4.4631741 
 7498000    279.28075   -952.57524   -7647.2642   -7992.8545    21211.377   -34636.825  0.054539513     1.579873    4.4631682 
 7500000    297.89251   -952.60005   -6302.2782   -6614.1442    23197.753   -42318.521  0.054538343    1.5798877    4.4631201 
 7502000     282.6441   -952.63811   -3747.4961    265.88273    18659.336   -39691.547  0.054540827     1.579884    4.4631265 
 7504000    355.89625   -952.69808   -6995.3268   -10626.407    17805.511   -36988.463   0.05453508    1.5798782    4.4631608 
 7506000    251.09811   -952.57386   -5202.1475   -4424.1359    21775.361   -44664.824  0.054537239    1.5798472    4.4630879 
 7508000    333.79329   -952.46963   -10594.729   -7789.5762    17385.474   -40460.221  0.054544579    1.5798715    4.4631258 
 7510000    250.62702   -952.67166   -9229.5064    -14972.45    17318.403    -40439.79   0.05453977    1.5798731    4.4631621 
 7512000    264.64537   -952.96087   -6797.7902   -5866.8217     21671.87   -32073.167  0.054538515    1.5798579    4.4631223 
 7514000    296.18503   -952.57588    5171.0005   -2460.6091    16340.335    -39378.75  0.054544115    1.5799015    4.4631568 
 7516000    272.60791   -952.38791   -6499.1627   -2720.1118    11748.049   -33850.467  0.054544297    1.5798709    4.4632287 
 7518000    305.75386   -952.57151   -10872.917   -5274.0961    18211.383   -40365.685  0.054544098    1.5798421    4.4631334 
 7520000    271.56765   -952.26038   -6022.3044   -9741.7831    22497.693   -36719.706  0.054543939    1.5798553    4.4631339 
 7522000    293.72715   -952.58054    463.31047   -797.95495    16774.773    -36139.12  0.054543789    1.5798391    4.4632094 
 7524000    288.21698   -952.66712   -1059.1092   -10607.826    21917.871   -37139.026  0.054536679    1.5798201    4.4631558 
 7526000    277.51945   -952.86954   -5412.5069   -2749.2899    26682.662   -37495.125  0.054546895     1.579862    4.4631236 
 7528000    304.43536   -951.95436    426.43442   -3421.1265    22749.555   -41934.251  0.054544505    1.5798059    4.4631435 
 7530000    288.41634   -952.97006    -11398.29   -6518.2949    26477.093   -38561.364  0.054541338    1.5798093    4.4632013 
 7532000     306.7886   -952.68173   -6050.9211   -5164.5556    17516.927   -32186.012  0.054550778    1.5798595    4.4630869 
 7534000    278.48658   -953.05418   -5922.5793   -254.98523    22552.139   -38300.654  0.054545413    1.5797991    4.4631178 
 7536000    281.07752   -952.24522   -11915.787   -9216.5582    20806.524   -33087.502   0.05454456    1.5798043    4.4632395 
 7538000     278.3611   -952.32778   -4444.7161   -5419.0485    19696.216   -37066.443  0.054553192    1.5798194    4.4631545 
 7540000    300.76625   -952.35996   -10552.587   -5926.7344    28094.685   -33097.273  0.054544212    1.5797652     4.463147 
 7542000    346.83159   -952.27688      -8044.5   -3261.4818    27479.254   -33546.601  0.054546871    1.5798111    4.4632164 
 7544000    294.86986   -952.56688    -6939.972   -1450.7363    23784.893   -37497.877  0.054551829    1.5798093    4.4631377 
 7546000    329.59105   -952.61811   -6123.2805   -41.873874    21875.146   -36618.665   0.05455216    1.5797782     4.463086 
 7548000    331.32241   -952.77877   -2056.8223   -1810.9044    17485.455   -37953.434  0.054551434    1.5798179    4.4631588 
 7550000    286.25492   -952.88426   -1502.7211   -4699.7947    16925.726   -37180.101  0.054551974    1.5797539    4.4631306 
 7552000    259.58727   -952.28081   -2903.9895   -6240.1057    23179.384   -35739.309  0.054550652    1.5797795    4.4630774 
 7554000     306.6118   -952.11074    -9721.063   -6123.4299    26024.134    -37661.05  0.054552548    1.5797943    4.4631483 
 7556000    308.09567     -952.728   -7628.0209   -7804.1281    19991.565     -35966.5  0.054559088      1.57976     4.463118 
 7558000     292.0132   -952.43369   -6898.4807   -1526.9494    24575.499   -32496.037  0.054557231    1.5797784    4.4631213 
 7560000    322.79284   -952.31243   -2311.8879   -4224.2905    18334.279    -35768.39  0.054555053    1.5797733    4.4631335 
 7562000    327.99601    -952.5745   -6088.6282   -8851.5017    20886.824    -43381.31  0.054553184    1.5797553    4.4630509 
 7564000    300.94489   -952.31791   -7223.5634   -7297.6958    18817.685   -35313.382  0.054557766    1.5797992    4.4631555 
 7566000    313.88311   -952.76236   -9033.4701    -6273.315    26411.672   -34500.315  0.054555007    1.5797524    4.4631226 
 7568000    291.55789   -953.60135   -1230.7722   -6121.8072    18931.616   -34510.495  0.054554157    1.5797488    4.4630791 
 7570000    253.94159   -952.92612   -3684.1376    -5997.475    19514.749   -39768.736  0.054562385    1.5797642    4.4630637 
 7572000    315.49576    -952.7217   -6290.3179   -7305.8027    25159.135   -41785.621  0.054553386     1.579772    4.4630922 
 7574000     262.8551   -952.32645   -12582.909   -6671.5373    15199.928   -31610.196  0.054553612     1.579757    4.4630962 
 7576000    317.30089   -952.05865   -7630.4852    1209.2568    26479.721   -33548.839  0.054550596    1.5797327    4.4630416 
 7578000    302.39247   -952.13578   -9459.4166   -5958.6846    21176.999   -37843.011  0.054558075     1.579729    4.4630324 
 7580000    294.45118   -952.48179   -6608.8355   -11384.519    22949.679   -38116.685  0.054560844    1.5797428    4.4630987 
 7582000    317.36373   -952.57901   -1878.5839   -3988.7639    20315.175   -32416.528  0.054553525    1.5797177    4.4630892 
 7584000      333.047    -952.6561   -8550.0252   -8425.5654    23756.984   -36555.656   0.05456633     1.579725    4.4630221 
 7586000    288.95162   -952.20571   -5065.7499   -6566.5164    19735.945   -39591.789  0.054563157    1.5797722     4.463096 
 7588000    270.66422   -952.65285   -8036.6428   -8139.9665    17360.882   -36200.655  0.054559121    1.5797332    4.4631347 
 7590000    293.59723   -952.73912   -5779.3115   -3845.1117    23128.321   -42870.667   0.05456563    1.5797411    4.4630889 
 7592000    289.21829   -952.94763   -3769.1944    869.71521    15163.252   -38394.207  0.054561171    1.5797477    4.4630724 
 7594000    287.89913    -952.9851   -6666.8476   -3563.2646    26360.303   -30267.578  0.054558299    1.5797274    4.4631221 
 7596000    324.15259   -952.38791   -8446.5191   -11276.767     22198.73   -39813.791  0.054560554    1.5797172    4.4630889 
 7598000    278.45481   -952.93111   -10992.291   -6153.2388    28361.315   -35131.701  0.054558934    1.5796882    4.4630747 
 7600000    303.95799   -952.75146   -3789.6598   -7017.3802    23700.252    -34241.21  0.054556643    1.5797039    4.4630694 
 7602000    301.55939    -952.2814   -6147.3415      -3578.9    23430.102   -43076.604  0.054561458    1.5796947     4.463027 
 7604000    317.56293   -952.46736   -8420.3162    3323.6746    23137.193   -32576.354  0.054559215    1.5797339    4.4631408 
 7606000    273.17076   -951.68688   -9837.5376    -1829.688     16285.03   -34245.662  0.054559955    1.5796774    4.4630519 
 7608000    328.66947   -952.52813   -13612.969   -4080.9894    22725.788   -44813.488  0.054567113    1.5796834    4.4630155 
 7610000    308.65055    -952.9482   -3335.7762    2877.4133    19781.529   -34767.687   0.05456942     1.579746    4.4631127 
 7612000    308.70596    -952.7261   -2836.3624   -7163.3927    20206.487   -39665.202  0.054566163    1.5796751    4.4630586 
 7614000    296.23089   -952.41226   -2297.3465   -11875.559    28193.266   -37313.622  0.054568451    1.5797091    4.4630742 
 7616000    273.42507   -952.97363   -5507.5271   -2742.7061    17504.039   -40662.021  0.054568576    1.5796968    4.4630744 
 7618000    275.15339   -952.25519   -1222.7977   -983.38133    21176.506   -33192.592  0.054568782    1.5796658    4.4630833 
 7620000    305.66225   -952.30389   -2693.3526   -1999.8521    18271.823   -43624.623  0.054575494    1.5796951    4.4630874 
 7622000    299.55859   -952.78279   -4480.7458    2112.6315    18817.374   -44016.518  0.054570063    1.5796736    4.4630777 
 7624000    287.82393   -952.73063   -259.62683   -1491.0634    22822.906   -40563.495  0.054575507    1.5796581    4.4631228 
 7626000    305.85696   -952.30583   -4890.5427   -4250.8194    26268.694   -40335.734  0.054583579    1.5797113    4.4631392 
 7628000    259.92228   -952.14899   -9571.9244   -5286.5805    19710.119   -38109.785  0.054578383    1.5796771    4.4631351 
 7630000    282.50141   -952.48589   -5640.6945   -2292.4829    25228.221   -36770.077  0.054585196    1.5796839    4.4631666 
 7632000    328.56561   -952.07792   -8824.9685   -6429.3793    18450.091   -32208.787  0.054585563    1.5796985    4.4632192 
 7634000    254.65971   -952.57938   -4294.8822    -7569.622    24795.254   -41520.124  0.054585533    1.5796602      4.46314 
 7636000    315.88024   -952.80388   -5412.2439   -6491.0891    21084.236   -35728.196  0.054587222    1.5796615     4.463175 
 7638000    318.58062   -952.66919   -7900.7072   -3828.8904    21695.568   -35150.628  0.054587661    1.5796318    4.4632249 
 7640000    300.92818   -952.03918    3888.5662    3635.5288    24702.206   -40918.398  0.054589476    1.5796402    4.4631818 
 7642000    347.54227   -952.44766   -5415.6855    -3672.262    20660.423    -36863.89  0.054591009    1.5796401    4.4631974 
 7644000    329.68878   -952.63985   -4093.3553   -1950.3566    22442.895   -42346.415  0.054590711    1.5796176    4.4631864 
 7646000    322.54894   -952.51647   -4447.7797   -6101.9834    22293.478   -43526.252  0.054590922    1.5796559    4.4632384 
 7648000    293.16073   -952.52872   -10742.961   -8183.0433    21433.519   -40614.809  0.054591949    1.5795875    4.4632148 
 7650000    251.95603   -952.78536   -7475.6729   -3761.2317     22566.72   -40802.535   0.05459002    1.5795985     4.463252 
 7652000    313.47064   -953.01009   -5694.5589   -3161.0952    20034.268   -34092.998  0.054594217    1.5795974    4.4632876 
 7654000    274.21733   -952.81265    1657.9334   -6189.6676    22041.985   -39933.293  0.054587477    1.5795572     4.463254 
 7656000     307.2477   -952.35549   -3853.1251   -1294.4194    28155.536   -41080.649  0.054594439    1.5796269    4.4632083 
 7658000    280.67907    -952.8194   -8292.1341   -825.36953    23217.376   -37267.589  0.054591602    1.5796049    4.4632165 
 7660000    362.93084   -952.10977   -1277.7463    606.02759    20901.188   -35538.877  0.054590994    1.5795713     4.463221 
 7662000    305.86821   -951.90108   -13140.674   -4461.6527    21275.194   -41534.853  0.054592109     1.579569     4.463261 
 7664000    279.81815   -952.50232   -757.85072    332.69745    22267.459   -35851.195  0.054586737    1.5795772    4.4633604 
 7666000    310.17888   -953.09465   -6779.4238   -5027.0057    27354.013   -36659.094  0.054591354    1.5795213    4.4632404 
 7668000     302.5811   -952.80142   -4644.8174   -4903.7036    23897.476   -42688.304  0.054586844    1.5795368    4.4633722 
 7670000    369.87706   -952.73731   -1316.0182   -3321.8471    20674.121   -36050.057  0.054591193    1.5795619    4.4634035 
 7672000    321.88914   -952.75499   -4521.8445   -8.5290053    23062.601   -38729.403   0.05459363    1.5795169    4.4632747 
 7674000    337.77958   -952.54785   -5177.7702   -9031.4025     21903.61   -34148.914  0.054593547    1.5795224    4.4633256 
 7676000    283.89387    -952.5521   -7709.5046   -5685.5529    19562.971   -37841.764  0.054597609    1.5795578    4.4633942 
 7678000    286.32772   -952.51824   -6750.1268   -5708.5661    21139.686   -39418.889  0.054594175    1.5795148    4.4633329 
 7680000     303.9271   -952.62971   -10074.336   -7680.7642    21801.802   -34145.649  0.054596085    1.5795361    4.4633415 
 7682000    278.48014   -952.77931   -7416.9909   -5522.4932    19860.313   -37288.003  0.054593615    1.5795126    4.4633653 
 7684000    330.78045   -952.39442   -8469.1725   -7208.5129    25454.752   -32911.467  0.054591437    1.5794995    4.4633845 
 7686000    316.18616   -952.70205   -8244.8624   -5774.8765    24064.217   -34218.145  0.054596193    1.5795371     4.463329 
 7688000    316.08276   -952.77132   -433.45435   -2769.6948    16255.432   -41234.823  0.054592481     1.579476    4.4632999 
 7690000    357.26414   -952.56371   -8551.3646   -4345.2929    24812.024   -37317.237  0.054591517    1.5794571    4.4634118 
 7692000     304.1666   -952.80206   -2381.0564    85.334743    25202.734   -31496.231  0.054595061    1.5794933    4.4633498 
 7694000     381.1207   -952.96443   -2790.9688   -8891.0569    29208.166   -37789.683  0.054590791    1.5794462    4.4633164 
 7696000    263.91879   -952.61464   -3204.5716   -6697.8876    21647.284    -39300.36   0.05459263    1.5794838    4.4634694 
 7698000    291.87522   -953.04783   -4359.4921     3230.638    21324.367   -40208.738  0.054596928    1.5794392    4.4634014 
 7700000    297.96181    -952.6884   -5641.4777   -4482.3257    22878.527   -39945.796  0.054592533    1.5794102    4.4633987 
 7702000    295.38798   -953.08928   -7538.0763   -2978.7275     24227.83   -35706.533  0.054599407    1.5794614    4.4634757 
 7704000    249.83067   -952.79247   -3647.4527   -6898.9171    28390.609   -43272.901  0.054595659    1.5793894    4.4633893 
 7706000    239.11744    -952.5292   -3542.9861   -1879.6421    24755.367   -41736.479  0.054598754    1.5794108    4.4634677 
 7708000    270.32906   -952.43209   -6694.1168     1584.898    22171.356   -40418.909  0.054604855    1.5794055    4.4634549 
 7710000    248.45768   -952.47309   -7264.1784   -7402.9646    19379.961   -42912.208  0.054600879    1.5793848    4.4634369 
 7712000    278.35828    -952.9111   -1868.6001   -94.978476    21443.752   -36054.891  0.054605955    1.5794074    4.4634391 
 7714000    308.68429   -952.59436    890.94962   -1907.1249    20805.464   -37914.264  0.054601141    1.5793743    4.4634341 
 7716000    321.48129   -952.45173   -8172.7974   -7053.3272    22082.913   -40743.171  0.054604378    1.5793925    4.4634633 
 7718000    270.78484   -952.31938   -3373.5321   -1936.4212    13312.225   -38384.928   0.05460627    1.5794087    4.4634948 
 7720000     294.9354   -953.28507   -4966.7329   -10235.147    26470.682   -38722.864  0.054597944    1.5793423    4.4634479 
 7722000    302.74949   -952.96959   -6035.8237   -3687.2714    26284.173   -35631.951   0.05460563    1.5793744    4.4634476 
 7724000    354.37593   -952.85421   -7918.8716   -990.90622    19833.283   -38357.706  0.054606946     1.579404    4.4634397 
 7726000    296.91167   -952.32538   -4865.3294   -10746.516    24703.227   -35193.707  0.054604907    1.5793745    4.4635019 
 7728000    254.95729   -953.35843   -2583.9022   -5027.4208    20489.274    -31139.55  0.054610453    1.5794211    4.4634705 
 7730000    311.74608   -953.40904   -4155.0826   -3945.9378    20027.852   -37467.856  0.054606404    1.5793669    4.4633985 
 7732000    311.79101   -952.10555   -5035.0074    -241.4906    24105.285   -40780.018  0.054611333    1.5793715     4.463469 
 7734000    318.73412   -952.55238   -4141.0579    390.80962     10858.09   -35870.908  0.054613027    1.5793972    4.4635298 
 7736000    270.21975   -952.94646     331.6486   -7131.6505    24758.524   -36641.529  0.054610047    1.5793532    4.4634113 
 7738000    246.47237    -952.7253   -6867.4759   -6795.7369    26444.784   -38244.082  0.054612734    1.5793992    4.4634597 
 7740000      333.604   -952.96171   -6591.3035    -4510.359    21228.534     -38158.4  0.054612386    1.5793812    4.4635355 
 7742000    319.61518   -952.67112   -1568.5979   -2645.0687    24641.733       -35097  0.054614503    1.5793496    4.4634728 
 7744000    339.30072   -952.27381   -9967.2078    314.78787    21633.487   -35551.993  0.054614448    1.5793801     4.463431 
 7746000    350.28609   -952.61286   -6465.2912   -4356.5188    20378.908   -41467.209  0.054612618    1.5793467     4.463497 
 7748000    315.68648   -952.88592    4576.9917    -1524.553    22084.083   -36855.448  0.054616335     1.579366    4.4635212 
 7750000    310.20116   -952.96488   -565.48946   -2338.9819    22464.619   -37879.901  0.054612345    1.5793622    4.4634847 
 7752000    257.35924   -952.14872    1659.9232    6459.0475    22163.397    -41903.71  0.054616379    1.5793369    4.4634491 
 7754000    251.56809   -952.94566   -1346.4342   -2470.1821    26689.478   -35547.069  0.054619928    1.5793394    4.4635602 
 7756000    323.35273    -952.8718   -4710.6769   -5840.4998     23643.03   -36505.219  0.054614358    1.5793271    4.4635292 
 7758000    243.99563    -952.1913   -10300.773    -5213.978    25131.484   -34949.383  0.054624182    1.5793459    4.4634191 
 7760000    301.24171   -952.54115   -4041.5193   -4911.3926     26832.86    -36462.46  0.054622162    1.5793269    4.4635387 
 7762000    311.66195   -952.41174   -6214.6114   -6871.8429    20131.463   -40874.502  0.054618855    1.5793431     4.463564 
 7764000    265.29238   -952.27761   -2490.7373   -1003.0457    20276.495   -37660.316  0.054626333    1.5793586    4.4634174 
 7766000    321.06086   -952.56112   -2563.1073   -742.30994    18722.502   -40016.503  0.054623901    1.5793283    4.4635393 
 7768000    341.65992   -952.63645    1953.5907   -5917.0995    22510.042   -42124.114  0.054617212    1.5793148    4.4635562 
 7770000    266.03777   -952.95951   -6650.5585   -3290.8571    23753.295    -41470.66  0.054623307    1.5793089     4.463468 
 7772000    299.08187   -952.28329   -2839.6922   -1796.1118    21295.809   -39919.494  0.054628207    1.5793468    4.4634734 
 7774000    279.85238   -952.55471   -7708.7238   -494.52771    21288.462   -33052.487  0.054626513    1.5793305    4.4635652 
 7776000    300.02339     -952.578   -4518.4122    -12960.08    23558.572    -31006.26  0.054628352    1.5793013    4.4634943 
 7778000    304.22671   -953.04833   -8906.1737   -9887.5021    25445.045   -41719.838  0.054629177    1.5793554     4.463436 
 7780000    267.14591   -952.31201   -3761.1418    2270.1686    26195.695   -39008.408  0.054629181    1.5793186    4.4635187 
 7782000    248.82199   -953.23449   -2957.2997   -3045.8346    23539.386    -36869.66   0.05462992    1.5793011    4.4634915 
 7784000    312.43799   -952.61941   -2694.4969   -3053.7481    17435.854   -36850.864  0.054631692    1.5793457    4.4634499 
 7786000     272.5182   -952.65023   -6326.0276   -1287.6756    14911.364   -38751.701  0.054630428     1.579315    4.4634617 
 7788000    276.31078   -952.51209   -15648.862   -5637.2798    22842.646   -42169.983  0.054633847    1.5793351    4.4634789 
 7790000    285.23139      -953.18   -5902.8627    -2219.386    23657.956   -32876.529  0.054636254     1.579327    4.4634754 
 7792000    314.85589   -952.70644    2606.6754   -2168.7611    25886.125   -37576.875   0.05463019    1.5793123    4.4634752 
 7794000    302.34075   -952.62303   -3297.9104   -6178.2355    27261.053   -36126.424  0.054633997     1.579317      4.46347 
 7796000    301.91264   -952.82912   -900.29548   -9388.8455    23331.408   -38198.312  0.054632177    1.5793321    4.4634998 
 7798000    305.50233   -952.95932   -6657.6804   -5304.6796    29668.389   -32986.332  0.054633053    1.5793061    4.4634805 
 7800000    325.98176   -952.64246   -3306.6218   -4219.6159    24117.966   -32546.792  0.054635925    1.5793183    4.4634349 
 7802000    289.62619    -952.7518   -6349.2348   -1482.7478    18786.429   -34761.349  0.054633314    1.5793317    4.4634884 
 7804000    282.03153   -952.75182   -4248.7524   -3302.9026     26331.14   -33447.484  0.054639811     1.579321    4.4634929 
 7806000    331.15633   -952.18431   -7047.0739   -11837.504    19920.571   -40596.407  0.054635253    1.5793114    4.4634377 
 7808000    266.72188   -952.14197   -9585.4513    -8758.331    25644.425   -33904.262  0.054639258    1.5793329    4.4634617 
 7810000    298.14699   -952.40382   -898.88348    1969.1829    23197.086   -31812.709  0.054642693    1.5793109     4.463505 
 7812000     331.8846   -952.88315     -4450.69   -5981.1044     25148.82   -34221.395  0.054638158     1.579295    4.4634746 
 7814000    363.18464   -952.45131   -1535.0663   -729.99378    19271.568   -37381.216  0.054645123    1.5793093    4.4634337 
 7816000    319.32108   -952.55447   -8441.8542   -5364.2677      17041.3   -40489.166  0.054642841    1.5792979    4.4634669 
 7818000    275.20544   -952.69002    -12275.33   -230.29743    31354.096   -33816.372  0.054646418    1.5793314    4.4635169 
 7820000    289.05058   -952.74923   -2873.4571   -5168.5772    24048.096   -30151.636  0.054644561    1.5793128    4.4634528 
 7822000    309.43274   -952.95866   -3855.3223   -8526.1853    20399.247   -36056.196  0.054642416    1.5792599    4.4634153 
 7824000    277.92136   -952.20104   -7754.5624    -3492.231    24828.611   -35050.305  0.054645378     1.579318    4.4635182 
 7826000    268.20704   -952.95363   -3662.2242   -1521.1348    17517.448   -31789.266   0.05464367    1.5793091    4.4634613 
 7828000    276.54285   -952.71084   -5683.3299   -5267.4818    27990.211   -39648.546  0.054645326    1.5792921    4.4634119 
 7830000    338.18704   -952.83965   -6311.7456   -7418.5007    24415.768   -37018.831  0.054644461    1.5793317    4.4634496 
 7832000    289.19664   -952.81231   -8864.9204   -6594.8157    21933.451   -38836.265  0.054645957    1.5792835     4.463394 
 7834000    308.21215   -952.85824   -8253.3865    -2664.612    27709.092   -39206.045  0.054646504    1.5793083    4.4634345 
 7836000    283.86877   -951.95865   -9551.6449   -2871.1986    22466.207   -35191.803  0.054644869    1.5793221    4.4634092 
 7838000    328.43061   -951.82861   -5489.8162   -4600.1215    22648.908   -37364.912  0.054646283    1.5792892    4.4633899 
 7840000    269.91446   -952.88257   -9793.4292   -3714.7185    21309.023   -39595.496  0.054647396    1.5793106    4.4634305 
 7842000    311.60145   -952.64255    -6589.268    2126.9017    27176.604   -39197.861  0.054647075    1.5792892    4.4634138 
 7844000    319.61969   -953.03281   -3545.2642   -8722.7705    23875.259   -37676.106  0.054650827    1.5792883    4.4633992 
 7846000    246.26623   -953.13505   -5359.5094   -6530.7393    20965.393   -36392.234  0.054650363    1.5792973    4.4633471 
 7848000    306.15607   -953.18184   -4908.1456   -570.65132    19207.823   -32177.905  0.054649642     1.579296    4.4634182 
 7850000    282.68658   -952.33498   -10385.353   -9928.4816    28935.031   -37494.751  0.054657422    1.5793115    4.4633887 
 7852000    333.54698   -952.05657   -10948.087   -5019.9287    19235.723   -33053.541    0.0546532    1.5792748    4.4633399 
 7854000    312.93859   -952.82296    -9310.593   -6103.9749    25705.854    -39480.67  0.054654196    1.5792754    4.4633907 
 7856000    321.61737   -952.65377   -215.29746   -1390.7621    20237.773   -35269.286  0.054657857    1.5793105    4.4633923 
 7858000    285.45755   -952.67561   -2288.0532   -5600.9596    25761.077    -35398.68  0.054655353    1.5792773    4.4633833 
 7860000    292.70943   -952.31862   -7169.6087   -9111.1887    22378.753   -33258.784  0.054658337    1.5792928    4.4633606 
 7862000    334.29044   -952.78806   -4634.7231   -3598.3543     25766.66   -28817.227  0.054662613    1.5792804    4.4633615 
 7864000    344.01606   -952.11621   -4013.3375   -5297.8295    23094.688   -45691.598  0.054667116    1.5792673    4.4633687 
 7866000    299.17252   -952.91536   -5667.3311   -5799.5351    17499.457   -42726.178  0.054671217    1.5793226    4.4634148 
 7868000    307.38216   -952.95057   -3592.5971   -2088.0593    23796.934   -37596.283   0.05467003    1.5792532    4.4633712 
 7870000    284.93689   -952.52423   -4217.3241    514.42069    21023.448   -42041.523  0.054669691     1.579256     4.463389 
 7872000    278.65013   -952.17273   -3442.6233   -4884.9472    22921.416   -37506.595  0.054674749    1.5792617    4.4634235 
 7874000    323.18273   -952.80128   -1270.2723   -4204.3429    22667.907     -36905.6  0.054678567    1.5792598    4.4634055 
 7876000    296.78299   -952.57671   -144.97625     928.0969    21498.403   -34775.011  0.054681793    1.5792638    4.4633739 
 7878000    285.09694   -952.70491   -9450.5427   -5006.6087    23665.093   -32305.146  0.054680993    1.5792378    4.4633844 
 7880000    292.01821   -952.70507   -8619.6931   -3241.2618    21255.989    -34249.97  0.054682551    1.5792453    4.4633228 
 7882000    263.83429   -952.96104    1839.5175   -2153.6607    16708.859   -36693.245  0.054684968    1.5792543    4.4633236 
 7884000    302.03529   -952.92722   -556.29781   -7900.6301     22243.43   -42027.213  0.054684825    1.5792329    4.4633417 
 7886000    271.49463   -952.59659   -380.03063    4141.3114    17789.332   -31510.678  0.054687114    1.5792451    4.4633592 
 7888000    269.18978   -952.73731   -3720.1111    439.20847    28677.359   -36302.208  0.054683309    1.5792267     4.463322 
 7890000     300.8184       -952.7   -8186.3934    492.50601    22106.198    -36615.79  0.054688025    1.5792283    4.4633094 
 7892000    302.55441    -952.6811   -1171.6168    1126.6547    22897.187   -37354.919  0.054686618     1.579229    4.4633157 
 7894000    270.75404   -952.37925   -9611.5624   -6111.1595    28666.565   -39325.488  0.054689411    1.5792092    4.4632885 
 7896000    262.47627   -952.72148   -7475.1327   -2248.7951    22541.223   -40448.748  0.054693059    1.5792129    4.4632382 
 7898000    321.27632   -952.72383   -435.80531   -3554.3599    24462.956   -30665.059  0.054686862    1.5791942      4.46331 
 7900000    288.13931   -952.93463   -6927.9503   -5892.1131    28158.122   -35420.469   0.05469375    1.5792051    4.4632709 
 7902000    254.94688   -952.95978    -4956.711   -694.32406    11318.593   -30879.954  0.054693538    1.5792151    4.4632562 
 7904000    337.22194   -953.08646    -9188.779   -7106.6936    23255.147   -35959.335  0.054691851    1.5791748    4.4632323 
 7906000    285.67239    -952.3956   -7284.4315   -8191.8337    22278.595   -33050.586  0.054696683    1.5791995    4.4632711 
 7908000    325.89884   -952.75264      999.388    -2121.549    25526.606   -35079.506  0.054696742     1.579179    4.4632821 
 7910000    356.10958   -953.26631   -3532.8559   -5292.7323    23098.065   -33369.654  0.054696027    1.5791952    4.4632215 
 7912000    295.89546   -952.87816   -9448.8147   -6069.6077    12511.985   -40297.321  0.054698239    1.5791982    4.4632049 
 7914000    289.76956   -952.44968   -369.53555    333.23693     21838.43   -37485.893   0.05469554    1.5791557    4.4632385 
 7916000     246.6715   -952.79852    2514.7503   -1237.8133    21970.937    -34285.58  0.054700103    1.5792065    4.4632471 
 7918000    302.43745   -952.20336   -7787.5902   -3489.2934    21911.311   -38864.405   0.05469963    1.5791798    4.4632056 
 7920000    281.39331   -952.67779    30.898584   -12061.572    22688.881   -38789.682  0.054699288    1.5791765    4.4632592 
 7922000    315.55382   -952.14176    2667.7496   -4353.0113    27257.387   -37125.126  0.054701403    1.5791994    4.4632949 
 7924000     322.7317   -952.41551   -4608.1672   -6168.1163    19548.934   -40748.765   0.05470369    1.5791783    4.4632292 
 7926000    305.06323   -952.37626   -6024.9146   -5076.7134    25272.808   -38898.426  0.054705528    1.5791907    4.4632321 
 7928000    306.78014   -952.52062   -4510.6078   -2374.9519    21540.994   -37008.191  0.054702545    1.5791722    4.4633069 
 7930000    324.88071   -952.33927   -35.507752   -7883.7108    23446.508   -37841.269   0.05470882    1.5791788    4.4632206 
 7932000    311.11898   -952.78839    -1555.401    3431.3747    19600.621   -36867.363  0.054709326    1.5792049    4.4632282 
 7934000    256.63175   -952.93646   -6236.1187   -6734.1345    22942.539   -31710.344  0.054703373    1.5791751    4.4632472 
 7936000    257.33808   -952.99664   -2817.2142    -275.8489    22552.471   -40924.444  0.054708586    1.5791806    4.4632137 
 7938000    282.53367   -952.63163     982.3939    443.62808    23087.083   -38015.687  0.054707929    1.5791644    4.4632143 
 7940000    309.55889   -952.89064   -2489.7681   -4022.0346     27568.51   -41106.818  0.054706958    1.5791622    4.4632342 
 7942000    312.32812   -952.75611   -4785.3165   -908.04102    23241.716    -37541.41  0.054710614    1.5791631    4.4631809 
 7944000    348.97006   -952.34645   -4209.4647   -1638.1248    21402.427   -34268.661  0.054706739    1.5791469    4.4631744 
 7946000    309.39447   -952.78053    -5972.763   -4144.6907    21482.673   -39907.652  0.054710151     1.579172    4.4632043 
 7948000    296.24404    -952.5815    -2127.899    -7377.395    19500.303   -33407.071  0.054715713    1.5791537    4.4631447 
 7950000    340.32589   -952.70383   -4407.8081   -3528.3523    19446.154   -34506.623  0.054710131    1.5791232    4.4631977 
 7952000    326.71657   -952.72188   -6019.8162    454.95942    25304.858   -34048.451  0.054714158    1.5791534    4.4632293 
 7954000    331.70445   -952.91021   -6869.2959   -6615.5153    23108.721   -36306.199  0.054717248    1.5791393    4.4631344 
 7956000    285.37568   -952.50552   -10204.597   -2502.7838    27540.029   -39085.967  0.054715864    1.5791736    4.4631852 
 7958000    338.77429   -952.26243   -5900.6325   -9036.9229    22668.702   -38177.619  0.054718105    1.5791484    4.4632081 
 7960000    308.55244   -953.06944   -4594.9453   -6141.1935    23148.283   -29421.621  0.054717315    1.5791159    4.4631261 
 7962000     315.6123   -952.47265   -9583.9335   -3653.1447    27132.947   -30290.334  0.054720322    1.5791688    4.4631605 
 7964000    294.69991   -952.19886   -9925.3966   -6628.5276     20285.19   -30025.576  0.054718043    1.5791373    4.4632132 
 7966000    264.79332   -952.34186   -2258.2971   -6657.5874    22483.403   -35379.772  0.054716188    1.5791201    4.4631522 
 7968000    277.62638    -952.3464   -3492.3461    225.29617    19918.608   -40264.073  0.054717698    1.5791446    4.4630683 
 7970000    334.02197    -951.9992   -7591.2418   -9036.3592    18220.771   -41603.146  0.054716403    1.5791115    4.4631647 
 7972000    346.62671   -952.35157   -10544.787   -4433.9165     16759.48   -33113.132   0.05472642    1.5791351    4.4631787 
 7974000    260.93591   -952.90277   -106.29257   -3067.1482    16720.885   -37336.999  0.054724368    1.5791437    4.4631324 
 7976000    292.57766   -951.89953   -3364.7175   -1790.5213    22911.644   -38819.389  0.054723205    1.5791108    4.4630988 
 7978000    286.37758   -952.55332   -6414.7469    -12156.15    20299.234   -38228.013  0.054728737    1.5791169      4.46319 
 7980000    289.96132   -952.29839   -2857.7618   -1921.5311    20025.633   -40352.315  0.054725921    1.5790991    4.4631341 
 7982000    311.94385   -952.78166   -1762.9555   -1287.4914    18497.629   -42210.888  0.054728864    1.5791251    4.4631132 
 7984000    289.17687   -952.48495   -3823.1153    1374.6961    21085.354   -37962.284  0.054728138    1.5790981    4.4631684 
 7986000     324.3765   -952.96347   -4929.9225   -6640.4914    25006.788   -34943.823  0.054726706    1.5791009    4.4631991 
 7988000    306.99977   -952.54254    247.29806   -3168.6957    23357.469   -37680.351   0.05473159    1.5790837    4.4631448 
 7990000    327.29619   -952.59564   -6138.5708   -7813.3048    23989.079     -37179.7  0.054732766    1.5790897    4.4631629 
 7992000    305.50889    -952.5001    4696.5474     3431.583    26169.658   -36388.454   0.05473726    1.5790624    4.4631885 
 7994000    303.67637   -952.82595   -2976.4479   -743.89022    27833.382   -38811.803  0.054738167    1.5790751    4.4631414 
 7996000    289.88085   -952.64439   -7805.2661   -10948.753    19194.937   -36775.554  0.054736052    1.5790966    4.4631337 
 7998000    331.64187   -953.00697   -3642.7655   -1719.0039    24516.535   -37355.371  0.054734999    1.5790412    4.4631765 
 8000000    318.63009   -953.28461   -8888.6079   -7916.1894    29452.593   -35123.648  0.054733598    1.5790284    4.4631779 
Loop time of 25570.2 on 1 procs for 8000000 steps with 80 atoms

Performance: 2.703 ns/day, 8.879 hours/ns, 312.864 timesteps/s
100.0% CPU use with 1 MPI tasks x no OpenMP threads

MPI task timing breakdown:
Section |  min time  |  avg time  |  max time  |%varavg| %total
---------------------------------------------------------------
Pair    | 22857      | 22857      | 22857      |   0.0 | 89.39
Bond    | 35.11      | 35.11      | 35.11      |   0.0 |  0.14
Kspace  | 1722       | 1722       | 1722       |   0.0 |  6.73
Neigh   | 11.199     | 11.199     | 11.199     |   0.0 |  0.04
Comm    | 835.33     | 835.33     | 835.33     |   0.0 |  3.27
Output  | 0.60728    | 0.60728    | 0.60728    |   0.0 |  0.00
Modify  | 61.803     | 61.803     | 61.803     |   0.0 |  0.24
Other   |            | 46.84      |            |       |  0.18

Nlocal:    80 ave 80 max 80 min
Histogram: 1 0 0 0 0 0 0 0 0 0
Nghost:    6803 ave 6803 max 6803 min
Histogram: 1 0 0 0 0 0 0 0 0 0
Neighs:    66986 ave 66986 max 66986 min
Histogram: 1 0 0 0 0 0 0 0 0 0

Total # of neighbors = 66986
Ave neighs/atom = 837.325
Ave special neighs/atom = 1.5
Neighbor list builds = 3211
Dangerous builds = 0
variable     ndens equal count(all)/vol
print        "average viscosity: $v [Pa.s] @ $T K, ${ndens} /A^3"
average viscosity: 2.03231329797944 [Pa.s] @ 298 K, 0.0122335266929676 /A^3
Total wall time: 7:53:27
