LAMMPS (22 Aug 2018)
##
dimension 3
boundary p p p
atom_style full
units metal
#kspace_style pppm/cg 1.0e-4
#kspace_modify pressure/scalar no
dielectric 2.0
bond_style harmonic
angle_style harmonic

neighbor 2.0 bin
neigh_modify delay 0 every 1 check yes page 500000 one 50000

region box1 block -40.0 40.0 -40.0 40.0 -40.0 40.0
create_box 4 box1 bond/types 2 extra/bond/per/atom 2 angle/types 1 extra/angle/per/atom 1 extra/special/per/atom 10
Created orthogonal box = (-40 -40 -40) to (40 40 40)
  1 by 1 by 1 MPI processor grid

molecule cat_ion cation_mol.txt
Read molecule cat_ion:
  3 atoms with max type 4
  2 bonds with max type 2
  1 angles with max type 1
  0 dihedrals with max type 0
  0 impropers with max type 0

mass    1  86.8 #anion
mass    2  67.0 #ring
mass    3  15.0 #methyl
mass    4  29.0 #ethyl

create_atoms 1 random 100 1340 box1
Created 100 atoms
  Time spent = 0.00129294 secs
create_atoms 0 random 100 2345 box1 mol cat_ion 1234
Created 300 atoms
  Time spent = 0.000100851 secs
#create_atoms 1 single  10.0 0.0 0.0
#create_atoms 0 single 0.0 0.0 0.0 mol cat_ion 1234
group anion type 1
100 atoms in group anion
group ring type 2
100 atoms in group ring
group methyl type 3
100 atoms in group methyl
group ethyl type 4
100 atoms in group ethyl

bond_coeff 1 207.729 2.689748837
bond_coeff 2 207.729 3.04931147
angle_coeff 1 207.729 144.1868904


## -- INTERATOMIC POTENTIALS -- #
pair_style nm/cut 30.0
################### properties to change
## values from easy begin

pair_coeff 1 1 2.55775855 5.77468231 10.177908113392 12.0000
pair_coeff 1 2 3.34765931 6.26892741 10.177908113392 12.0000
pair_coeff 1 3 2.00556578 4.28154794 10.177908113392 12.0000
pair_coeff 1 4 2.80927754 6.79832446 10.177908113392 12.0000
pair_coeff 2 2 4.38150147 6.80547410 10.177908113392 12.0000
pair_coeff 2 3 2.62493539 4.64799825 10.177908113392 12.0000
pair_coeff 2 4 3.67685374 7.38018133 10.177908113392 12.0000
pair_coeff 3 3 1.57258553 3.17448680 10.177908113392 12.0000
pair_coeff 3 4 2.20278450 5.04051142 10.177908113392 12.0000
pair_coeff 4 4 3.08552981 8.00342131 10.177908113392 12.0000

## values from easy end


#create_bonds single/bond 1 2 3
#create_bonds single/bond 2 2 4
#create_bonds single/angle 1 3 2 4

set type 1 charge -1.0
  100 settings made for charge
#set type 2 charge  0.408675
#set type 3 charge  0.317505
#set type 4 charge  0.273820

########################################

write_data solid.data pair ij
Neighbor list info ...
  update every 1 steps, delay 0 steps, check yes
  max neighbors/atom: 50000, page size: 500000
  master list distance cutoff = 32
  ghost atom cutoff = 32
  binsize = 16, bins = 5 5 5
  1 neighbor lists, perpetual/occasional/extra = 1 0 0
  (1) pair nm/cut, perpetual
      attributes: half, newton on
      pair build: half/bin/newton
      stencil: half/bin/3d/newton
      bin: standard

thermo_style	custom step temp pe ke ebond press density

##################################
variable    T equal 400
variable    V equal vol
variable    dt equal 0.00005
variable    p equal 400     # correlation length
variable    s equal 5       # sample interval
variable    d equal $p*$s   # dump interval
variable    d equal 400*$s   
variable    d equal 400*5   

# convert from LAMMPS real units to SI

variable    kB equal 1.3806504e-23    # [J/K/** Boltzmann
variable    bar2Pa equal 100000.0
variable    A2m equal 1.0e-10
variable    ps2s equal 1.0e-12
variable    convert equal ${bar2Pa}*${bar2Pa}*${ps2s}*${A2m}*${A2m}*${A2m}
variable    convert equal 100000*${bar2Pa}*${ps2s}*${A2m}*${A2m}*${A2m}
variable    convert equal 100000*100000*${ps2s}*${A2m}*${A2m}*${A2m}
variable    convert equal 100000*100000*1e-12*${A2m}*${A2m}*${A2m}
variable    convert equal 100000*100000*1e-12*1e-10*${A2m}*${A2m}
variable    convert equal 100000*100000*1e-12*1e-10*1e-10*${A2m}
variable    convert equal 100000*100000*1e-12*1e-10*1e-10*1e-10
timestep    ${dt}
timestep    5e-05
variable    tdamp equal ${dt}*10.
variable    tdamp equal 5e-05*10.
variable    pdamp equal ${dt}*100.
variable    pdamp equal 5e-05*100.
thermo      $d
thermo      2000

variable    ILdens equal density
variable    ILstep equal step
variable    ILtime equal time*1.0e-12 #from ps to s
variable    ILtemp equal temp
variable    ILpe equal pe
variable    ILke equal ke
variable    ILpr equal press

##################################
fix         333 all print 2000 "${ILstep} ${ILtime} ${ILdens} ${ILtemp} ${ILpr} ${ILpe} ${ILke}" file density.dat screen no
dump        1 all dcd $d minim.dcd
dump        1 all dcd 2000 minim.dcd
dump        2 all custom $d dump.atom id mass type x y z
dump        2 all custom 2000 dump.atom id mass type x y z

##################################
##################################
#  Minimize initial
##################################

velocity     all create $T 987654321 mom yes rot yes dist gaussian
velocity     all create 400 987654321 mom yes rot yes dist gaussian
minimize 1.e-4 1.0e-6 1000 10000
Per MPI rank memory allocation (min/avg/max) = 11.18 | 11.18 | 11.18 Mbytes
Step Temp PotEng KinEng E_bond Press Density 
       0          400 3.7805329e+11    20.629919    1.4574399 4.7573404e+12  0.064151289 
    1000          400   -3469.2111    20.629919    2.9172703   -780.26914  0.064151289 
Loop time of 9.44363 on 1 procs for 1000 steps with 400 atoms

100.0% CPU use with 1 MPI tasks x no OpenMP threads

Minimization stats:
  Stopping criterion = max iterations
  Energy initial, next-to-last, final = 
          378053291431     -3467.69775091     -3469.21110809
  Force two-norm initial, final = 6.56861e+12 44.2015
  Force max component initial, final = 2.90062e+12 13.8323
  Final line search alpha, max atom move = 0.00233662 0.0323208
  Iterations, force evaluations = 1000 1724

MPI task timing breakdown:
Section |  min time  |  avg time  |  max time  |%varavg| %total
---------------------------------------------------------------
Pair    | 9.3422     | 9.3422     | 9.3422     |   0.0 | 98.93
Bond    | 0.023264   | 0.023264   | 0.023264   |   0.0 |  0.25
Neigh   | 0.045381   | 0.045381   | 0.045381   |   0.0 |  0.48
Comm    | 0.017187   | 0.017187   | 0.017187   |   0.0 |  0.18
Output  | 2.718e-05  | 2.718e-05  | 2.718e-05  |   0.0 |  0.00
Modify  | 0          | 0          | 0          |   0.0 |  0.00
Other   |            | 0.01557    |            |       |  0.16

Nlocal:    400 ave 400 max 400 min
Histogram: 1 0 0 0 0 0 0 0 0 0
Nghost:    1836 ave 1836 max 1836 min
Histogram: 1 0 0 0 0 0 0 0 0 0
Neighs:    20203 ave 20203 max 20203 min
Histogram: 1 0 0 0 0 0 0 0 0 0

Total # of neighbors = 20203
Ave neighs/atom = 50.5075
Ave special neighs/atom = 1.5
Neighbor list builds = 64
Dangerous builds = 0

reset_timestep 0
fix 1 all npt temp $T $T ${tdamp} iso 1.0 1.0 ${pdamp}
fix 1 all npt temp 400 $T ${tdamp} iso 1.0 1.0 ${pdamp}
fix 1 all npt temp 400 400 ${tdamp} iso 1.0 1.0 ${pdamp}
fix 1 all npt temp 400 400 0.0005 iso 1.0 1.0 ${pdamp}
fix 1 all npt temp 400 400 0.0005 iso 1.0 1.0 0.005
run             200000
Per MPI rank memory allocation (min/avg/max) = 10.05 | 10.05 | 10.05 Mbytes
Step Temp PotEng KinEng E_bond Press Density 
       0          400   -3469.2111    20.629919    2.9172703   -780.26914  0.064151289 
    2000    388.98034   -3510.2352    20.061583     3.638055    782.22625   0.06878995 
    4000    395.39695   -3562.3842    20.392518    3.1553838    1025.3259  0.073832464 
    6000    404.09047   -3624.9902    20.840884    2.0003218   -389.73779   0.07779713 
    8000    388.84273   -3678.4192    20.054485    3.0695573    998.96907  0.082638447 
   10000    392.32631   -3731.2037     20.23415    2.9633253    777.27513  0.088084557 
   12000    395.46339   -3806.1399    20.395944     2.577833    362.50907  0.095999646 
   14000    379.89795   -3882.5276     19.59316    2.1343881   -697.96617   0.10459726 
   16000    421.42099    -3949.568    21.734702    2.4587782    524.17708   0.11264455 
   18000    403.39172   -4027.8327    20.804847    2.4076783   -65.706149   0.12247124 
   20000    403.87649   -4107.6481    20.829848    2.1415016   -1236.1445   0.13488785 
   22000    416.95316   -4194.4598    21.504275    2.6363355      226.452   0.15034376 
   24000    404.26316   -4286.8329    20.849791    2.1734414    -4395.872   0.16380759 
   26000    380.43183   -4389.8169    19.620695     2.677157   -1247.7467   0.18094653 
   28000     388.3788    -4517.883    20.030558    3.0824437   -653.08018   0.19988192 
   30000    406.74666   -4636.1017    20.977877    2.8939065   -1279.9766   0.21936262 
   32000    387.57004   -4753.6371    19.988847    2.9239456   -1331.8324    0.2393779 
   34000    416.92148    -4875.619    21.502641    2.6667125   -4116.6209   0.25950972 
   36000    369.16015   -5015.6133     19.03936    3.4295389   -481.51691   0.28053755 
   38000     394.6477   -5151.3088    20.353875     3.319706   -1531.0868   0.30002743 
   40000     400.0745    -5285.063    20.633761    4.0666111    2962.5187   0.31989693 
   42000    382.89618   -5421.7549    19.747793    2.8614241    -6133.889   0.33753149 
   44000    396.76302   -5566.9156    20.462973    3.4926684   -3972.4936   0.35919768 
   46000    408.52647   -5723.2322     21.06967     5.801706    7964.7888   0.38258165 
   48000    406.72655   -5887.0299    20.976839    3.8237538   -6140.3457   0.40059915 
   50000    376.94064    -6020.497    19.440637     4.691284    1907.0462   0.41939721 
   52000    403.93063   -6145.5345    20.832641    4.7080218    913.92558   0.43588262 
   54000    394.15054   -6273.3241    20.328235    4.0625585   -9683.0815   0.45037391 
   56000    430.48612   -6406.3035    22.202234    4.5011283   -1741.8013   0.46578668 
   58000    413.56752   -6503.7398    21.329661    4.1150479   -7615.7105   0.47659764 
   60000    398.67282   -6574.3057     20.56147    5.7360068    8924.1469   0.48623108 
   62000    385.08886   -6644.8064     19.86088    4.5826803   -3436.8464   0.49136868 
   64000    407.77226   -6700.3527    21.030772    5.8334972    6709.9361    0.4987447 
   66000    387.23709   -6741.4148    19.971675    7.3759861    13801.303   0.50452363 
   68000     404.2663   -6760.9872    20.849953    5.2718731   -3768.0648   0.50578381 
   70000    382.75191   -6788.6417    19.740352     5.483435     -4127.52   0.50928958 
   72000    417.94244   -6808.1416    21.555297    5.6478744    1428.4224   0.51363914 
   74000    409.91888   -6824.0483    21.141484    6.3787625    7963.1409   0.51724827 
   76000    402.67235    -6838.801    20.767745    5.0197383   -8178.7242   0.51728863 
   78000    393.15973    -6860.379    20.277134    4.6563974   -8601.9686   0.51949029 
   80000    426.36771   -6877.7928    21.989829    6.5018217     11586.22   0.52554216 
   82000    426.02358   -6897.2752     21.97208    4.3487544    -12499.44   0.52335381 
   84000    430.58052   -6917.6787    22.207103    4.9813684    1782.4858   0.52624476 
   86000    395.51273    -6939.038    20.398489    7.4597401     19195.75   0.52954882 
   88000    405.19105   -6963.7084    20.897646    5.0789869   -5317.4996   0.52871141 
   90000    410.51495    -6983.878    21.172225    5.3888307    -2047.951   0.52994311 
   92000     437.9852   -7000.6367    22.588998    8.6326777    19521.849   0.53285266 
   94000    381.30275   -7019.8258    19.665612    6.9822582    9695.0112   0.53186542 
   96000    410.80056   -7033.7381    21.186956    5.8409712   -1150.0809   0.53163823 
   98000    407.13911   -7044.4968    20.998117    4.9076124   -12997.208   0.53292644 
  100000    419.56889   -7051.1397    21.639181    5.6572769    464.83049   0.53599035 
  102000    380.66621   -7063.3456    19.632783    4.8464395   -23270.165   0.53497783 
  104000    438.72671   -7089.5433    22.627242    5.8532241   -2951.7754   0.53891027 
  106000    369.87642    -7117.425    19.076302    5.8849901   -1611.4721   0.54146762 
  108000    382.77424   -7134.0417    19.741504    7.0480948    10496.214   0.54435534 
  110000    403.92515   -7144.8723    20.832358    4.9315951   -5253.1276   0.54244145 
  112000    380.61178   -7151.3395    19.629976    7.1602752     13388.05   0.54487718 
  114000    402.54894   -7153.5498     20.76138    6.4145003    8539.7511   0.54378862 
  116000    434.00983   -7159.3897    22.383969     5.161361   -4264.7483   0.54393866 
  118000    403.72195   -7157.3635    20.821878    5.4237377   -10.619244   0.54493586 
  120000    394.13982   -7163.9995    20.327681    6.0468877    5882.7737    0.5459904 
  122000    410.82723    -7161.928    21.188332    4.5449352   -12210.278   0.54421959 
  124000    392.67764   -7170.3095     20.25227    5.3289775    1328.9587    0.5461493 
  126000      418.514   -7173.3649    21.584775    7.0613469    12833.775    0.5472725 
  128000    384.90057   -7179.4152    19.851169    4.6667887   -20776.669   0.54384446 
  130000    430.93822   -7181.4194    22.225551    4.7137809   -17459.451   0.54517296 
  132000    375.13028   -7182.3791    19.347268     6.545874    7226.8594   0.54709719 
  134000    373.85359   -7184.9588    19.281423    5.6612353     258.2733   0.54627295 
  136000    400.99561    -7186.916    20.681267    6.4371813    9920.4228    0.5476783 
  138000    397.28194   -7194.3535    20.489736    7.1920798    14492.619   0.54919831 
  140000    419.15236   -7196.2831    21.617698    6.8716497    9198.8281    0.5477633 
  142000     423.1295   -7191.2344    21.822818    8.9034801    23834.079     0.550346 
  144000     407.7774   -7199.3759    21.031037    4.9696757    -14671.26   0.54632262 
  146000    393.23122   -7200.9524    20.280821    5.0860963   -11730.727   0.54796144 
  148000    408.25439   -7206.7569    21.055638    6.5743732    9788.6364   0.55213083 
  150000    418.73827   -7209.3442    21.596342     8.086463    13637.184   0.55209847 
  152000    388.14238   -7212.7153    20.018365    7.5798056    13789.503   0.55233496 
  154000    380.36431   -7211.2586    19.617212    5.1831876   -12255.618   0.54900502 
  156000    408.62817   -7212.9832    21.074915     5.883025   -1990.1008   0.55074333 
  158000    402.06708   -7210.0562    20.736528    4.9073278   -22628.233    0.5479912 
  160000    393.03744   -7215.6105    20.270826    5.8305134   -1137.1069   0.55128532 
  162000    397.04705   -7213.7997    20.477621    5.2021518   -12729.686   0.54956205 
  164000    388.94711   -7213.8233    20.059869    5.1465831   -13318.153   0.54985907 
  166000    415.77133   -7212.5269    21.443323    5.1728271   -18534.764   0.54878481 
  168000     410.1397   -7217.2173    21.152872    5.2773741   -18838.104   0.54977401 
  170000    399.57809   -7226.9717    20.608159    5.6307942   -6014.4354   0.55155384 
  172000    424.64614   -7230.4284    21.901039    5.5984418   -9049.1297   0.55141414 
  174000    397.96732   -7228.9812    20.525084    6.5913611    773.98243   0.55274422 
  176000    402.14963    -7231.355    20.740786    8.2975431    18479.362   0.55522208 
  178000    419.04299   -7231.6164    21.612058     5.467227   -6965.8001   0.55175913 
  180000    389.12681   -7235.0241    20.069137    6.2275665   -305.06337   0.55240703 
  182000    377.94336   -7230.8958    19.492352     8.552175    15780.392   0.55419415 
  184000    380.41829   -7232.6515    19.619996    6.4043357   -1058.2252   0.55319964 
  186000    391.26514   -7228.6105     20.17942    8.6040071    19923.905   0.55555833 
  188000    411.96735   -7234.9122    21.247133    5.4132702   -8282.2518   0.55241465 
  190000    396.40087   -7233.1402    20.444295     9.168373    22909.999   0.55527756 
  192000    384.85745   -7232.6739    19.848945    7.1007975    10141.599   0.55376578 
  194000    399.05224   -7231.8509    20.581039    5.7287909    -4430.485   0.55233644 
  196000    388.30864    -7233.002     20.02694    7.5744265    13161.877   0.55389467 
  198000    396.64493   -7232.5671    20.456882    7.9685824    14095.539    0.5545812 
  200000    421.11551   -7234.5029    21.718947    6.5261713    3254.7824   0.55380375 
Loop time of 8568 on 1 procs for 200000 steps with 400 atoms

Performance: 0.101 ns/day, 238.000 hours/ns, 23.343 timesteps/s
96.6% CPU use with 1 MPI tasks x no OpenMP threads

MPI task timing breakdown:
Section |  min time  |  avg time  |  max time  |%varavg| %total
---------------------------------------------------------------
Pair    | 8551.5     | 8551.5     | 8551.5     |   0.0 | 99.81
Bond    | 3.3527     | 3.3527     | 3.3527     |   0.0 |  0.04
Neigh   | 0.8571     | 0.8571     | 0.8571     |   0.0 |  0.01
Comm    | 6.283      | 6.283      | 6.283      |   0.0 |  0.07
Output  | 0.087851   | 0.087851   | 0.087851   |   0.0 |  0.00
Modify  | 4.1485     | 4.1485     | 4.1485     |   0.0 |  0.05
Other   |            | 1.776      |            |       |  0.02

Nlocal:    400 ave 400 max 400 min
Histogram: 1 0 0 0 0 0 0 0 0 0
Nghost:    7033 ave 7033 max 7033 min
Histogram: 1 0 0 0 0 0 0 0 0 0
Neighs:    184889 ave 184889 max 184889 min
Histogram: 1 0 0 0 0 0 0 0 0 0

Total # of neighbors = 184889
Ave neighs/atom = 462.223
Ave special neighs/atom = 1.5
Neighbor list builds = 212
Dangerous builds = 0
unfix 1
unfix 333
fix 1 all nvt temp $T $T ${tdamp}
fix 1 all nvt temp 400 $T ${tdamp}
fix 1 all nvt temp 400 400 ${tdamp}
fix 1 all nvt temp 400 400 0.0005

reset_timestep 0
variable     pxy equal pxy
variable     pxz equal pxz
variable     pyz equal pyz
fix          SS all ave/correlate $s $p $d              v_pxy v_pxz v_pyz type auto file S0St.dat ave running
fix          SS all ave/correlate 5 $p $d              v_pxy v_pxz v_pyz type auto file S0St.dat ave running
fix          SS all ave/correlate 5 400 $d              v_pxy v_pxz v_pyz type auto file S0St.dat ave running
fix          SS all ave/correlate 5 400 2000              v_pxy v_pxz v_pyz type auto file S0St.dat ave running
variable     scale equal ${convert}/(${kB}*$T)*$V*$s*${dt}
variable     scale equal 1e-32/(${kB}*$T)*$V*$s*${dt}
variable     scale equal 1e-32/(1.3806504e-23*$T)*$V*$s*${dt}
variable     scale equal 1e-32/(1.3806504e-23*400)*$V*$s*${dt}
variable     scale equal 1e-32/(1.3806504e-23*400)*59308.842834844*$s*${dt}
variable     scale equal 1e-32/(1.3806504e-23*400)*59308.842834844*5*${dt}
variable     scale equal 1e-32/(1.3806504e-23*400)*59308.842834844*5*5e-05
variable     v11 equal trap(f_SS[3])*${scale}
variable     v11 equal trap(f_SS[3])*2.68482352750396e-11
variable     v22 equal trap(f_SS[4])*${scale}
variable     v22 equal trap(f_SS[4])*2.68482352750396e-11
variable     v33 equal trap(f_SS[5])*${scale}
variable     v33 equal trap(f_SS[5])*2.68482352750396e-11
variable     v equal (v_v11+v_v22+v_v33)/3.0
fix          333 all print $d "${ILstep} ${ILtime} ${ILdens} ${ILtemp} ${ILpr} ${ILpe} ${v}" file visco.dat screen no
fix          333 all print 2000 "${ILstep} ${ILtime} ${ILdens} ${ILtemp} ${ILpr} ${ILpe} ${v}" file visco.dat screen no
thermo_style custom step temp pe press v_pxy v_pxz v_pyz v_v11 v_v22 v_v33
run          8000000
Per MPI rank memory allocation (min/avg/max) = 10.41 | 10.41 | 10.41 Mbytes
Step Temp PotEng Press v_pxy v_pxz v_pyz v_v11 v_v22 v_v33 
       0    421.11551   -7234.5029    3254.7824    388.33513   -186.27359    11473.901 2.024413e-06 4.6578802e-07 0.0017672906 
    2000    407.04324   -7232.2471    6012.2959    655.67356    925.60681    12593.476 0.00055133225 -0.0026407551    1.7536528 
    4000    427.53803   -7232.5118    6094.6362     1730.273   -3058.6126    11600.172 0.0089363207 0.0043288999    1.7413385 
    6000    406.55696   -7234.7409    3559.5182   -263.34722    494.23711    13817.863  0.002429636  0.017374565    1.6408555 
    8000    401.30009   -7232.2507    2547.2215    27.828871   -1091.1134    13213.264 0.0021052976  0.015555155    1.6856334 
   10000    386.56733   -7233.6804    4883.7235   -589.36996   -3026.1123    9208.6716 0.0016050477  0.019898502      1.63547 
   12000    409.51266     -7231.34    6657.9548   -189.28305   -1340.1167    8884.4308 0.0014193877  0.020365583    1.5797631 
   14000    425.23805   -7236.0542    4233.3707    1031.7804   -807.77491    12346.504 0.0006552341  0.020333752    1.5719456 
   16000    395.29951   -7233.5548     3088.589    297.67958   -1612.7006     12567.97 0.0008139679  0.022002495    1.5750758 
   18000     388.6473   -7231.8745    6323.2989   -1520.5029    -2679.949    11492.761 0.00071408175  0.022217391    1.5834301 
   20000    399.43032   -7233.4476    2268.9572    -2163.845    -3085.444    13489.238 0.0006506396  0.027799884    1.5877951 
   22000    410.75147   -7235.1722    3204.7348    519.33381   -3530.0267    11387.217 0.0010424773  0.032487908    1.6053627 
   24000    403.72663   -7232.1363    4213.8518    985.82407    -2356.702    8826.0808 0.0010433913  0.036449058    1.6072442 
   26000    393.45067   -7235.6949     2559.024   -1289.6629   -2251.0802    10141.487 0.0015433955  0.035069985    1.5756345 
   28000    411.52662   -7234.2783    5403.8357   -1261.8825   -1561.0016    12482.565 0.0018665645  0.034313465    1.5704521 
   30000    397.42316   -7233.0367    4454.1869    3279.6855   -3071.6506    10642.664  0.001995939   0.03350106    1.5752982 
   32000    445.26635   -7233.9102    4526.1549   -1144.1741    325.35833    12771.807 0.0030112843  0.034058734    1.5685973 
   34000    429.61978   -7233.9865    2893.9812   -142.07431   -1535.3124    15376.527 0.0027334469  0.034073433    1.5885902 
   36000     409.8396   -7232.7674    2205.9817    672.22611      14.5835    13426.154 0.0025680738  0.034162187     1.608368 
   38000    379.53444   -7231.7593     777.6586   -1922.8805   -1823.4857    9055.7594 0.0025144278  0.034000014    1.6007285 
   40000    417.91033    -7234.812    4532.9252     264.6804    166.11488    13283.621 0.0026798312  0.033992454    1.5803156 
   42000    383.23104    -7234.468    5830.5922    1080.3627   -816.25713    11034.251 0.0026258258  0.032861388    1.5947397 
   44000    388.87228   -7233.0318     4585.594    1416.3332   -2562.3198    9387.7571 0.0028032519  0.031959097    1.5975313 
   46000     408.6175   -7234.2806    3379.9614     1100.211   -1591.3685    12271.406 0.0029885873  0.034803368    1.5953649 
   48000    411.59589   -7233.1614    3333.4703   -1897.8849   -4132.7226     14393.28 0.0030167057  0.035637445    1.5960027 
   50000     425.5238    -7234.079    3793.1581    398.67057   -2163.6871     11047.72 0.0036496103  0.035397212    1.5914551 
   52000    403.47959   -7233.5134    3385.5689     889.6389   -2578.3792    13067.667 0.0034664674  0.036237917     1.589866 
   54000    388.87833   -7234.0363    1518.2222    1534.3785   -2532.6661     14220.44 0.0044012334  0.035962639    1.6071956 
   56000    433.51182   -7234.4963    3321.3481    957.96101   -2395.6325    13204.935 0.0040803992  0.034892316    1.6082273 
   58000    406.75103   -7234.2439    3858.2918     767.6621   -3203.5766     11889.55 0.0038632029  0.034881736    1.6053194 
   60000    381.54397    -7233.435    879.57531   -1765.7939   -2226.4515    12560.921 0.0037002165  0.035033836    1.6044552 
   62000    386.53184   -7231.9132    1851.1531   -488.87717   -1504.9127    11597.761 0.0035655855  0.035264926    1.6059763 
   64000    380.59632   -7231.8087    4028.7929   -1435.6111   -696.68217     11257.35 0.0034887996  0.034786311     1.598339 
   66000     419.1835   -7233.2884    2376.0012    126.03144   -2874.2367    14196.328 0.0034021973  0.034866648    1.5975821 
   68000    412.26088   -7233.3067    605.58935   -255.17803   -439.72428    10938.295  0.003449679  0.033930841    1.6059326 
   70000    433.53444   -7232.7317     2405.292   -149.04516   -1730.7413    13433.767 0.0034606963  0.033091702    1.6120723 
   72000    401.80974    -7235.607    2651.2779    857.42654   -4329.2144    11162.351 0.0033952965  0.033457503    1.6104503 
   74000    391.51751   -7233.9952    2296.9356    2268.3311   -508.09227     12842.77  0.003291537  0.033859471    1.6119464 
   76000    426.38323   -7234.2734    3485.1593    642.66684   -1900.2655    11564.202 0.0031853881  0.033394973    1.6130625 
   78000    392.00914   -7233.3143    4524.9829    507.62637   -3650.1894    11912.916 0.0030906865  0.034629081    1.6073421 
   80000    413.75596   -7234.1752    4607.0155     1108.351   -22.804755    13578.657 0.0030572735  0.034811515    1.6069738 
   82000    407.53648   -7233.2778    4038.1963    1070.2213   -1837.1527    12481.712 0.0029248319  0.034233347    1.6152125 
   84000    403.66233    -7233.731    2535.1997    2832.0275    -2512.994    11475.154 0.0029597164  0.033860509    1.6156847 
   86000    424.47494   -7234.1949     2613.954    1388.3955   -3264.7124    11750.829 0.0029063286  0.034671151    1.6166133 
   88000    390.72182   -7232.8332    2437.2518    439.10599    -1375.323    9612.9902 0.0028452914   0.03537151    1.6156019 
   90000    390.10903   -7234.6266    5423.6061    469.05383   -893.84286    14588.943 0.0027776476  0.035808114    1.6092043 
   92000    411.40152   -7233.9847     3052.311   -180.56398   -2881.4144    13789.301 0.0027149135  0.035327946    1.6088574 
   94000    396.40646   -7233.3241    4457.3542   -1411.5883   -2607.5839    12886.676 0.0027447984  0.035829891    1.6138776 
   96000     382.5865   -7234.5392    3976.2459    703.99657   -1973.2158    11485.319 0.0027740106  0.035984003    1.6126431 
   98000    398.98101   -7233.7511    3165.8389   -445.12211   -1769.2572    11708.794 0.0027316089  0.035746944    1.6096928 
  100000    409.29324   -7232.9809    2854.7871   -1027.7981     -1638.52    13334.932 0.0027027166  0.035394885    1.6111517 
  102000    370.20054   -7232.7984    2412.8914    1089.1289   -2185.6831    13328.466 0.0026519221   0.03552951    1.6117975 
  104000    392.21961   -7235.7952     1116.863    238.50833   -2734.8565    13214.957 0.0027092088  0.036466362    1.6120479 
  106000    424.25335   -7233.5397    1462.2569   -2150.9309   -1053.0373    12052.999 0.0027147312  0.036544813    1.6172219 
  108000    404.77698   -7233.9869    4280.5844    479.24508   -2877.0509    10760.528 0.0026511723  0.036313376    1.6193493 
  110000    394.66256   -7234.9255    4912.3472   -426.35586   -2331.7642    12112.361 0.0026176211  0.036389848    1.6151887 
  112000     421.5934    -7234.665    1975.6789    38.796611   -3102.6585      14826.5  0.002656223  0.036446515    1.6180825 
  114000    385.51095   -7232.7546    4720.9376   -710.11451   -1858.9746    12898.702 0.0026077052  0.036354378    1.6193924 
  116000    383.13966    -7234.193    3246.0142    249.51739   -3205.3475    11303.574  0.002560658   0.03668924    1.6171543 
  118000    391.11127   -7234.2671    1642.0642    512.62772   -1994.4015    12514.975 0.0024944759  0.036817463     1.616339 
  120000    392.76362   -7233.6947    2428.8122   -910.01443   -1062.0414    11189.562 0.0024510041  0.036606259    1.6184688 
  122000    408.12412   -7234.0129    817.66083   -545.18563   -2810.6781    13069.955 0.0024103993  0.036246663    1.6157817 
  124000    369.06429   -7234.4329    1812.3383    343.72643   -2731.4515    12259.624 0.0023637851  0.036036092    1.6153494 
  126000    362.17526   -7234.3004    4367.3961    3512.0027   -2128.1663    10675.749 0.0024120378  0.035776439    1.6160752 
  128000    399.98446   -7233.0533     3907.391    70.385762   -2183.4044    13465.887 0.0024509056  0.035580333    1.6175094 
  130000    405.08586   -7234.1914    3166.9247    176.61899   -1987.5595    12063.298 0.0024066881  0.035807306    1.6157123 
  132000    384.20458   -7231.8971    1123.4745   -1045.9156   -830.09954    12699.706 0.0023924318  0.035668141    1.6155388 
  134000    401.27878     -7233.08    2868.5379     106.2843    -1371.297    10587.368 0.0024421715  0.035292967    1.6139149 
  136000      397.368   -7232.4702    2989.2901    1050.8036    -2321.768    11017.785 0.0024564082  0.035164997     1.614914 
  138000    405.35715   -7234.1596   -361.58151    336.32211   -2191.4736    13214.115 0.0025481576  0.035061767    1.6157234 
  140000    401.60023   -7233.1449    1797.7571    1381.4807     495.0953    10724.547 0.0024626714  0.034891777     1.615169 
  142000    395.79984   -7232.6611    1879.9683    61.672024   -1243.9488    11709.183 0.0024101131  0.034704702    1.6122554 
  144000    374.59384   -7232.8364    1403.8585    323.85406   -1935.2765    11364.117  0.002386335  0.034778804    1.6111004 
  146000    390.81539   -7234.2419    3404.5209   -72.859856   -1674.7842    14816.504 0.0023544221  0.034594511    1.6130315 
  148000    379.47577     -7233.89    2607.7857    1539.2687    -2828.127    9682.7108 0.0023572857   0.03439692    1.6147251 
  150000    429.16897   -7234.7804    3679.4473   -3004.6527   -2633.7721    12270.612 0.0023790552  0.034442623    1.6117962 
  152000    402.02838   -7233.0345    4362.9414    613.33157   -510.68868    9980.3769 0.0023501718  0.034534577    1.6104015 
  154000    406.74726   -7234.5274    2813.5887    493.27223   -1539.6803    12215.558  0.002343684  0.034210287    1.6122607 
  156000    393.56099   -7234.7291    2705.2983   -662.83474   -4457.5859    11475.586  0.002311829  0.034056365    1.6134657 
  158000    377.39965   -7233.3393    4480.1379    501.36877   -2727.8518    12247.278 0.0022846283  0.034177868    1.6099719 
  160000    348.38588   -7234.1348    3686.4106   -1909.0069   -510.91624    13248.293 0.0022706137  0.033934773    1.6091332 
  162000    424.25732   -7234.5263    2745.4946    187.04627   -4072.9784    12179.243 0.0022854385  0.033840112    1.6124145 
  164000    397.03687   -7234.9505    3871.8683    809.92175   -1125.6193    13972.019  0.002198711  0.033781648    1.6103989 
  166000    397.67702    -7234.344    4819.9736    381.17149   -1589.6529    12772.912 0.0021831483  0.033844775    1.6113247 
  168000    397.95699   -7234.6993    1939.1724      2500.65   -3634.1586    11236.079 0.0021748166  0.033700434    1.6118985 
  170000    428.65325   -7234.6134    2620.8467   -1315.4233   -3039.4977    9969.8565 0.0021339124  0.034307775    1.6109193 
  172000    405.93046   -7233.7411    4458.2574    1943.5176   -288.04808    13228.223 0.0021124222  0.034455345     1.609244 
  174000    395.62205   -7233.7055    4277.6558    9.2908832   -5161.0213    11604.341 0.0021035208  0.034071593    1.6094779 
  176000    414.42442   -7232.8915    859.55391    169.30548   -158.45255    13433.707 0.0021097355  0.034143616    1.6106806 
  178000    401.88323   -7232.9201    4861.4587    744.67048   -440.67588    9999.3718 0.0021019601  0.034091498    1.6093805 
  180000    398.60942   -7233.3471    1864.3462   -414.92541   -3327.6873    12548.557  0.002069186  0.033914301    1.6100723 
  182000    367.93717   -7233.1208    1211.4144      -372.09   -1161.6992    11300.181 0.0020702579  0.034387804    1.6122369 
  184000    421.77957   -7234.4823    2158.7179   -500.58215   -2799.9948    11322.024 0.0020506384  0.034320862    1.6100006 
  186000    416.23516   -7233.8202    1465.2308    2518.4728   -2049.1252    12850.983 0.0020274863  0.034205594     1.608951 
  188000    400.19804   -7233.5607    6490.3933   -244.03099   -1015.9214    13566.877 0.0020057046  0.034174132    1.6087915 
  190000    390.82228   -7234.9975    3682.6316   -80.808227   -1372.1974    10566.396 0.0019814683  0.034045849     1.610004 
  192000    413.96284   -7234.0567    5435.7517     676.9433   -2231.7491    16324.369 0.0019751119  0.034005061    1.6086027 
  194000    411.79369   -7233.0842    2511.1759   -876.44889   -1694.0422    12541.561 0.0019829232  0.034115637    1.6090441 
  196000    356.77387   -7233.5472    2532.5759    685.62212   -3065.2118    11645.001  0.001937787  0.034297629    1.6083899 
  198000    391.80406   -7234.4905    3392.6814   -783.51828   -322.56649    12552.268 0.0018852639  0.034438926      1.60734 
  200000    395.11404    -7234.127    5451.6994    322.72668   -2272.8602    13408.611 0.0018825941  0.034323289    1.6077904 
  202000    424.16987   -7233.8665    5393.5622    1297.5136   -935.82049    14063.272  0.001873869   0.03426752    1.6093348 
  204000    397.16014   -7232.5911    3461.8571    -904.2512   -1060.9653    13094.905 0.0018466805  0.034193064    1.6115412 
  206000    391.33205   -7234.0982    3678.3334    868.74961    -315.8884    11373.888 0.0018623179  0.034306871     1.610895 
  208000    413.51018   -7232.6779    3137.6705   -544.46421    434.84775    10586.568  0.001846286  0.034546022    1.6112902 
  210000     393.7192   -7234.5547    2116.6435    925.77074   -2899.0684    13160.719 0.0018526301  0.034511007    1.6095594 
  212000    391.65491   -7234.2435    1853.4994    128.62068    -1892.876    9792.6837 0.0018690293  0.034740849    1.6088441 
  214000    426.80042   -7233.4533    3932.0767    733.52767   -1487.6678    14043.791 0.0018215973  0.034727657    1.6096161 
  216000    406.41688   -7233.7498    2532.4053   -2144.6922   -20.277613     9967.867 0.0018130546  0.034609027    1.6100854 
  218000    394.90746   -7234.3113     443.2102    211.04565    519.08001    13010.944 0.0017870706  0.034412015    1.6117655 
  220000    421.93638   -7232.3517    2486.0234    1608.7855   -3234.0198    11925.087 0.0017793434  0.034457433    1.6131933 
  222000    402.06482   -7233.8392    3485.3091    2386.7757    309.15272    12383.823 0.0018004887  0.034570639    1.6132681 
  224000    394.95274   -7234.8748    2442.1728    348.24617   -2283.2279    11971.168 0.0018069117  0.034717587    1.6141367 
  226000    381.20056   -7233.7636    4108.3898     1276.367   -2211.7158    13636.752 0.0018354284  0.034574012     1.613169 
  228000     406.9025   -7233.6301    4202.9032    -143.7519   -2374.4337    11223.591 0.0017997499  0.034647615    1.6128291 
  230000    369.71317   -7233.5577    3744.3101    2627.4234   -1879.0274    10561.972 0.0017835566  0.034545461    1.6132281 
  232000    420.61217    -7234.131    4370.0751   -1065.9584   -604.15405    11419.868 0.0017562046  0.034710435    1.6136509 
  234000    397.39413   -7233.5283    2919.4963    2020.6255    -2656.375    11387.343 0.0017603538  0.034711706      1.61319 
  236000    405.37294    -7232.875    4091.7993   -312.93314   -2236.2076    12450.105 0.0017636643  0.034740674    1.6127914 
  238000    380.75472    -7230.546     4815.377     -19.3894   -2284.8067    15248.892  0.001766934   0.03492694    1.6128245 
  240000    401.70787   -7233.4861    1511.9292     566.4532   -2292.9916    14912.713 0.0017546712  0.034914623    1.6143378 
  242000    383.76357   -7234.4083    4175.7701   -922.41822   -1061.6546    12180.786 0.0017348729  0.034880634    1.6140428 
  244000    378.99412   -7233.6067    2764.1556    1333.9081   -2389.5112    12576.615  0.001758844  0.034872434    1.6140819 
  246000    379.65863   -7233.9223    4252.7838   -404.06095   -272.15213    11565.314 0.0017515701  0.035047553      1.61434 
  248000    422.90804   -7233.4415    1799.8679   -442.31701   -2336.2915    11606.459 0.0017443189  0.034925798    1.6141834 
  250000    390.09996    -7233.744    2976.5083   -2754.8015    -544.7023    12614.749 0.0017270129  0.034902657    1.6121008 
  252000    382.39601   -7231.6846    2885.5597   -232.28864   -745.42982    12274.778 0.0017308117  0.034894647    1.6121516 
  254000    423.51589   -7233.2019   -42.180736   -995.16121   -48.859488    13629.144 0.0017398724  0.035050661    1.6128923 
  256000     421.2512   -7233.4102    2300.9463   -230.95487   -931.38839    10968.077  0.001750035  0.035032553    1.6139632 
  258000    399.56309   -7233.6083    4107.1127   -174.37008   -2669.8374    12042.769 0.0017327654  0.034918458    1.6141122 
  260000    386.57833   -7232.4191    3427.8571    491.73556   -4637.5319    11035.703 0.0017366867  0.034993765    1.6140645 
  262000    409.65258   -7233.5664    6013.9909   -1200.9798   -3650.6536    10037.348 0.0017152916  0.035130318    1.6142078 
  264000    401.25844   -7234.2392    3719.4866    2524.9504   -4426.5095    13610.991 0.0017243228  0.035133379    1.6135477 
  266000    400.94792   -7233.7017    5771.2921    211.89923   -4117.9384    11848.095 0.0017749896  0.035188032    1.6154004 
  268000    397.96914   -7232.8789    4098.9438    443.03775   -2744.6737    13110.641 0.0017621318  0.035233237    1.6145413 
  270000    390.61275   -7233.7808    3718.7728    733.28661     -3509.73    12937.958 0.0017554458  0.035298361     1.613549 
  272000    396.40145   -7233.5959    3311.8747   -965.95635   -343.50786    15098.377 0.0017420114  0.035452703    1.6137791 
  274000    372.63096   -7231.8927    4441.6167   -322.91361   -3167.9514    11399.148 0.0017320814   0.03543322    1.6151596 
  276000    368.59476   -7233.9833    4289.8035    2009.1454   -1834.0514    10907.909 0.0017154577  0.035529883    1.6149596 
  278000    398.85108   -7234.1837    3849.2414    1827.7395   -1474.5506    13992.032 0.0017299989  0.035510658    1.6147777 
  280000    402.67797   -7233.6053    2950.3112    896.32247   -2785.7964    12891.009 0.0017082689   0.03549253    1.6158374 
  282000    375.84001   -7233.2159    1816.6085    1801.5069    -1888.215    13462.384 0.0017018941  0.035720061    1.6149621 
  284000     369.7314   -7232.9944    45.576803    1577.9464    -2481.639    11875.136 0.0016844627  0.035830246    1.6143289 
  286000    414.96844   -7234.2153    2355.9312    512.32173   -1908.2927    12330.952 0.0016888662  0.035726555     1.615438 
  288000     408.7868   -7234.3117    3181.3792    -1191.979   -2718.2504    10394.486 0.0016789754  0.035714178    1.6159724 
  290000    418.36969   -7233.4322    2585.3429   -1091.2472   -382.36863    13622.755 0.0016739391  0.035627881    1.6165518 
  292000    390.06074   -7235.0767    1866.5825    708.47985   -721.65722    12962.406 0.0016545971  0.035646805    1.6184947 
  294000    413.35733   -7234.1274     4293.884    292.25292   -3693.1612    10733.541  0.001646011  0.035749451    1.6178848 
  296000    377.32372   -7233.6477    1461.5419    -906.8069    827.53176    12989.248 0.0016496304  0.035917544    1.6173954 
  298000    391.71018   -7232.6508    4266.8462   -29.858939    -1874.466    10386.028  0.001641078  0.035963111     1.617978 
  300000    405.62001   -7234.5215    5487.3564   -1163.0429   -2836.6412    12024.785 0.0016264383  0.035998907    1.6163193 
  302000    411.88792    -7234.004     3016.376    171.41554   -3025.1361     11743.57 0.0016260687  0.035839414    1.6167018 
  304000    401.93374   -7232.9296    4875.2871    1339.8455   -2053.6813    9723.8709 0.0016291365  0.035767395    1.6178994 
  306000    407.11602   -7234.3984    2082.5075   -2087.4909   -1562.6553    11260.798 0.0016203659    0.0359679     1.617029 
  308000    395.27357   -7233.7863    3939.7098    1134.8265   -585.05419    11297.433 0.0016150292  0.035893714     1.616143 
  310000    396.02245   -7232.1425    831.47398   -1171.7676     978.0883    14454.133 0.0016106191  0.035839801    1.6164648 
  312000     415.5629   -7233.9268    4040.9015   -367.63471   -2590.0019    12523.037 0.0016008173  0.035751527    1.6177759 
  314000    393.38217   -7234.5652    968.09367   -500.61971    71.551781    12726.596 0.0016075117   0.03580298     1.618107 
  316000    397.88575   -7235.3218    2944.5058   -614.95797   -763.64088    11980.412 0.0015987373  0.035917526     1.617634 
  318000    377.87836   -7233.8025    4652.1466    942.33618   -1449.1856    11546.343 0.0015860884   0.03590356    1.6170059 
  320000    406.43172   -7232.8539    3265.1592    -1707.731   -2416.8196    11666.042 0.0015718993  0.035960054    1.6166064 
  322000     393.7425   -7234.1361    2964.8458    589.90473   -1047.2987    12001.177 0.0015738338  0.035946959    1.6174617 
  324000    423.22109   -7233.0729    3376.0493    1539.7335   -2866.5592    11382.465 0.0015619116  0.035836191    1.6180466 
  326000    391.09668   -7234.2411    3675.0885   -175.90417   -4177.3535    10431.761 0.0015966044  0.035945105    1.6176712 
  328000    399.56241   -7233.6797    4416.7056   -1135.2524    259.72549    12705.155 0.0015766359  0.035987633    1.6165971 
  330000    392.81687   -7234.4055    1825.2303   -899.86343   -4293.0704     14999.76 0.0015992705  0.035777514     1.617566 
  332000    383.08212   -7232.4637    2956.0309     1200.159   -4009.5118    10863.095  0.001592603  0.036024016    1.6181377 
  334000    422.53823    -7233.907     3382.811   -2154.3253   -40.050794    11979.321 0.0015986765  0.036107116    1.6180772 
  336000    400.11486   -7232.2189    3877.5194   -2806.3394   -1601.9663    13557.965 0.0016060963   0.03598046    1.6175587 
  338000    383.93018   -7232.9946    1731.1613    -2122.218    1788.6959    11791.502 0.0015937865  0.035979993    1.6176448 
  340000    379.60416   -7233.3503    3288.6046   -926.87696   -81.516679    13969.683 0.0016091679  0.036015861    1.6175078 
  342000    409.74387   -7233.4308    1872.1039    461.14341   -318.82865     12565.94 0.0016211885  0.035941479    1.6178995 
  344000    383.86166   -7234.6843    3044.1835   -190.97375   -2993.9606    12323.777 0.0016130575  0.035787929    1.6186354 
  346000    372.70662   -7233.4824    2959.1242     1872.783   -4368.0403    11258.336 0.0016111155  0.036149142    1.6186189 
  348000    428.61566   -7232.5127    3100.7505    1132.9034    -1794.227    11108.957 0.0015961738  0.036101606    1.6174925 
  350000    413.18543   -7232.7342    4114.7827     1318.022   -1788.4742    12942.062 0.0015894361  0.035936012    1.6177214 
  352000    394.34194   -7233.4129    6021.1408    580.04737   -2724.0249    11869.028 0.0015738155   0.03588922    1.6181174 
  354000    405.69036   -7232.4388    6712.8677   -938.40854   -3276.5198    15327.382  0.001562378  0.035820172    1.6183859 
  356000    375.03023   -7232.9453    5096.3748    954.21871   -2979.6146    12889.788 0.0015637141   0.03587272    1.6179457 
  358000    395.95479   -7232.8821    4194.6268   -2665.0387   -3821.7731    12105.634 0.0015518278  0.035903013    1.6187259 
  360000    398.16275   -7233.1641    2676.1929   -530.45406   -4822.9088    13315.266 0.0015362761  0.035952969    1.6196008 
  362000    403.67349   -7235.1993    3185.5877    1225.2657   -1843.2962    13138.392 0.0015355805  0.036026467     1.619244 
  364000    402.59741   -7233.4538    4600.5782   -772.32511    495.46917    12332.527 0.0015162092  0.035956242     1.618903 
  366000    409.40936   -7233.6637    2854.9944    2967.5823   -1684.2675    13550.174 0.0015329211  0.035831503    1.6193753 
  368000    418.78621   -7233.1885    1932.2105   -648.13049   -663.26977     11137.54  0.001539002  0.035812533    1.6189508 
  370000    388.27977    -7232.571    1072.5326    316.75933    -1834.789    12487.016 0.0015562935  0.035863067    1.6182718 
  372000    402.40345   -7232.1814     2217.642     1164.196   -2665.1544    11708.429   0.00154016  0.035971976    1.6186285 
  374000    406.26783   -7232.3665    3576.8377    677.95533     844.6879    10575.071  0.001532162  0.036001014    1.6187534 
  376000    384.12104   -7234.0959     4481.616    2064.9881   -1417.3782    13856.901 0.0015769597   0.03601798    1.6185506 
  378000    385.73937   -7231.6434    1474.1482    204.82033    694.64825    12284.027 0.0015871117  0.036008927    1.6196393 
  380000    386.82179   -7233.6556    2270.1573   -320.13858   -1150.4226    14630.173 0.0015870218  0.035956025    1.6206854 
  382000    385.88162   -7234.1548    4247.2207   -2599.6789   -1613.3299     12474.41 0.0015797154  0.035896239    1.6197151 
  384000    375.75646    -7235.323     3630.894    458.25991   -3002.0284     13649.63 0.0015681787  0.035875266     1.619142 
  386000    395.27588   -7233.2132    4857.2472    1673.9885   -2792.2015    11612.859  0.001580732  0.036003548    1.6202674 
  388000    365.74434   -7232.9618     2761.298    1064.2518   -3817.2527    13888.347 0.0015931427  0.036043882    1.6193681 
  390000    376.70404   -7233.7296    4804.8649    280.44341   -1519.4424    13347.838 0.0015889424  0.036071194    1.6195736 
  392000    391.90737   -7234.2463    3803.4868    532.41844   -2902.8105    13274.876  0.001580424   0.03606759    1.6211609 
  394000    387.65917   -7231.7511    2520.8455   -539.07129   -1306.3888     8756.867  0.001572006   0.03612398    1.6217023 
  396000     393.3541    -7232.824     1245.107    1391.5817    -2543.702    13302.285 0.0015727353  0.036089485     1.620465 
  398000     395.5193   -7233.9308    2296.1894   -758.57732   -2877.5646    12446.702 0.0015811224  0.036089363    1.6216309 
  400000     369.3935   -7232.9643    1927.8176   -1472.9023   -516.44974    14339.972 0.0015793912  0.036205485    1.6213804 
  402000    388.92137   -7234.7539    4031.6416   -1270.9122   -1431.2089    11134.142 0.0015720948  0.036237999    1.6214172 
  404000    394.99859   -7235.7906    2273.3823   -536.68818   -2095.4709    10975.286  0.001570311  0.036224222    1.6209929 
  406000    382.92902   -7234.1827    1361.5328   -1381.5993    -792.0972    12671.491  0.001576313  0.036187289    1.6220775 
  408000    442.35445   -7232.3874    4085.0559   -1429.3882   -3724.1448    10055.524 0.0015664218  0.036080964    1.6215482 
  410000    372.34615    -7233.548     2221.968    810.50268   -2250.9753    11981.909 0.0015628827  0.036265072    1.6216342 
  412000    395.33613   -7232.3245    3735.8334    1914.9029   -4121.7626    8434.0948 0.0015526981  0.036377699    1.6218805 
  414000     385.4096   -7232.7458    2166.2487    2793.2713    -484.2109    8815.3446 0.0015556656   0.03631672    1.6215899 
  416000    384.52227   -7233.0465    4521.9269     521.4102    -3238.167    12985.606 0.0015518859  0.036267775    1.6212183 
  418000    392.47626   -7232.7805    2976.8595    1477.2703   -2304.6932     14879.87 0.0015545666  0.036391947    1.6222607 
  420000    426.84915   -7234.6151    4172.2663    494.99805   -3642.2978     13912.21 0.0015608828  0.036328048    1.6228396 
  422000    388.38832   -7232.8344    6317.9831   -55.229203   -1648.4136    11394.084 0.0015486421  0.036269776    1.6222302 
  424000    411.78674   -7233.6056    3103.7426    781.01852   -1949.2011    11837.166 0.0015394626  0.036196125     1.621924 
  426000    393.19724   -7233.9095    5204.2353     -322.292    -1786.452    12424.331 0.0015310415  0.036356066    1.6212636 
  428000    377.43041    -7234.049    2237.4741     342.7651   -783.93493    11950.365 0.0015222226  0.036373005    1.6217335 
  430000    397.02973   -7232.2139    3638.0027      150.922   -1339.5095    12842.811 0.0015171492  0.036345841    1.6219325 
  432000    400.09119   -7232.6781      668.933   -953.24397    -1354.815    11400.645 0.0015035758  0.036355551    1.6222788 
  434000     398.4639    -7233.984      2745.72   -1214.4416   -2448.6412    11817.845 0.0015098038  0.036411467     1.621871 
  436000    402.94466   -7233.8615    1632.0226    211.39349    1834.3461    13485.884 0.0015114231  0.036355677     1.621485 
  438000    371.43533   -7233.6385    1912.2355   -116.15419   -1426.6398    14137.829 0.0014870323  0.036338893    1.6216689 
  440000    364.22627   -7232.7127   -274.05704    135.84233   -1760.6587    12894.242 0.0014844536  0.036349422    1.6227714 
  442000    424.32797   -7235.1772    2394.0209   -3629.7843   -54.554165    8273.3175 0.0014947425  0.036498335    1.6227081 
  444000    394.71193   -7234.7414    994.80865     814.8354    502.48091    9513.5189 0.0014923736  0.036515647    1.6218607 
  446000    397.50081   -7233.9745    2945.0387    219.44132   -1903.9877    11746.831 0.0014821628  0.036497653    1.6219945 
  448000    403.81863   -7233.9022    4256.0098    384.20105    258.19527    12827.207  0.001509824   0.03638188    1.6221887 
  450000    409.92317   -7232.6631    3804.5353   -2213.3491   -4060.8979    13852.413 0.0015055684  0.036435319    1.6223067 
  452000    399.29279    -7233.375    1755.3862    118.92885   -508.25582    13372.037 0.0015063156  0.036456669    1.6231759 
  454000    370.97085   -7233.3666    4229.2077   -157.65035   -2006.1715    12166.462 0.0014974237  0.036344014    1.6227856 
  456000    389.89459   -7235.6476    4560.1656    6.2200968   -4264.2965    11029.828 0.0014887245  0.036414737    1.6222191 
  458000    369.99888   -7233.9636    2670.0231   -390.23552    201.26174    13792.834 0.0014999624  0.036656721    1.6224377 
  460000     399.9385   -7233.7106     3862.538    -775.1864   -827.93299    10684.452 0.0015239987   0.03655048    1.6232036 
  462000     398.9821    -7233.136    3136.7539   -770.09214   -1246.6928    10351.825   0.00152027   0.03650365    1.6225166 
  464000    405.81017   -7232.8148    2325.3585   -71.645351   -434.96296    10141.076 0.0015238166  0.036567497     1.622038 
  466000    407.25339   -7233.5851    5338.9068   -428.87075    -1505.111    11607.047 0.0015135381  0.036598844     1.623346 
  468000    396.30611   -7234.0573    3331.3211    1510.7739   -2139.3426    12713.665 0.0015058828  0.036710873    1.6232172 
  470000    431.58239   -7231.8729    5022.9311    1200.6596   -1990.1906    12067.653 0.0015118012  0.036672647    1.6235241 
  472000    401.25744   -7233.5418    2877.8661   -2603.7705   -1480.0398    10009.668 0.0015076548  0.036770149    1.6230817 
  474000    412.10823   -7233.2373    3648.8936    1002.3437   -4299.3616    8593.3658 0.0014981151  0.036748171    1.6221448 
  476000    408.54045   -7232.5103    6047.7363   -1896.5708   -2140.9038    13596.858 0.0014900974  0.036690818    1.6222628 
  478000    402.57576   -7233.6039    2832.6292    2373.3422   -1418.6331     9951.647 0.0014942634  0.036748317    1.6233124 
  480000    406.56867   -7233.0225    4839.1285    82.099104   -1053.7112    12070.865 0.0015017518  0.036714651    1.6236094 
  482000    375.23128   -7233.5999    3538.2668    1055.7571   -3104.4564    11641.291 0.0015019997  0.036686591    1.6226641 
  484000    378.85156   -7233.7675    2612.0274    3117.2689   -2109.5564    13845.394 0.0014942073  0.036721142    1.6224183 
  486000    424.99859   -7233.2859     1888.525    1676.3323   -1684.8203    12736.965 0.0014935194  0.036831552    1.6223655 
  488000    397.49051   -7233.2322    3948.6626    912.25954   -3392.6427    12154.877 0.0015064537  0.036793224    1.6220916 
  490000    385.09381   -7232.9187    3347.4219   -836.42812   -582.32818     11915.73 0.0015004862  0.036726199    1.6218917 
  492000    394.32726   -7233.1723    1718.9412   -953.97958   -4224.0254    12556.233 0.0014967436  0.036677824    1.6223925 
  494000    401.41016   -7232.9723    1847.6686    1587.8897   -2039.3856    11584.029  0.001502353  0.036810273    1.6221573 
  496000    397.03637   -7232.4218    3480.2909    -825.7068   -1455.4606     13324.03 0.0015017556  0.036742559    1.6217234 
  498000    394.20916    -7232.565     4097.547   -829.24879   -618.14271    12099.177 0.0015018401  0.036687032    1.6223071 
  500000    384.01773    -7231.877    5317.7628   -236.83615    -2501.126    14138.304 0.0015002242  0.036652795    1.6219648 
  502000    387.19061   -7232.1162    4027.5128   -577.72518   -848.37041     11347.83 0.0014987256  0.036657695    1.6213072 
  504000    400.26921    -7233.799    1993.8416   -912.12489   -1135.8877    15275.429 0.0014933287  0.036574287    1.6216066 
  506000    417.19811   -7234.2181    1262.2026   -785.07673   -1994.0197    11371.353 0.0014851392  0.036579778    1.6223162 
  508000    408.15693   -7232.2454    2348.6518    1729.6506   -859.15057    13645.806  0.001480129  0.036634945    1.6221231 
  510000    379.51649   -7234.5535    4946.7793   -50.084392   -404.43161        13481 0.0014935714  0.036541362    1.6220919 
  512000    383.94434   -7232.9963    2505.1531   -1346.2335    1079.6674    14288.938 0.0014834437   0.03648423    1.6223021 
  514000    386.87391   -7233.3559    3973.3433   -673.40183   -642.59304    10699.221 0.0014808926    0.0364371    1.6224801 
  516000    366.36578   -7234.2795    5748.2455      1643.22    2163.3997    13389.637 0.0014738576  0.036423731    1.6218182 
  518000    402.88028   -7232.5169    3963.8368   -1527.1555   -476.21286    10455.439 0.0014712076  0.036406277    1.6223349 
  520000    369.17429    -7234.166    3830.2307    2268.7953    932.56498    11042.573 0.0014735148  0.036364091    1.6212988 
  522000    377.06094   -7232.9266      2324.44    24.992641    -629.2158     11419.13  0.001470324  0.036362305    1.6205726 
  524000    453.19745   -7233.3523    3530.0723    1597.2945   -3035.5861    12582.113 0.0014654794  0.036285441    1.6203691 
  526000    399.31069   -7232.2836    394.26786    136.37375   -1359.8712    14070.868 0.0014641963  0.036196836     1.621099 
  528000    408.15772   -7233.1976    2358.8324    650.74754   -1344.3014    10492.699 0.0014560387  0.036183757    1.6215323 
  530000    428.43631   -7233.5476    1600.1105   -1310.3903   -2373.8784     11695.03 0.0014504077   0.03623613    1.6210902 
  532000    383.76724   -7230.9399     1696.851    445.40781   -270.09088    12341.383 0.0014481969   0.03617739    1.6212099 
  534000    398.05052   -7232.5747    5473.1644   -330.77504   -2183.3315    10986.171 0.0014582326  0.036092371    1.6209534 
  536000    398.66145   -7233.8528    1234.7612   -1263.1191    278.51566     14094.52 0.0014505545  0.036077886    1.6200248 
  538000    407.19017   -7232.9189    3386.2427    -977.2021   -1465.5511    11928.435 0.0014401776   0.03607557    1.6198832 
  540000     409.1801   -7234.3973     2984.656   -2001.2816   -2826.9945    10272.638 0.0014467319   0.03611538    1.6207572 
  542000    409.35515   -7233.9921     5270.684   -249.44805   -390.02978    13761.046 0.0014518415  0.036102006    1.6206984 
  544000    385.20736   -7234.8687    713.54029    341.47702   -706.92306    11601.171 0.0014425275  0.036075752    1.6214078 
  546000    407.50847   -7233.5701     1394.809     483.1037   -3825.1778    11448.043 0.0014409209  0.036099728    1.6220748 
  548000    396.37366   -7234.8347    3490.6912    654.66167   -2240.6937    11640.251 0.0014399849  0.036197521    1.6212196 
  550000    396.50127   -7232.9705    3459.5511   -1185.7174   -1684.0195    10914.661 0.0014372385  0.036210196    1.6215703 
  552000    406.60372   -7233.7685    3474.7259    1843.7294    -1116.306    12065.799  0.001436191  0.036224416    1.6211532 
  554000     416.3865   -7234.5693    5483.3966   -339.69618    532.63852    12741.812 0.0014321158  0.036220021    1.6213122 
  556000    401.93282   -7233.7417    2691.9128    677.92986   -1459.3865    13470.171 0.0014250092  0.036218521    1.6213162 
  558000    385.87036   -7233.6191    109.20051   -1146.7446   -2360.6901    12164.123 0.0014214424  0.036204341    1.6212754 
  560000    381.69843    -7233.529    4756.1475    39.025141   -3750.1544    11437.703 0.0014216973  0.036261162    1.6217733 
  562000    400.43303    -7234.711    481.31492   -238.05276   -2975.1645    12115.408 0.0014124134  0.036289446    1.6219334 
  564000    402.71189   -7231.9717    3587.9941    485.09459   -3281.8649    12228.253 0.0014089102   0.03629311    1.6217973 
  566000    362.99713   -7233.5807   -68.727552    1047.3549   -4887.9403    12470.452 0.0014133721  0.036271862    1.6218149 
  568000    404.69054   -7234.1435    2452.2858     463.4711   -1150.7202    12375.358 0.0014072795  0.036344307    1.6220202 
  570000    424.73161   -7234.0115    1756.3068   -782.59345   -315.57964    11427.058 0.0014004986  0.036274563    1.6222765 
  572000    416.98479   -7233.5117    472.56614    -226.9165   -5713.0374    13679.051 0.0013907914  0.036233171    1.6226157 
  574000    414.29873   -7232.6477    833.04123    1294.9329   -2641.1599    13586.883 0.0013950625  0.036356027    1.6218107 
  576000    409.82747   -7234.0117   -74.651703   -3936.9459   -2107.2159     10956.77 0.0013957825  0.036390873    1.6220362 
  578000    410.87516   -7234.8829    3946.9705    -1242.638   -1698.7942    12855.922  0.001390224  0.036426795    1.6220298 
  580000    398.79515   -7234.3097    2583.4039   -1336.9394   -1991.0618     12986.86 0.0013897118  0.036388883    1.6224314 
  582000    395.98465   -7231.9201    2857.9359    2009.5594   -4562.3178    14161.418 0.0013915779  0.036324385    1.6228814 
  584000    398.45754   -7234.1273    1433.5337   -984.98666   -1085.6191    14053.421 0.0014451097  0.036378535    1.6230006 
  586000    368.23698   -7233.7774    2443.5072    1349.2838    -3067.515    12509.557 0.0014185466    0.0363706    1.6227582 
  588000    394.15707   -7233.3635    2169.8765   -2356.9249   -733.93373    13663.233 0.0014195797  0.036449341    1.6221862 
  590000    406.95717   -7233.9022    1775.3556    2519.7002    913.03155    14886.077 0.0014198173  0.036465474    1.6227293 
  592000    429.10082   -7234.0765    2292.3493    1192.1199   -1586.9738      13126.9 0.0014233989  0.036419431    1.6232468 
  594000    386.72515   -7234.2689    2332.3925   -1554.3451   -2247.8122    10396.294 0.0014307845  0.036459225    1.6229654 
  596000    383.02566   -7233.6535     2148.776    995.61119   -781.53699    12634.445 0.0014138937  0.036509297    1.6228342 
  598000    397.53916   -7233.2158    3643.1573   -28.211625   -2983.0533    12069.707 0.0014088935   0.03653917    1.6224945 
  600000    397.94294   -7233.4805    2415.3557     263.5876   -761.17673    11558.424 0.0014067632  0.036517072    1.6228625 
  602000    405.27276   -7233.6749    3786.2921   -181.64968   -5025.0959    12490.455 0.0014127914  0.036469122    1.6232427 
  604000    386.96721   -7234.2004    4083.7193   -2008.6346   -1251.9955    11205.413 0.0014048266  0.036465318    1.6230924 
  606000    415.41415   -7235.0067     5848.607    931.95897   -4579.1396    12846.638 0.0013985541    0.0364854    1.6233267 
  608000    369.28024   -7235.3315    4871.3297   -1293.1009   -3449.1969    10436.183 0.0014014103  0.036473536    1.6232742 
  610000    384.43844   -7234.5719    1336.1202   -683.45191   -1141.2108    10872.084  0.001404404  0.036490425    1.6235434 
  612000    421.29106   -7234.2168    3404.7953   -864.16993   -3980.5646     11416.81 0.0013973582  0.036473074    1.6233509 
  614000    392.01944   -7234.2188     1491.376   -1030.4142   -923.86093    9972.7791 0.0014139001  0.036550437    1.6231218 
  616000    372.12928   -7234.2623    1326.5694   -1115.9556   -1028.6838    10925.354 0.0013983712  0.036539194    1.6236126 
  618000    391.16797   -7233.3851    2441.4038   -388.90861   -76.804167    11569.757  0.001392018  0.036497724    1.6240252 
  620000    417.27901   -7234.4835    2140.9673     624.6783   -2458.0535    11686.655  0.001386343  0.036529688    1.6239678 
  622000    423.84133   -7234.4128    2786.5349   -1388.5778   -1048.0579    14906.999 0.0013911659  0.036540903    1.6239465 
  624000     405.4019   -7232.2032    6007.6071    234.20913   -2073.5377    11222.584 0.0013974103  0.036534396    1.6241294 
  626000    407.76535   -7233.5755    4556.4497   -539.41504   -1973.7985    14168.101 0.0013935758  0.036525163     1.623755 
  628000    375.36585   -7234.0561    4227.1361   -65.761765   -6180.2713    15505.705 0.0013861254  0.036647621    1.6231995 
  630000    400.93117   -7233.9002     2806.304    347.16824   -1447.0132    11521.644 0.0013897098  0.036672013    1.6228682 
  632000    397.09484   -7232.8701    6019.1779    3728.9017   -1506.4025    14692.372 0.0013911347  0.036595111    1.6233618 
  634000    407.28523    -7233.284    1865.8982    2794.6674   -2428.7411    12086.192 0.0013852721  0.036572057     1.623621 
  636000    394.36868    -7233.336    4414.4686    2493.8625   -616.69831     13687.22 0.0014102694  0.036571902    1.6240684 
  638000    393.93611   -7233.3927   -1253.2352    838.71002   -1531.4758    11192.604 0.0013943766  0.036591195    1.6242542 
  640000    407.15944   -7234.2258    3314.1979   -1497.4566   -3260.0139    11797.007 0.0013846433   0.03664895    1.6239317 
  642000    388.24423   -7232.7565    1806.8584    202.35844   -318.35728    13737.321 0.0014060192  0.036687671    1.6240548 
  644000    400.65704    -7233.938     2290.619    736.60222    -2801.371    11279.107 0.0014174141  0.036662436    1.6242698 
  646000    390.18775   -7233.7788    3223.7348   -2821.1991   -1926.2923    14080.637  0.001410168  0.036678555    1.6243902 
  648000    395.77167    -7233.949    2898.3738    140.73764   -2263.5514    12161.405 0.0014043836  0.036661591    1.6244905 
  650000    425.86182   -7233.7993   -10.977921   -1436.7708   -2902.3267    14430.706 0.0014051789  0.036680406    1.6242542 
  652000    399.22546   -7235.5305    6158.5359   -263.18409   -5538.6135    11738.685 0.0013998996   0.03672994    1.6245342 
  654000    392.61361   -7233.1519    4356.8312    1741.7616   -1388.4289    12789.901   0.00139467  0.036655728    1.6251644 
  656000    396.81489   -7235.2982    2794.0157   -1666.9409    -2888.476    11913.483  0.001391698  0.036647939      1.62527 
  658000    405.51068   -7233.2548    3643.4776    -638.3224   -285.69546    9157.8647 0.0013930226  0.036690742    1.6249618 
  660000    416.29262   -7235.7297    744.03754   -754.19911   -2488.4301    11143.515   0.00138357  0.036705481    1.6248848 
  662000    381.22714   -7235.2852    4965.8819    1219.2323    941.30601    13568.715 0.0013923673  0.036743607      1.62453 
  664000    393.67511   -7234.8707    1318.4979    195.82277   -730.84628    13328.814 0.0013921188  0.036739337    1.6242673 
  666000    414.95356   -7234.3349    1114.7741   -502.08263   -2363.3707    12190.073 0.0013906801   0.03679862    1.6247976 
  668000     416.3223   -7232.4472    4197.6305   -344.28064    618.67008    13056.791 0.0014123788  0.036859515    1.6249777 
  670000    402.36288   -7235.5157    151.25323    2391.4758   -2161.3371    15631.252 0.0014099987  0.036793387    1.6251581 
  672000    402.51851   -7234.1136    3271.3816    717.86423    1187.9836     10703.27 0.0014672204  0.036897096    1.6255895 
  674000     384.9465   -7236.1429    3018.6801    2037.6581   -2308.7962    13318.416 0.0014668918  0.036899178    1.6252653 
  676000     406.0966   -7234.8074    2158.6118    2068.5902   -1985.8503    13475.025 0.0014614461  0.036856679    1.6251197 
  678000    389.77665   -7233.3288    2673.7617    1733.0861   -2796.2354    12322.283 0.0014571127  0.036851705    1.6254479 
  680000    414.93234    -7233.682    376.42625    2992.3046   -1463.5657    14193.511 0.0014544626  0.036860085    1.6251549 
  682000    381.02925    -7234.818    2923.4427    359.77594   -3759.0393    15544.136 0.0014515202  0.036825575    1.6252918 
  684000    401.85054   -7233.2608    198.87475    327.19058   -941.51416    9765.9755 0.0014412222  0.036820723    1.6259262 
  686000    405.28287   -7233.5083    2019.7208   -1003.9866   -3279.0398     15482.61 0.0014513306  0.036905229     1.625736 
  688000    397.25544   -7234.3784    1062.9409    335.27218   -1843.7504    11199.955 0.0014403659  0.036942797    1.6254913 
  690000    390.32661   -7233.1219    4047.6645   -129.14759   -1483.4211    10511.112  0.001433545  0.036956105    1.6257012 
  692000    368.67773   -7233.6345    5071.9169   -626.74911   -2618.3637    11931.538  0.001428827  0.036914608    1.6252886 
  694000    403.88719   -7233.1201    4427.4652   -164.82729   -248.53741    12575.784 0.0014249787  0.036917821    1.6258236 
  696000    408.32989   -7233.5429    1612.9852    263.90404   -1718.3131    12062.126 0.0014213243  0.036928524    1.6255343 
  698000    385.33373   -7233.4231    2692.6648   -2374.2675    47.033772     10804.64 0.0014230309  0.036970109    1.6256366 
  700000    418.11447   -7233.9322    2750.9457    333.67397   -3718.8746    12825.308 0.0014176317  0.036938028    1.6254342 
  702000    385.34907   -7234.2549    2708.7521   -850.58006   -841.65342    11096.368 0.0014487046  0.037052607    1.6255106 
  704000    419.90916   -7231.8976    1726.0092   -1566.6961   -1272.0295     12585.28 0.0014317926  0.037035021    1.6258245 
  706000    401.90189    -7234.548    2893.4752   -1194.6996   -1790.8102    11313.723 0.0014301973  0.036979962    1.6263792 
  708000    419.59267   -7234.7571    4963.5677   -410.28581   -861.20007     9555.735 0.0014365203   0.03695692     1.626135 
  710000    436.77854   -7233.8184    5395.6251    -1276.008   -288.64242      12360.7 0.0014364719  0.036964212    1.6260629 
  712000     422.7019   -7234.6343    6597.5912   -770.43774   -1743.3454    12518.998 0.0014669041  0.036980037    1.6262464 
  714000     436.4221   -7235.0767    4698.5866   -1164.6741   -1742.6004    12143.439 0.0014588882  0.036987132    1.6265532 
  716000      392.089    -7233.875    4004.5837   -705.65345   -4143.1508    12796.986 0.0014601445   0.03702107    1.6266102 
  718000    412.53779     -7233.03    830.23787   -2004.8595   -2808.1531    13816.667 0.0014532176  0.037028729    1.6265133 
  720000    394.31244   -7232.1269    2071.6563    -123.0737   -2479.0903     12438.03 0.0014507971  0.037066034    1.6268296 
  722000    355.81527   -7232.4782    1454.2438    1211.6757    -1826.242    12398.757 0.0014552719  0.037037589    1.6271525 
  724000    402.57185   -7234.1659    3153.5732   -960.31058   -2146.0723    10751.583 0.0014791271  0.037067078    1.6265158 
  726000    381.78068   -7234.4693    1978.1222   -868.46186    -1267.604    11350.205 0.0014695108  0.037085425    1.6263965 
  728000    386.73718   -7232.8944    3484.8871    516.97905   -3489.8738    11664.428   0.00147084  0.037071879    1.6266195 
  730000    380.66405   -7234.5229    3076.3071    2663.3917   -2412.2245    13380.801 0.0014650521   0.03716342    1.6264305 
  732000    385.49563    -7233.638      2268.11    1180.1741   -1883.2872    12226.463 0.0014705798  0.037169436    1.6268248 
  734000    396.56212   -7234.0119    2697.7692   -230.24474   -2337.4103    13161.874 0.0014746584  0.037093019    1.6268008 
  736000    432.00697   -7235.0912    2494.1478    2461.9715   -2825.2897    15676.737 0.0014755859  0.037052408    1.6270801 
  738000    391.58732   -7232.7232    2822.4118    1777.6182   -2825.5629    11875.169 0.0014978866  0.037146765    1.6268046 
  740000    396.57449   -7232.6126    3065.7745    -386.5401   -281.82307    13651.747  0.001507522  0.037156276    1.6267342 
  742000    404.36384   -7234.4663    4036.0702    1190.0781   -1305.3739    11153.479 0.0015079628  0.037113376    1.6264284 
  744000    396.24785   -7233.7414    3619.4936    4911.0002   -3620.9077    14203.173 0.0015054655  0.037141453    1.6267859 
  746000    429.93146   -7234.8918    3093.9209    1445.0964    -107.4104     13607.73 0.0015044951  0.037194859    1.6272218 
  748000    399.08889   -7234.4292    5067.3553    2477.8587   -665.61375    12747.696 0.0015050494  0.037143128    1.6274445 
  750000    394.16595    -7235.183     1970.789   -1961.2553   -102.03392    11543.633 0.0015032434  0.037088315    1.6272716 
  752000    415.97936   -7233.7825    3255.2418    711.89922   -2483.7685    12693.881 0.0014978663  0.037051605     1.626999 
  754000      442.963   -7233.4545    4255.3085   -1431.1806   -1670.8428    10802.214 0.0014991862  0.037019621    1.6270497 
  756000    374.32603   -7234.4189    4846.9646   -2189.0668   -1203.9527    12766.076 0.0014987763  0.037035885    1.6266405 
  758000    382.45135   -7232.8786    3987.9675    986.84821   -1830.2773      11819.4 0.0014999638   0.03697487    1.6268338 
  760000    397.82052   -7233.2987    3063.0704   -1098.2465     239.8317    13095.986 0.0015186748   0.03701266    1.6267243 
  762000    391.54382   -7233.5927    5720.0486   -954.44124   -1244.4565    11640.348  0.001510239   0.03695851    1.6264341 
  764000    411.60424   -7233.5985    867.19603   -1365.8142   -872.99982    14315.799 0.0015109952  0.036918988    1.6263853 
  766000    401.28369   -7234.8712    1854.6081    -819.1691   -1785.3091    13625.732   0.00150923  0.036918411    1.6273836 
  768000    431.69835   -7233.1268    3540.8516    717.09593     727.8351    11735.267 0.0015024384  0.036895186    1.6268193 
  770000    405.32973   -7233.8756   -672.30427    543.41738   -1446.2755    12506.929 0.0015023727  0.036860173    1.6268558 
  772000    423.85964   -7232.0128    2508.4912    1304.5202   -3268.7416    11782.691 0.0014993015  0.036804843    1.6270638 
  774000    390.14825   -7233.9785    1015.5989    1598.0347    -102.0709    9768.3323 0.0014985144  0.036924313    1.6264362 
  776000    413.33438   -7233.9071    1727.3939   -730.52469   -2661.1498    11296.116 0.0014991618  0.036875753    1.6265726 
  778000    388.93473   -7233.7882    3859.3948    1906.0893   -707.74406    11846.945 0.0014986749  0.036834216    1.6265094 
  780000    411.28229   -7232.4129    2775.0363    2287.8505   -4225.5598    13776.647 0.0014961285  0.036795719    1.6271406 
  782000    404.93727   -7232.2159      2818.13    1557.8272   -2126.9066    10991.781  0.001494957   0.03674936    1.6271012 
  784000    407.06422   -7232.9498    1887.1304    318.61644   -2367.8608    13499.185    0.0014922  0.036730002    1.6269189 
  786000    414.77071   -7234.0854    3243.7845     1261.811   -2131.5046    12145.426 0.0014906038  0.036713846    1.6270478 
  788000    412.14148    -7233.187    2290.1447    609.28565   -2500.7906    12564.896 0.0014904846  0.036713649     1.626419 
  790000    390.82931   -7233.8454   -73.575933   -1046.5985   -2522.1769    13889.745 0.0014883214  0.036739727    1.6264385 
  792000    404.55884   -7234.0475     1065.851    264.42145   -1686.2985    10107.238 0.0014831087   0.03668295    1.6272225 
  794000    394.91979   -7234.1643    1718.4429   -1676.7821   -104.01802    11777.075 0.0014811598  0.036655456    1.6272209 
  796000     456.9907   -7233.6521    981.09458   -281.94787    725.55102    13567.772 0.0014759663  0.036634383    1.6271685 
  798000    400.43174   -7233.1217    3621.6815   -685.38504    1016.0589     13544.46 0.0014744139  0.036599653    1.6272035 
  800000    407.01927   -7234.5869    3328.0001   -113.13243   -2143.2801    12639.459 0.0014709246  0.036561172    1.6271891 
  802000    409.92659   -7234.0144     2747.919    1986.4344   -1172.2244    13130.027 0.0014694123   0.03659851    1.6267991 
  804000    388.61163   -7232.8129    3346.3075    781.48065   -3080.9838    13775.358 0.0014711837  0.036645848    1.6264102 
  806000    394.18138    -7233.456    3686.2892    4561.2062    -769.8234    14088.334 0.0014612421  0.036604705    1.6265556 
  808000    397.35591   -7234.1621      2447.52   -1447.0292   -1722.9664    12807.516   0.00146121   0.03652529     1.626664 
  810000    405.03725   -7232.8382    4508.4295    969.66414    707.64194    11581.221 0.0014545791  0.036514839    1.6270827 
  812000    387.73835   -7234.3211    1820.2232    1420.3192    1047.8054    14168.683 0.0014502612  0.036493535    1.6270774 
  814000    393.44705   -7235.0892    3676.4955   -965.68657   -4334.6117    7905.5534 0.0014419549  0.036486224    1.6276015 
  816000    403.67253   -7233.5497    1860.1942    1911.6756   -2595.5399    9336.4762 0.0014350163  0.036595022    1.6273033 
  818000    391.24007   -7233.2198    3745.4055    470.93401   -3243.5796    11504.852 0.0014344286   0.03665698    1.6275589 
  820000    409.33008   -7234.3779    2374.2648     1290.103   -1428.0316    8282.5311 0.0014302861  0.036619894    1.6276839 
  822000    397.18196   -7233.4813    5128.3751   -1362.1605   -1631.8088     12956.57 0.0014291998    0.0366235    1.6271982 
  824000    411.34826   -7233.7215    5044.0677   -1349.9194   -1963.6798    14442.549 0.0014268643  0.036594367    1.6274678 
  826000    403.72031    -7233.915    420.95566   -492.09568   -1812.8276    10032.419  0.001425233  0.036578197    1.6274342 
  828000    404.78959   -7235.0221    3458.5241   -1842.2239   -4262.8543    14203.244 0.0014345501  0.036666877    1.6271927 
  830000    407.31652   -7232.9704    1564.2282    -1399.696   -3467.6253    10943.908 0.0014321418  0.036668932    1.6275295 
  832000    368.47959   -7232.3365      2329.98   -1403.1249   -1464.5568    13440.534 0.0014314179  0.036635761    1.6274433 
  834000    376.14513   -7234.3667    4753.0845    1887.7477   -1968.1667    13682.863 0.0014283419  0.036604228    1.6277808 
  836000    407.44347   -7234.8253    2651.0764   -3136.6144    769.31708    11840.915 0.0014405204  0.036572322     1.627487 
  838000    409.13239   -7234.0452    2973.3809   -170.15686   -2052.6136    12370.759 0.0014311563  0.036572457     1.627651 
  840000    415.40623    -7233.782    3270.5451   -1977.1141   -15.323603    10740.363 0.0014411231  0.036666997    1.6270389 
  842000    398.48213   -7234.1996    2809.6202   -1598.2602    -2141.664    11868.462 0.0014377895  0.036695154    1.6270713 
  844000    398.57629   -7233.1644    3527.3933   -1418.0399    636.49905    12422.359 0.0014325653  0.036677668    1.6274114 
  846000     369.4528   -7233.9522    5305.0731    1454.5146    -2200.168    12368.891 0.0014298953  0.036621229    1.6278014 
  848000    398.37799    -7233.197    4606.1503    767.94523   -3532.2376    12411.449 0.0014389039  0.036637209    1.6283851 
  850000    409.38674   -7235.1366     1582.516   -439.45708    2228.4233    12504.207 0.0014340957  0.036655134    1.6282052 
  852000    390.77954   -7234.5662    5094.8101   -2209.0274   -907.50208    13736.438 0.0014296504  0.036599275    1.6276218 
  854000    420.26305   -7233.2676    3409.7487    599.27544   -2849.7608    13807.191 0.0014225109  0.036770186    1.6278502 
  856000    401.54018   -7234.5126    4373.6119    -2310.183     253.2891    13041.139 0.0014187773  0.036817773    1.6278704 
  858000    416.80495    -7233.336    3724.4927   -7.9185175    127.00698     13145.98 0.0014158979  0.036778422    1.6280614 
  860000    374.23229    -7234.029    3573.8564   -834.04256   -530.10363     11262.64 0.0014182255   0.03673485    1.6280006 
  862000    399.18787   -7232.6986    4080.7403    84.917673   -1342.0968    9800.9456 0.0014465025  0.036770608    1.6283219 
  864000    387.99158   -7233.8124    2982.7611   -1889.0942   -490.24229    11065.056 0.0014399015  0.036728316    1.6285808 
  866000    399.04072   -7235.4993    3261.4125   -759.49123    -2218.056    10280.928 0.0014422007  0.036736304    1.6287859 
  868000    397.53043   -7233.2561    3563.0607    134.49378   -1573.6633    13088.458 0.0014522241  0.036746507    1.6287636 
  870000    408.50336   -7235.4233    5159.4229    572.01881   -4874.9384    12564.894 0.0014565499  0.036837103    1.6289396 
  872000    407.38389   -7234.4049    8139.1738   -218.80962   -275.98417     11532.36  0.001466131   0.03683291    1.6287389 
  874000    382.71853   -7233.8568    3734.9536    2147.1217   -1806.8162    12572.757 0.0014638615  0.036795797    1.6282699 
  876000    410.07061   -7233.4406    3812.1146    1629.6045   -3816.3225    10341.213 0.0014617665  0.036779719    1.6282737 
  878000    447.06127   -7235.1059    4636.8599    2131.0704   -2543.8326    14955.068 0.0014659717  0.036755149    1.6283341 
  880000    392.37714   -7234.1059    2945.2098   -1402.1011    422.81649    12013.074 0.0014684879  0.036768474    1.6286588 
  882000    415.90804   -7232.9901    3580.6819   -1527.6683   -3439.8013    13568.228 0.0014597716  0.036739748    1.6293153 
  884000    432.16892   -7232.8203    1984.6544    710.92137    98.532402    10778.895 0.0014625346  0.036805086    1.6290344 
  886000    395.31513   -7234.8631    2040.9045    701.50485   -326.22365    10632.221 0.0014560475  0.036783252    1.6284977 
  888000    399.11659   -7233.1833      4045.71    2953.2316    -3279.482    11186.166 0.0014593518  0.036760571    1.6283432 
  890000    405.14357   -7233.0164    2512.3106     284.5387   -1014.5024    12395.113 0.0014566291  0.036768506    1.6286136 
  892000    376.21055   -7233.6291    2491.0903    3172.4183   -724.04734    12787.817  0.001455431  0.036746872    1.6287193 
  894000    388.20549   -7232.4525    1169.6228    629.89748   -3711.9418    12252.503 0.0014517615   0.03675413    1.6286191 
  896000    392.91098   -7233.1274    2938.6476    2455.5721   -2249.7737    10152.248  0.001447102  0.036774944    1.6288828 
  898000    382.74955   -7233.1547    3295.6008    3446.8339   -1799.1039    13566.291 0.0014455336  0.036790931    1.6285817 
  900000    378.09449   -7234.7725    5005.4654    802.15455   -1106.1649    12688.623 0.0014646437  0.036794973    1.6290408 
  902000    415.34017   -7234.2339    4025.8088    757.59075   -1833.3976    14378.875  0.001464862  0.036761091    1.6289332 
  904000    421.19073   -7232.6185    5291.0276   -1311.8177   -643.01172     11729.03 0.0014645842  0.036717375    1.6284291 
  906000     395.1232   -7235.3324    5085.9193   -2355.3271   -634.26771    13402.773 0.0014766826  0.036722169    1.6284039 
  908000     381.0043   -7233.7315    4772.6165   -525.00187   -1028.1584    12175.025 0.0014682737  0.036706811    1.6284311 
  910000    399.24493   -7233.5139     5839.725   -159.28347   -1094.0124    13846.853 0.0014765687  0.036673366    1.6280978 
  912000    417.89587   -7232.5263    3879.7927    1193.9419   -1612.7258    12174.686 0.0014937566  0.036684733    1.6279566 
  914000    413.77878   -7235.2828    3863.8442   -16.129118   -1930.1259    11974.734 0.0014885175  0.036654804    1.6282148 
  916000    384.47891   -7234.2821    4565.1642   -720.46321   -532.10022    14224.258 0.0014855831  0.036623027    1.6283497 
  918000    403.17412   -7233.6546     4058.977    378.98857   -2491.7497    13300.092 0.0014892165  0.036582327    1.6282751 
  920000    391.12841   -7233.9049     3948.049   -1073.8978     -1728.98    11438.137 0.0014837774  0.036563263    1.6283125 
  922000    410.24535   -7233.0438    3410.2367   -2181.7332   -2600.1229    11855.653 0.0014882712  0.036587715     1.628262 
  924000    418.57536   -7234.9137    2082.3952   -2755.9933   -1052.6563     11400.73 0.0014894915  0.036608698    1.6280618 
  926000    429.27268   -7232.6301    3762.0199   -2677.6482   -2107.6147    13444.777 0.0014859185  0.036666751    1.6275483 
  928000    404.42048    -7233.557    2307.5968   -4221.7159   -711.06356    11515.969 0.0014824817  0.036666096    1.6275539 
  930000    380.56426    -7235.259      663.222   -588.05069     231.5827    13415.588  0.001482164  0.036632138    1.6278985 
  932000    374.53019   -7232.8599    1884.8002    3394.9577   -4402.1374    12185.576 0.0014816369  0.036592269    1.6284956 
  934000    386.61172   -7234.9247    4307.4591   -861.77163   -913.85275    13150.326 0.0014909894  0.036630714    1.6280548 
  936000    377.14121   -7233.2673    3900.2343    314.00684    -2389.195    11693.066  0.001489141  0.036593358    1.6281627 
  938000    395.21128   -7234.7011    4671.3126    -1526.343   -1593.2974    13058.086 0.0014851683   0.03659316     1.628012 
  940000     388.3587   -7233.4897    2393.0515    1422.0262   -3023.1782     12730.12 0.0014833168  0.036635043    1.6277289 
  942000    429.26928   -7233.8322     2198.026   -855.51038   -2608.0015    13028.735 0.0014835441  0.036701861    1.6274711 
  944000    405.92551    -7235.339    2341.0304    2165.1321   -2970.2257    11827.944 0.0014803368  0.036672535    1.6278633 
  946000      415.774   -7233.9265    3832.1525    1411.6579   -3123.3547    15050.378  0.001480423   0.03664553    1.6283009 
  948000    395.48658   -7233.4614    2150.9585    535.54524   -1606.8081    11667.488 0.0014762247  0.036661788    1.6284473 
  950000    420.49127   -7232.0997    5081.9393    708.59137   -1070.2138     13637.74 0.0014982916  0.036650583    1.6282614 
  952000    404.51532    -7233.535    3844.6086   -603.29936   -3603.4048     12702.45 0.0014911286  0.036685859    1.6282544 
  954000    395.90675   -7233.0869     4257.901    690.50356   -2961.3168    11713.322 0.0015097494   0.03672589    1.6278634 
  956000    396.60337   -7234.8338    5064.2334   -425.13807   -2034.3309    12950.346 0.0014926025  0.036794218     1.627788 
  958000    424.94875   -7232.9906    6437.5499    334.68094   -2379.0881    11660.228 0.0014922345  0.036739276    1.6277385 
  960000    408.47706   -7233.9623    2597.5862    3461.1797   -5197.2646    11784.221 0.0014969625  0.036710301    1.6278373 
  962000    405.59104   -7234.9889    3923.5595   -2520.2169   -2045.1357    12970.792 0.0014997998  0.036731659    1.6278219 
  964000    381.23164   -7233.9803    2221.3281     756.5357   -2567.2075     9657.541 0.0014964005  0.036782035    1.6278557 
  966000    388.90604   -7234.8965      3317.24   -615.95664   -2087.1694    12425.994 0.0014945594  0.036800342    1.6275809 
  968000    400.83759    -7233.081    3858.8654   -2354.2762   -1694.5521    13121.894 0.0014915315  0.036783966    1.6276732 
  970000    386.64762   -7234.0431    5405.3385   -1078.9115   -1921.1399    11669.255 0.0014874317  0.036831238    1.6276251 
  972000    380.37146   -7233.2704     3445.165   -2465.6385   -984.70495    12100.762 0.0014821092  0.036777389    1.6277162 
  974000    397.91146   -7233.7846    5417.3207   -566.27349   -2749.8009    9560.8092 0.0014815837  0.036756139    1.6277338 
  976000    390.88236   -7235.7973    1917.4895    2060.9258   -2397.7463    11645.914 0.0014808855  0.036780877     1.627901 
  978000    392.52081   -7234.1393    3126.2854   -1971.8322   -557.53232    13019.552 0.0014946326  0.036875927    1.6279612 
  980000    408.77986   -7234.5421    633.78349   -96.189904    -1193.526    13222.831 0.0014955613  0.036862864     1.628245 
  982000    402.20797   -7233.7385    2734.2297   -522.99444   -1319.9914    13793.739 0.0014939984  0.036858707    1.6280397 
  984000    388.23416   -7232.3049    2918.3926    1813.0622     -1396.39    13762.473 0.0014914718  0.036851623     1.628127 
  986000     356.3514   -7233.6966    3332.3211    1690.3456   -1802.2626    13009.441  0.001502451  0.036851652     1.628202 
  988000     356.5928   -7234.1474     1678.045    946.31837   -1381.5148    12008.218 0.0014950671  0.036812118     1.628021 
  990000    392.28155   -7234.7867    4829.6442    1532.0401   -3568.8756    12479.673 0.0014912799  0.036795573    1.6277562 
  992000    391.47828   -7234.5283    2463.6408    1312.5486   -2044.1453    12257.084 0.0014890714  0.036884338    1.6276751 
  994000    403.97965   -7234.6577    4459.6375    1796.7182   -2172.5102    14138.188 0.0014957729  0.036885796    1.6278031 
  996000    405.96861   -7234.1956    2837.8076   -987.77721   -2721.7894    12887.878 0.0014922921  0.036844067    1.6282179 
  998000     393.6784    -7233.394    2063.7591    1252.9145   -2396.2366    11799.609 0.0014914783  0.036817455    1.6282527 
 1000000    403.78657   -7233.1105    1523.8334    1829.1079    -2187.891    14718.923 0.0014865298  0.036861774    1.6280799 
 1002000    393.60002   -7233.5793    1140.0515    3598.0068   -1497.7329    13177.418 0.0014837558  0.036839482    1.6283621 
 1004000    429.96756   -7233.3317    3322.3027    2503.6113   -1169.4872     13054.75 0.0014887888  0.036835167    1.6282173 
 1006000    403.17768   -7234.0026    1502.8587    1363.6582   -2473.4366    13263.201 0.0014971963  0.036887603    1.6279273 
 1008000    410.49321   -7233.6931    1348.2871   -570.71971    17.817446    12509.621  0.001489529  0.036948332    1.6279309 
 1010000    377.65387   -7234.2895    1055.2284    2419.4249   -1502.2981    14390.314 0.0014897002  0.036903905    1.6278441 
 1012000    394.04299   -7233.4298    2005.7915    2863.9538   -314.17988    11288.176 0.0014896933  0.036903315    1.6282076 
 1014000    386.93832   -7233.5574    2988.9358    204.75829   -747.90174    11780.083 0.0014930221  0.036881309    1.6284429 
 1016000    408.82151   -7233.1557    2021.3053    1639.3092   -2268.4987    9654.9703 0.0014883064    0.0368397    1.6287328 
 1018000    406.09906   -7234.1221    4320.5576    -852.9731   -351.36041    11952.292 0.0014864007  0.036883913    1.6283309 
 1020000    378.10077   -7235.2524    4174.1117   -1560.5703   -3464.0315    13793.807 0.0014864719  0.036937661    1.6282591 
 1022000    406.05141   -7234.5092     7328.472   -1040.1381   -266.31466    8044.1071 0.0014817146  0.036943978    1.6282901 
 1024000     421.3284   -7233.8219    5398.5884    293.19698    49.120372    14025.313 0.0014804024  0.036886852    1.6285052 
 1026000    439.10863   -7235.2041    4364.2298    224.77847   -3561.1065     9470.728 0.0014782646  0.036874625    1.6286502 
 1028000    413.76977   -7234.2724    5744.7032   -378.56769   -173.38762    12730.167 0.0014797835  0.036899026    1.6284944 
 1030000    412.84222   -7232.8282    2480.7159    3793.5589   -3850.9606    11511.786 0.0014674655  0.036865136    1.6285633 
 1032000    390.58691   -7232.8383    3596.8412    949.10643   -3273.3934     13554.28 0.0014656745  0.036935561    1.6283244 
 1034000     411.5674   -7231.8858    4037.4656   -317.65449   -1844.3302    11846.183 0.0014663859  0.036963374    1.6285039 
 1036000    409.24405    -7235.032    2395.2828     189.7489   -1109.9859    12980.272 0.0014658363    0.0369158    1.6284677 
 1038000    397.30052   -7234.5479   -1133.2658    -547.8692   -1671.4997    12188.025 0.0014623822   0.03694298    1.6284503 
 1040000    372.82657   -7233.9491    1744.3662    503.60995   -1270.9731    12824.975 0.0014599689  0.036995623    1.6283649 
 1042000    412.22063   -7233.7858    1891.1611    2876.5125   -2281.7451     11466.45 0.0014569362  0.036962974    1.6285745 
 1044000    384.01087   -7234.4337    1702.4691    111.75014   -2324.0028    11030.703 0.0014613414  0.036935606    1.6289974 
 1046000    422.10367   -7234.5214    3538.7654    715.26544   -4732.2288    12781.268 0.0014615575  0.036912958    1.6287398 
 1048000    406.81207   -7234.2917    4023.6256   -196.28008   -4151.8252    11661.125  0.001459545  0.036965586    1.6285888 
 1050000    407.87517   -7232.7703    2327.4138    903.51888   -2914.1401    13324.251 0.0014588346  0.036988419    1.6285645 
 1052000    404.21785   -7234.4175    1241.3262    2325.0468   -3501.0502     14436.98 0.0014530992   0.03696065    1.6285826 
 1054000    393.92208   -7234.5296    2120.7595   -542.34934    -2715.018    12638.806 0.0014618786   0.03699614    1.6286676 
 1056000    408.21667   -7234.3754     3460.462   -1506.9813   -1822.9812    14121.612 0.0014602882  0.036937444    1.6286462 
 1058000    393.61764   -7234.2082    4040.6674    1103.2871   -5660.1069    12870.723 0.0014574438  0.036940877    1.6287579 
 1060000    425.19651   -7233.3694    349.90096    -2420.923   -854.28881    14569.951 0.0014574577   0.03692736    1.6286624 
 1062000    402.73187   -7232.2061    1684.2846    551.56215    105.91303    12885.719 0.0014528714  0.036876589    1.6287147 
 1064000      403.341   -7234.3157      1148.44   -1086.3234   -859.55431     13494.47 0.0014505564  0.036870824    1.6285487 
 1066000    424.16202    -7235.179    1860.8235   -1653.9215    -1053.848    12229.064 0.0014482718  0.036867749    1.6282906 
 1068000    405.44538   -7234.4482    157.74408   -2479.8402   -1939.5884    13991.052 0.0014452227  0.036862808    1.6280523 
 1070000    440.76853   -7233.0143    2474.4492    1726.8488   -2491.8234    15349.516 0.0014422077  0.036822713    1.6281608 
 1072000    392.11725   -7233.4315    2460.9484    899.68366   -3184.0113    13228.003 0.0014528611  0.036805268     1.628794 
 1074000    375.47596   -7233.2148    2964.6414   -632.72807   -30.157316    14044.063 0.0014559221  0.036808215    1.6287465 
 1076000    388.77064   -7232.7567    2490.2596    1519.9362    -573.0251    13224.501 0.0014568969  0.036748693     1.628354 
 1078000    398.49159   -7233.3632     4136.092   -396.59174   -2439.2405     10844.37  0.001457255  0.036744159    1.6283503 
 1080000    400.19837   -7233.6123    3700.2841    1205.8152    -395.7239    13805.138  0.001455658  0.036804027    1.6280234 
 1082000    412.53424   -7234.2051    2364.0092   -787.72835    374.80199    12559.072 0.0014779254  0.036760079    1.6280554 
 1084000      419.352   -7233.9137    1144.5049     728.4206   -2663.4979    12437.065 0.0014761722  0.036735452    1.6281382 
 1086000    395.44882   -7233.2845    446.32197    -1940.119    -475.0527     10406.98 0.0014738452   0.03676494    1.6280056 
 1088000    407.65386    -7233.101    -404.9962   -673.12852   -1290.8208     11436.16 0.0014878315  0.036739625    1.6279104 
 1090000    405.16409   -7233.4933    920.51969    1659.0372   -948.56746    12541.366 0.0014891388  0.036711826      1.62794 
 1092000     390.6624   -7232.8102    1262.0736    1358.4968   -1086.5465    11451.003 0.0015012119  0.036731304    1.6282125 
 1094000    425.42238   -7232.7365    4607.3158   -567.82516   -1370.4013    12915.216 0.0015285253  0.036700231    1.6280656 
 1096000     395.7227    -7233.308    3624.5129   -370.40742   -747.68254    14017.741 0.0015290894  0.036674709    1.6278974 
 1098000     386.4707   -7233.5365   -198.25653   -312.34939   -2821.8746    11099.181 0.0015341255  0.036627556    1.6279883 
 1100000    414.85753   -7233.1378    3693.6564    3357.4135   -1241.7633    11299.973 0.0015337149  0.036671978    1.6278863 
 1102000    410.01651    -7232.661    914.92666    1688.6819   -63.586615    13368.045 0.0015410289  0.036659589    1.6277065 
 1104000     407.4341   -7232.8972     2715.225    952.94145   -2965.7484    12579.321 0.0015354299  0.036632846    1.6277353 
 1106000    414.09411   -7235.1416    2749.8628    1523.8246   -955.04957    13018.425 0.0015333957  0.036647043    1.6279937 
 1108000    417.34831   -7233.2768   -570.04808   -581.45472   -2440.8672    12953.793 0.0015297898  0.036586762    1.6279191 
 1110000    375.07347   -7232.8734    2279.4615    1341.2739   -2730.7882    11801.473 0.0015262297  0.036535755    1.6280324 
 1112000    415.14663   -7234.0602    1914.5184    938.80848   -3099.2837    12959.167 0.0015246443  0.036574103     1.627872 
 1114000    400.09599   -7232.9531    3331.8831    1210.0101   -4508.2791    10454.811 0.0015263364  0.036581401    1.6279442 
 1116000    413.20332   -7235.0642    2934.2221    1152.5057    -1320.733    12113.977 0.0015258116  0.036577785    1.6278934 
 1118000    366.05861   -7234.0518    3192.3721    867.49703   -2005.1231    11901.314 0.0015226971  0.036575103    1.6280565 
 1120000    393.21512   -7232.8727      475.075   -92.536457   -4588.6954    11713.847  0.001521335   0.03656717      1.62811 
 1122000    433.30221   -7233.7665     1597.744   -453.73396   -2070.8757    12096.745 0.0015186513  0.036575857    1.6279572 
 1124000     403.1721   -7234.8684    715.97841   -928.49841   -3114.0655    12138.718 0.0015118967  0.036570137    1.6281177 
 1126000    410.90669   -7233.2797   -1107.6812   -946.05042   -2395.9982    13200.838 0.0015094171  0.036599997    1.6282847 
 1128000    411.45375   -7234.5065    2741.4954   -246.58832   -1482.5391    10900.239 0.0015054268  0.036566495     1.628271 
 1130000    416.57191   -7234.9701    226.95599    1313.3861   -3850.7671    11449.887 0.0015063875  0.036579118    1.6280627 
 1132000    416.87872   -7233.4878    2544.6163   -997.87594   -2544.6056    11400.064 0.0015046501  0.036588506    1.6280088 
 1134000    413.25083   -7234.2062   -202.62881    327.31024   -3392.4487    11709.753 0.0015028945  0.036597325    1.6278245 
 1136000    416.82527   -7234.8252     887.8714   -74.898137   -1791.1964     12766.49 0.0015046889    0.0366499    1.6279242 
 1138000    408.25573   -7233.3711    2272.0847    1219.6943   -636.08923    12578.049 0.0015040862   0.03663581    1.6280941 
 1140000    438.09751   -7233.7327     2814.642   -320.76231   -2413.8081    11668.206 0.0015005968  0.036578712     1.628359 
 1142000    385.39309   -7234.3988    3504.0548   -1539.6721   -2078.8404    10495.623 0.0014981797  0.036670049    1.6281721 
 1144000    424.12827   -7233.5351    4195.0918   -1372.1687    1008.9978    12463.361 0.0014960395  0.036662564    1.6278312 
 1146000    388.45315   -7235.3917    3023.6373    488.85596    -2182.538    12097.642 0.0014976007  0.036651815    1.6283045 
 1148000    383.27522   -7233.6001    41.538752   -1380.0879   -2844.0613    10658.343 0.0015038945  0.036730917    1.6281095 
 1150000    385.73232   -7233.4465    2457.8521   -1384.4678    532.94042    12166.991 0.0015000656  0.036715726     1.628059 
 1152000    405.20458   -7232.7215    1255.1435   -1306.5067   -1819.3626     11397.75 0.0015029425   0.03670066    1.6280632 
 1154000    409.54706   -7232.9955    1426.2272    1707.0425   -2762.2766    10727.193 0.0015071697  0.036684933    1.6279707 
 1156000    402.92365   -7234.1614    2610.4303    3714.7793   -3335.5525    11887.612 0.0015116163  0.036670187    1.6280429 
 1158000     404.5197   -7232.2361    4164.2432   -169.08089   -2342.4904    12722.725 0.0015396361  0.036707522    1.6281226 
 1160000    412.81896   -7235.0211    2927.7195   -1741.8718   -2145.1286    11571.314 0.0015370521  0.036745316    1.6281646 
 1162000    394.16132   -7233.9913    1475.1332    -2043.373   -1535.3852    12763.249 0.0015411601  0.036757157    1.6277025 
 1164000    400.33263   -7232.9027     948.8044   -2341.1718   -651.15653     14257.85 0.0015397621  0.036794553     1.627538 
 1166000    380.93555   -7234.3709    428.76056   -105.20015   -1683.1278    14361.277 0.0015365226  0.036774239    1.6279873 
 1168000     414.1519   -7233.4452    5889.2943   -801.36035   -1265.6546    12419.309 0.0015480082  0.036741962    1.6281001 
 1170000    369.17935   -7234.2538    2336.4291   -1545.8604   -3537.4797    12033.837 0.0015438182  0.036741368    1.6282276 
 1172000    387.10138   -7233.3007    3163.1682    2045.7066   -3401.5836    12809.544 0.0015412181  0.036719911    1.6279298 
 1174000     402.5838   -7233.2426   -876.72718     2465.985   -2549.7512     14474.13 0.0015434658  0.036790607    1.6278633 
 1176000    396.40262   -7233.1102    2219.9981   -67.782362   -1955.7168    12747.259 0.0015448736  0.036844308    1.6279592 
 1178000    395.64735   -7233.3645    2461.9509    695.93909   -1721.8121    12816.867 0.0015422263  0.036829464    1.6282919 
 1180000    414.50955    -7231.065    483.61526   -563.96856    -1149.709    11113.319 0.0015388097  0.036806385     1.628268 
 1182000    387.32306   -7233.0584    914.70826    300.93985   -2119.9233    10281.276 0.0015361678  0.036781502    1.6278987 
 1184000    399.99457   -7233.3044     5920.742    796.96959   -3092.9839    14219.889 0.0015338346  0.036791301    1.6279651 
 1186000    426.61943   -7234.6214    4801.5913    609.09264   -4967.6514    11318.134 0.0015322957  0.036812905     1.628422 
 1188000     396.3416   -7232.7367    5511.2358   -813.00591   -1318.0558    12271.471 0.0015342309  0.036927983    1.6284243 
 1190000    412.54514   -7233.1471    3724.1324    368.70494   -1334.8243    11895.603 0.0015325688  0.036914011    1.6279836 
 1192000    409.24663   -7234.1778    3584.3497   -2049.6976   -1044.3354    12276.509  0.001533945  0.036899677    1.6280208 
 1194000    404.12045   -7233.3435    4284.5029    1881.8173   -1049.6187    14665.375 0.0015306764  0.036884645    1.6279421 
 1196000    394.35807   -7232.5202    5443.4528    -1607.246   -715.04869    11300.974 0.0015440067  0.036841622    1.6283711 
 1198000    395.94161   -7234.6393    1588.9544    2639.3854   -3290.8635    12153.074 0.0015445649   0.03683254    1.6284876 
 1200000    434.85167   -7232.6546    2673.6973   -100.93858   -2489.1277    10790.163 0.0015416743  0.036886944    1.6283538 
 1202000    431.28618   -7232.9296    2280.2138   -18.899169   -4015.9923    13671.733 0.0015578746   0.03689347    1.6280333 
 1204000    404.87865   -7233.4361    1719.8841    2540.4217   -2483.9666    14803.829 0.0015574692  0.036951652    1.6282767 
 1206000    375.93181   -7234.6673    530.52922    3114.0014   -2740.5629    12201.205 0.0015475996  0.036968655    1.6282866 
 1208000    383.06508   -7233.0451    2146.8569    3523.0872    -1616.696    13698.129 0.0015569568   0.03693639    1.6282796 
 1210000    403.45031   -7232.1869    2118.6869    6.6299919   -614.98252    12145.116 0.0015600371  0.036911726    1.6282224 
 1212000    392.85957   -7233.5374    1940.7199    928.50101   -817.06952    13575.325 0.0015745965  0.036880193    1.6281177 
 1214000    410.16878   -7233.7058    1012.0564    2468.7512   -3377.8717    12525.409 0.0015713838  0.036925647    1.6280195 
 1216000    396.25938    -7232.898    401.07157    847.42151   -57.511084    11644.693 0.0015791134  0.036976835     1.627988 
 1218000    405.59477   -7233.9357     1882.221    2043.3908   -2245.8256    12351.188 0.0015744335   0.03695642    1.6282196 
 1220000    396.21679    -7233.443    1755.3932    2731.2152   -400.00182    13831.373 0.0015715091  0.036948562    1.6281223 
 1222000    430.70614   -7233.9842    500.15742    1419.8363   -1696.3244    10983.688 0.0015701062  0.036975563    1.6279882 
 1224000    399.53385   -7234.0684   -909.10755    1210.6985   -2306.2306    14146.996 0.0015678188  0.036945485    1.6280012 
 1226000    430.74153   -7232.3795    3046.0114    527.12523   -108.51112    13225.671 0.0015665026  0.036972421    1.6281331 
 1228000    427.16703   -7234.2753    3634.1303    1674.9304    -1487.506    13863.472 0.0015651875  0.036959523    1.6279576 
 1230000    405.62686   -7232.3864    4277.0166   -369.35206   -3380.3507    11301.912 0.0015672216  0.037010713    1.6280573 
 1232000     406.4929   -7234.1195     3645.872   -1382.6907   -1372.3736    13742.667  0.001564807   0.03703421    1.6281758 
 1234000     372.8885   -7233.3869    2820.4051    794.80727   -141.75804    11930.093 0.0015630053  0.037020415    1.6282875 
 1236000    388.39751   -7232.9305    3883.8543   -1590.8171   -2189.3936    12333.603 0.0015608359  0.036993044    1.6282445 
 1238000    397.41305    -7232.511    4720.5059   -447.53287   -744.22775    11093.494 0.0015624597   0.03699099    1.6284825 
 1240000    386.23339   -7233.6087    4371.7023    1200.6234   -4056.2513    10854.569 0.0015570212  0.037003998    1.6281907 
 1242000    419.17858   -7233.8046    2985.4323   -1047.9302     3.248928      11943.7 0.0015551889  0.037041091    1.6280721 
 1244000    379.63479   -7233.3108    3282.9205     2426.499   -2577.3954    10406.745 0.0015528211  0.037014125    1.6281521 
 1246000    402.25432   -7233.9023    3383.5963   -1209.3224    59.393526     11794.78 0.0015635208  0.037038588    1.6283767 
 1248000    416.86429   -7234.8276    2012.1351    474.11185   -2245.0797    8406.8021 0.0015667873  0.037047173    1.6284782 
 1250000    413.87108   -7233.0812    3831.1573    409.63384   -1362.8421    11673.035 0.0015625682   0.03702542    1.6283455 
 1252000    392.75053   -7234.1072    2139.3451   -1386.7434   -2735.9424    11930.458 0.0015643234  0.037009685    1.6286498 
 1254000    393.37958   -7234.5987    3708.7655   -286.97063   -518.00617    11746.363  0.001559809  0.037009364    1.6286462 
 1256000    363.80865   -7232.3591    2629.5919   -322.78247   -1075.2771    12707.569 0.0015571834  0.036995549    1.6284336 
 1258000    414.19835   -7233.8162    2698.6244   -724.04798   -1409.9725    12867.884  0.001553624  0.037029934    1.6286012 
 1260000    389.52978   -7234.3461    3424.0157   -1146.6223   -322.71316    12554.621 0.0015528178  0.037045473    1.6286002 
 1262000    434.47122   -7233.3321    834.92608   -433.42989   -419.12791    10550.163 0.0015491439   0.03704693    1.6285233 
 1264000    382.80875   -7234.5262     3792.276   -980.45458    -1263.986    14378.118 0.0015485226  0.037059873    1.6284847 
 1266000    384.54866   -7234.1302    3320.9771    2095.8664   -3983.6173    13028.508 0.0015479768    0.0370248    1.6289115 
 1268000    375.67054   -7233.1434    1900.8927    2199.6268   -1418.7999    13128.605 0.0015437688  0.037038793     1.628757 
 1270000    384.61376   -7234.2345    4583.8906   -928.50092   -4719.1694    12429.846 0.0015406941  0.037033729    1.6287282 
 1272000    395.63275   -7232.5967    2284.4343   -1031.1423   -1282.3034     12863.73 0.0015379434  0.037045753    1.6286867 
 1274000     411.6749   -7231.9431    2529.4685   -390.28335   -2133.4986    14126.701 0.0015351646  0.037073923     1.628555 
 1276000    420.94753   -7233.9867    3862.5267   -821.44582   -1595.9788    13787.036 0.0015334702  0.037069116    1.6285702 
 1278000    400.70155   -7232.5825    4316.7433   -1983.0587   -1508.1559    12537.269 0.0015369366  0.037040524    1.6286658 
 1280000    391.38672   -7232.7927    4599.2754    1345.8358   -3382.1962    13113.004 0.0015315256  0.037028878    1.6287435 
 1282000    366.16251   -7234.2114    4266.3329   -1320.6521    349.73916    10347.862 0.0015411936  0.037019588    1.6288555 
 1284000    403.79776   -7232.2193    1554.8329   -3040.9587   -228.79838    11428.118 0.0015406376  0.037026932    1.6289541 
 1286000    410.50585   -7232.4855    4488.4789   -1363.2222   -2787.7303    10968.739 0.0015430805  0.037055181    1.6290588 
 1288000    410.44469   -7234.3544    4635.3876    683.45132   -712.41493    12377.922 0.0015418985  0.037044685    1.6291773 
 1290000    397.45621   -7233.5292    1714.6948   -731.26471   -2866.0971    10691.336 0.0015465694  0.037056068    1.6293044 
 1292000    392.64381   -7233.1346    2858.3225   -750.53173   -2498.9952    11081.391 0.0015499149  0.037038346    1.6291189 
 1294000     426.5825   -7234.5822    707.38388    31.685541    -1938.695    13671.809 0.0015479694  0.037027414    1.6289843 
 1296000    392.14203   -7233.8152   -999.86258   -234.18463   -36.825168    11570.677 0.0015425139  0.037042198    1.6290588 
 1298000    395.97746   -7233.6622    3534.0095    1442.4156   -732.94666    12734.643 0.0015444972  0.037059559     1.629167 
 1300000     396.2846   -7234.8173    1984.1895    419.82218   -756.62468    10466.003 0.0015478511  0.037078824    1.6292219 
 1302000    397.53162    -7234.336    2020.6853   -740.51483   -2367.5604    12731.078 0.0015566284  0.037085052    1.6292864 
 1304000    401.39248   -7233.4854    5440.8514   -1265.5366   -3612.8927     13912.19 0.0015542559  0.037121903    1.6291398 
 1306000    394.85501   -7231.4203    4242.2174    3482.4755   -774.25556    12525.239 0.0015527449  0.037128214    1.6289381 
 1308000    444.15472   -7233.5717    4936.8061    1675.3678    -1007.465    12383.213 0.0015561259  0.037099615    1.6289285 
 1310000    394.81566   -7233.9875    2553.0229    1690.1223   -1187.0535    12509.712 0.0015550158   0.03712241    1.6288765 
 1312000    402.78952   -7232.8731     3604.697    3418.6576   -927.36746    13093.303 0.0015567611  0.037104721    1.6291226 
 1314000     388.3617   -7233.0482    2418.5424    1488.0236   -2690.0269    12800.485  0.001555221  0.037100882    1.6292263 
 1316000    389.23012   -7232.9496    2443.0511   -1274.2293   -2254.7543    12854.898 0.0015525672  0.037099863    1.6291188 
 1318000    426.97649   -7231.7849    5123.8693    959.31269   -1243.9931    13191.391 0.0015545414   0.03710879    1.6291242 
 1320000    408.71854   -7233.4493    2837.2166   -5357.8701   -4313.9816    14312.432 0.0015590253  0.037106471     1.629417 
 1322000    400.08123    -7233.897    1590.9431   -1758.2368    -558.4803    11540.652 0.0015564328  0.037109632    1.6296442 
 1324000    396.38386   -7232.3658    2645.8993   -1813.0963   -1838.8071    11590.804 0.0015522703  0.037111253    1.6293696 
 1326000    409.92656   -7232.9585     1649.311   -1639.5844   -867.60488    13794.911 0.0015495036  0.037129721    1.6290543 
 1328000    383.34818   -7234.0999    4966.0426   -188.12957   -329.10355     14124.22 0.0015475767  0.037105189    1.6290956 
 1330000    409.20195    -7232.919    1958.0165    1393.2331    574.89179     14176.23 0.0015444266  0.037108025    1.6294174 
 1332000    389.90129   -7234.5833    2731.9789    -85.11577   -397.35903    12638.913 0.0015600026  0.037116179    1.6294148 
 1334000    412.99729   -7233.3218    2986.6559   -222.58116   -2470.1103    13577.309 0.0015676665  0.037110172    1.6294178 
 1336000     381.3662   -7233.6765     3072.717    507.39656    752.45696    12590.614 0.0015712711  0.037130775    1.6292864 
 1338000    392.20544   -7233.9627    5129.8301    1524.6227   -987.05098    13793.642 0.0015688357   0.03709465     1.629392 
 1340000    364.90296   -7232.3285    4165.2442    2700.5229   -1931.3137     12813.11 0.0015968435  0.037096471    1.6294756 
 1342000    407.36826   -7234.0947     4339.412     348.7411   -219.96395    13671.761 0.0016077948  0.037124075    1.6295162 
 1344000    391.54723    -7233.317    4125.7402    -1541.034    1424.7487    13129.732 0.0016134356  0.037096268    1.6296211 
 1346000    384.48403    -7233.372    2739.4209    2829.4223   -3427.4225    12354.237 0.0016168127   0.03708849    1.6294527 
 1348000    407.77822   -7234.1339   -295.95832   -336.82264    135.20619    12765.843 0.0016131035  0.037128532    1.6294995 
 1350000    357.62837   -7233.1409    4403.3996    1855.4347   -294.01807    13636.938 0.0016207059  0.037120054    1.6298329 
 1352000    417.56684   -7232.7775    1082.5396   -897.00563   -160.51095    13687.651 0.0016170865  0.037115037    1.6300248 
 1354000    399.22244   -7233.9729     1892.927   -49.889255   -557.46421     10766.59 0.0016218476  0.037087886     1.630234 
 1356000    397.96959    -7233.551    2650.6889    -586.1444    -639.3992    13096.039 0.0016207104  0.037063969    1.6299042 
 1358000    384.13721   -7233.7692     6432.057    -1241.969   -1647.9771    12338.492 0.0016237167  0.037080117    1.6300208 
 1360000    412.18774   -7233.3443    2378.0281   -1577.7569    1297.8135    13139.246  0.001622744  0.037080152    1.6299058 
 1362000    402.96586   -7235.3597    3283.5411    1671.0349   -875.83718    11872.957 0.0016219472  0.037054739    1.6297472 
 1364000    423.29679   -7233.1096    1812.5721    965.40986    1647.5718    13871.583 0.0016233843  0.037069606    1.6296584 
 1366000    407.96261   -7233.6742    2665.2994    1202.3464    -1479.842    12981.081 0.0016238059  0.037066931    1.6295736 
 1368000    403.10058   -7233.8292    786.14758    264.39619    920.31062    14668.237 0.0016184559  0.037030454    1.6296453 
 1370000    422.86413   -7233.6601    759.11561     1098.071   -2914.8644    15904.729  0.001617545  0.037000581      1.63005 
 1372000    382.21657   -7233.2862    2824.1944    1463.2579   -2505.3375     10587.04 0.0016176323  0.037022381    1.6300688 
 1374000    422.03654   -7233.9923    3874.1425   -1952.6089   -1150.8075    12067.429 0.0016171674  0.037051146     1.629891 
 1376000    409.88689   -7234.6436    1797.3241    945.85041    -703.5796    12218.121 0.0016168392  0.037027316    1.6299441 
 1378000    434.08119   -7234.2148    3341.6214    1642.2467   -2956.6464    10102.308 0.0016200472  0.037044541    1.6299532 
 1380000    399.98049   -7232.8404    1659.9552   -1426.4727   -3309.8424    10705.311 0.0016164041  0.037071695    1.6300389 
 1382000    398.02261   -7234.0063    2389.5303    819.63264   -2572.9234    11197.611 0.0016126247  0.037083052    1.6301446 
 1384000    414.03005   -7233.0736    1277.9953   -944.67403   -1663.1723    14814.232 0.0016133054  0.037066657    1.6300192 
 1386000     392.5184   -7234.9245    3174.9102   -1196.7087   -1603.5382    14216.703 0.0016103612   0.03704741    1.6304731 
 1388000    398.06036    -7234.141    1358.7232   -1912.1891   -1566.2678    12741.073 0.0016075557  0.037037294    1.6302038 
 1390000    372.45212   -7233.2625     795.7701     1726.577   -1355.8962    12489.891 0.0016016563  0.037046504    1.6300444 
 1392000    417.57147    -7233.889    3504.8236   -386.13687     -2574.82    11841.761 0.0016027677  0.037109351    1.6300159 
 1394000    381.49842   -7233.8072    3879.7959   -1529.0645    -893.0274    13054.535 0.0016018028  0.037110672    1.6302701 
 1396000    370.25527   -7232.8877    1307.1858    285.84269   -837.01686    13684.082 0.0015997551  0.037091959    1.6301214 
 1398000    397.63452   -7234.2879    1833.3056   -414.69059   -4249.6023    12817.066 0.0015972213  0.037110181    1.6300983 
 1400000    371.99231   -7233.5097    521.61729    2440.7904   -1688.1655    13744.156 0.0015947804  0.037081339     1.630294 
 1402000    406.08665   -7234.0461    621.77446    1630.8273   -3568.4885     12908.93 0.0016014346  0.037066844    1.6302863 
 1404000    415.55151    -7233.469     1321.865    -152.7592   -3858.5487    11571.052 0.0016036294  0.037130808    1.6303012 
 1406000    386.02824   -7234.1158    955.00555    251.97796   -1852.4286    12341.585  0.001600927  0.037134866    1.6302944 
 1408000    392.10894   -7232.5599   -790.93851   -204.57929    -2735.789    11095.635 0.0015981023  0.037118297    1.6301959 
 1410000    427.79813   -7234.7047    2378.0677    340.66723   -3007.8425    13252.136 0.0015978713  0.037149099    1.6302758 
 1412000    405.68593   -7234.9225   -624.32785    533.81651   -1096.3392    12474.631 0.0016040612  0.037125576    1.6303342 
 1414000    407.10166   -7232.7549   -1344.6249     632.4861   -4109.9733    12274.236 0.0016017968  0.037111758    1.6303911 
 1416000     372.6539   -7234.7419    119.37009   -219.45765   -3761.6293    13044.978 0.0015991784  0.037102134    1.6303466 
 1418000    390.83106   -7233.5692    1236.4149     598.2671    -2849.338    12400.662 0.0015991087  0.037114443    1.6303767 
 1420000     358.0582   -7234.0945    110.85296    262.45181   -854.28252    13063.458 0.0015960052  0.037114823    1.6305455 
 1422000    415.25222   -7231.1761    2590.4068    2175.9577   -2352.7263    13775.465 0.0015917352  0.037161746    1.6306085 
 1424000    409.77676   -7234.6798    3824.3956    337.13816    -761.4634    9733.0795 0.0015947134  0.037126519    1.6305739 
 1426000    400.60836   -7233.5349    4659.0627   -1968.9874   -4773.0506    13828.415 0.0015957545  0.037120142    1.6305693 
 1428000    365.04353   -7233.8137    3031.4007   -843.96179   -1247.2451    10648.584 0.0015933848  0.037122672    1.6304466 
 1430000    376.59832   -7235.2716    1853.7454    2173.1802   -2042.9414    14498.868 0.0015917285  0.037120038    1.6304042 
 1432000     397.3829   -7233.3614    3105.8306    597.68225   -3552.7853    9584.3784 0.0016036872  0.037121596    1.6307623 
 1434000    402.73589   -7234.2189    2756.2292    2025.8907     901.7769    10059.948 0.0015943079  0.037100504    1.6309398 
 1436000    417.03345   -7232.1748    994.30328   -1122.0396   -3379.1393     10114.87 0.0015889588  0.037129388    1.6307822 
 1438000    401.39843   -7234.0527    1013.4977    538.69502    1202.7189    10140.828 0.0015859055  0.037155245    1.6305366 
 1440000     410.6246   -7232.7425    4478.9616    269.77407   -3086.7048    12531.943 0.0015854056  0.037133431    1.6305009 
 1442000    397.46296   -7233.2442     2922.579   -907.37705   -53.544994    7689.2195 0.0015831035  0.037146916    1.6307154 
 1444000    411.18515   -7233.7914    3542.1067    1091.5441   -1520.4449    11514.348 0.0015818516  0.037132214     1.630785 
 1446000    377.94425   -7233.9697    4550.7895    68.264456   -1190.6459     9380.089 0.0015759182  0.037139088    1.6306606 
 1448000    401.22058   -7233.0655    3135.1712   -315.95617   -2506.5527    11246.999 0.0015732993  0.037139702    1.6305388 
 1450000    401.81393   -7234.0103    1482.7461     3113.662   -3162.3056    9780.3009 0.0015839598  0.037134608    1.6306219 
 1452000     398.2776   -7233.2791    429.12847    2208.3565   -2181.9137    9303.5628 0.0015766504  0.037169869    1.6305181 
 1454000    415.29449   -7233.3634    2299.9247   -1327.0596    -1010.581     13115.54 0.0015806194  0.037185002     1.630351 
 1456000    407.58051   -7233.6361    940.18301   -2455.4108   -2221.0066    13461.439 0.0015821819  0.037165367    1.6305049 
 1458000    409.82672   -7232.3616    2503.6501    269.72665    -1701.025    9942.4199 0.0015836605  0.037150339    1.6305582 
 1460000    380.50588     -7234.33    1580.4395    191.02002   -171.59027    10408.433 0.0015829169  0.037145207    1.6305501 
 1462000    393.75734   -7235.3956    5835.6499   -550.11107   -2923.0877    12706.311 0.0015817046  0.037135586    1.6308445 
 1464000    413.18635   -7231.3245    4408.4979    602.14686   -874.18102    10857.023 0.0015781428  0.037138545    1.6308146 
 1466000      386.957   -7232.9474    2734.7865   -937.41178   -5487.1836    11734.217 0.0015802166  0.037159888    1.6305973 
 1468000    410.08516   -7233.6827    2289.9839   -592.38204   -778.54817    12869.421 0.0015795272  0.037167188    1.6304783 
 1470000    409.70864   -7234.3228    1135.9365   -811.98771    -71.87612    13155.843 0.0015797315  0.037184584    1.6305291 
 1472000    415.33135   -7232.9866    4674.7731   -1972.6581   -143.86814    12929.456 0.0015807419  0.037176556    1.6305813 
 1474000    412.47581   -7232.5892    2784.0913    93.127576   -184.91366    15420.245 0.0015848657   0.03715513    1.6309647 
 1476000    383.30862   -7233.9115    3535.3686    -1811.045   -158.41264      10332.7 0.0015802393  0.037139442    1.6308477 
 1478000    411.29868   -7234.1771    2962.8819   -2055.0123   -87.669259      11926.8 0.0015776323  0.037136014    1.6307315 
 1480000    373.74621   -7233.7314    1502.6446   -830.87074   -591.65365    9959.4268 0.0015746432  0.037146668    1.6309263 
 1482000    403.30007   -7234.7794    5151.3275    1660.9294   -1631.8801     10952.17 0.0015727155  0.037177811     1.631045 
 1484000    404.33888   -7233.8034    2805.2506    1561.3187   -1944.4762    11569.379 0.0015708568  0.037208711      1.63111 
 1486000    389.49255   -7234.0634    2873.3476    3745.6458   -2130.0039    10798.161 0.0015700811  0.037190301    1.6308603 
 1488000    400.48002   -7234.8037    2176.0357    45.988988   -684.99566    11969.964 0.0015800238  0.037170941    1.6307273 
 1490000    396.91112   -7233.7392    25.693786    1635.9732   -2610.1887    13042.801 0.0015776697  0.037156909    1.6309105 
 1492000    404.81653   -7235.0034    2302.2601    2284.8279   -3131.2859    11572.918 0.0015806406  0.037193535    1.6312558 
 1494000    416.23343   -7233.6596    2541.1144    3967.5813    -4732.189    12739.264 0.0015774531  0.037180718    1.6310804 
 1496000     402.2106     -7232.22    1800.0622    799.76224   -2083.3361    13698.524 0.0015738754  0.037168346    1.6309927 
 1498000    405.55862    -7234.035    3627.3379    1259.6341   -2187.2701     12922.23 0.0015726525  0.037183445    1.6310979 
 1500000    418.46474    -7235.066    1481.9019    422.90494   -2650.4272    12302.648  0.001570716  0.037209986    1.6310167 
 1502000    406.96006   -7232.5571   -194.67072    1539.7086   -981.17785      12893.8 0.0015705205  0.037207684    1.6308504 
 1504000    379.64896   -7234.2348   -233.35974    155.75751    1163.3129    15691.854 0.0015715101   0.03718249    1.6310171 
 1506000    414.13469   -7234.1436    523.77668   -1787.5604   -1453.4033    13446.028 0.0015777654  0.037157591    1.6308792 
 1508000    421.96065   -7234.4786    -1179.229    1919.4287   -1630.7345    11104.615 0.0015709281  0.037190208    1.6310284 
 1510000    417.07821    -7234.683   -256.06498   -1549.0536    104.58568    14315.931  0.001573738  0.037227761    1.6310466 
 1512000    401.42591   -7235.7233     1796.204    913.59995   -866.40021    7910.5579 0.0015723799  0.037210192    1.6313065 
 1514000    399.34162    -7233.292    3265.2582    79.288218   -2800.7851    11932.897 0.0015748936  0.037215971    1.6310647 
 1516000    385.67799   -7234.2079    2166.5219    -3064.525   -1214.6491    11508.612 0.0015727391  0.037213704     1.630931 
 1518000    413.97269   -7233.3595    3985.2012   -2024.1378    -1381.703     11388.87 0.0015729558    0.0371774    1.6311199 
 1520000    400.24208   -7233.7564   -45.864208   -343.09804   -2677.1355     11079.82 0.0015745234  0.037180062    1.6310921 
 1522000    400.27242   -7235.1086    2763.1156   -1446.2021    -2416.798    12483.498 0.0015704788  0.037223537    1.6311404 
 1524000    392.65148   -7233.5356    3138.7951    2133.5197   -5506.3863    11775.674 0.0015694674  0.037222482    1.6310747 
 1526000    402.31057   -7234.1935     4393.942     1228.577   -4105.7025    11663.473 0.0015674111   0.03724405    1.6311144 
 1528000    430.19171   -7232.7224    3066.7133     1885.587   -4893.7557    13716.479 0.0015677712  0.037251984     1.631002 
 1530000    423.67066   -7234.8562    4473.9937    522.21733   -708.50424    12156.673 0.0015653721  0.037259613    1.6310819 
 1532000    395.50383   -7233.3321    5319.3466    1958.6757   -2599.3982    12506.989 0.0015643276  0.037220498    1.6312067 
 1534000    417.28614   -7234.5228     3695.252   -460.70401   -2534.4541    14328.818 0.0015624022  0.037186635        1.631 
 1536000    385.98892   -7233.3514    3009.2324    3251.8974   -6104.3511    15099.494 0.0015589099  0.037229903     1.630978 
 1538000     392.3644   -7232.3247    1577.6992   -2664.3105   -2569.9043     14360.86 0.0015574259  0.037240696    1.6309469 
 1540000    380.87793   -7233.5192    1904.2277   -2012.9973   -3468.7667    12969.474 0.0015555347  0.037236761    1.6308529 
 1542000    397.97383   -7235.0143    1879.8462    1429.2434   -1367.1503    12537.842 0.0015545962  0.037259538    1.6308474 
 1544000    370.35666   -7234.5846    1235.3824   -296.82723   -335.83347     13196.02 0.0015572879  0.037237776    1.6310208 
 1546000    395.68832   -7233.0273    1766.0477    2078.2958   -2321.7537    12692.978  0.001560823  0.037201106    1.6311544 
 1548000    410.15794   -7234.2539    1354.3072   -677.26851   -1730.3796    12437.506 0.0015580703  0.037213942    1.6311147 
 1550000    401.01211   -7234.7668    2110.6379   -845.28313   -2622.9527     9545.219 0.0015559898  0.037218662    1.6311487 
 1552000    381.73769   -7233.4554    2551.6673    -1710.275   -1360.0779     11797.67 0.0015529939  0.037245347    1.6309173 
 1554000    424.97153   -7234.8917    3738.3621   -286.89233   -2542.7261      13901.8 0.0015535281  0.037249909    1.6305744 
 1556000    410.00452   -7233.3857    3629.3774    1671.3333   -125.92865    9829.1133 0.0015505817  0.037222837     1.630921 
 1558000    384.62663   -7232.7243     3185.797    218.25098   -1652.5274    16461.494 0.0015536274  0.037194422    1.6309453 
 1560000     377.2585   -7234.0683    4428.1036     519.7573   -651.86773    13842.593 0.0015519353  0.037184598     1.630904 
 1562000    390.32214   -7233.9225    1887.4429     153.3642   -3695.3324     14990.49 0.0015494127  0.037155132    1.6308648 
 1564000    367.73331   -7233.1908    5867.6695    118.85705   -1892.8633    12779.685 0.0015467738  0.037152524    1.6306816 
 1566000    422.80011   -7233.8995    4541.0937    1058.9444   -646.71801    12211.771 0.0015497285  0.037212132      1.63068 
 1568000    418.08019   -7233.4663    3853.0749   -736.58633   -2318.0989    12616.736 0.0015497152  0.037210554    1.6306628 
 1570000    421.26028    -7234.582    4161.7348     2484.564   -2268.6754    12998.381 0.0015476307  0.037199718     1.630817 
 1572000    425.89343   -7233.7022    1909.3713    438.90065   -2168.7801    10218.258 0.0015459522  0.037181337    1.6308244 
 1574000    375.52416   -7235.2283    2278.8154     2343.501   -3051.1016    8746.4796  0.001544536  0.037159134    1.6309872 
 1576000    351.92333   -7233.4249    1975.0737    943.69705   -3989.7658     10247.33  0.001543025  0.037159313    1.6310157 
 1578000    400.37065   -7233.6149   -306.81411     1514.324   -2852.7085    12391.133 0.0015419968  0.037213458    1.6310417 
 1580000    425.50535   -7234.1353     4363.542    83.755787   -2901.9049    13706.328 0.0015408598  0.037247185    1.6308723 
 1582000    391.92646   -7233.9198    1297.9211    2065.9955   -1209.8641    10589.913 0.0015400242  0.037266574    1.6307683 
 1584000    376.12414   -7234.4392    2295.6749   -1911.2393    148.07963    12390.761 0.0015415293  0.037239502      1.63089 
 1586000    361.20795   -7232.5562    1306.4523    668.23896   -1607.0959    11540.848 0.0015381682  0.037206078    1.6308941 
 1588000    385.64755   -7233.3572    894.48234    2402.0404   -2953.7253    14028.523  0.001536042  0.037218337     1.630887 
 1590000    401.06418   -7233.5294    3520.6544    1876.9454   -2345.5741      11915.5 0.0015337666  0.037236887    1.6308337 
 1592000    411.02332   -7233.0575     2005.112    1970.0339    835.26123    10434.417 0.0015330097  0.037258164    1.6308731 
 1594000    379.77234   -7234.2139    4208.4401    3821.3412   -2611.9635    13492.609 0.0015395577  0.037249682    1.6309783 
 1596000    398.11405   -7235.3136    5372.8876    538.44235    76.781375    10755.934 0.0015421179  0.037291943    1.6310649 
 1598000    391.26251     -7234.05    4677.5764   -286.74121   -1818.8105     12898.95 0.0015406476  0.037274142    1.6309099 
 1600000    388.99923   -7233.4534    3754.0024    196.69449   -1358.2373    11942.403 0.0015400692  0.037253456    1.6307989 
 1602000    405.19982   -7233.8274    5262.1088   -532.51238   -1080.5169    12462.592 0.0015385305  0.037266146     1.630969 
 1604000    383.02267   -7234.1937    4129.1557    -636.6445    736.06048    12372.726 0.0015440611  0.037270282     1.631097 
 1606000    416.08517   -7233.4996    5285.4748   -1554.4697   -3761.7336    13197.144 0.0015428524  0.037249237    1.6310096 
 1608000    394.04268   -7232.4316    5623.7386    29.621566   -1208.7896     14364.84   0.00154195  0.037261301    1.6308351 
 1610000    378.70953   -7233.9721    2153.0575    92.039202   -3626.6038     14191.63 0.0015405232  0.037300068    1.6312332 
 1612000    399.05713   -7233.5872    2874.6809   -712.40167   -3934.8914    12815.661 0.0015389749  0.037277888    1.6314307 
 1614000    400.58564   -7233.2332    345.23559     910.8521    -2273.211    14392.976 0.0015372898  0.037262671    1.6313627 
 1616000    435.21437   -7234.5173    1970.5462   -731.23031   -3997.7849    10789.607  0.001535317  0.037244289    1.6314142 
 1618000    366.21275   -7234.5566    1769.5045    -309.9828   -1794.5069    11211.762 0.0015327569  0.037242072    1.6311691 
 1620000    406.53432   -7233.9401    1045.9383   -480.64452   -439.93972    11424.657 0.0015306594   0.03723965      1.63112 
 1622000    379.96508   -7234.1519    103.26704   -117.96634   -765.31545    14554.144 0.0015349219  0.037248644     1.631242 
 1624000    379.26357   -7234.3154    2154.3259    1202.2022   -1242.8296    12092.908 0.0015393138  0.037242486    1.6314085 
 1626000    368.58795   -7233.8124    927.33811    111.05273   -3591.8862     11445.89 0.0015363633  0.037252919    1.6313911 
 1628000    391.34956   -7235.5316    3307.4745    2102.1036    -2334.255    11733.504 0.0015385909   0.03724242    1.6314324 
 1630000    409.10733   -7232.6841    2675.6064    568.96048   -2613.6317    11770.245 0.0015363209  0.037256358    1.6313497 
 1632000    390.33723   -7235.0353    2305.4945    2133.2463   -1512.2352    11830.018 0.0015499849  0.037249075    1.6314043 
 1634000    410.95214   -7233.2935    4378.9445    200.74653   -3619.9952    11771.781 0.0015435914   0.03726266    1.6312622 
 1636000    416.62813   -7232.5215    4047.3976   -893.42023   -1051.3238    14070.585 0.0015415912  0.037250072    1.6313772 
 1638000    393.30003   -7231.9127    3338.4237    1065.0284    -2739.942    10101.793 0.0015387819  0.037270759    1.6313483 
 1640000    379.33901   -7232.4401    3664.8921   -1160.1875   -2956.6163    12885.891 0.0015393222  0.037281839    1.6312172 
 1642000    378.49996   -7234.0474    3556.1052   -1496.2836   -2344.2722    12558.242 0.0015379373  0.037267509    1.6313801 
 1644000    407.24317   -7233.9025    5064.3504     881.7155   -3199.7534    12290.275 0.0015369046  0.037266045    1.6313215 
 1646000    392.89491    -7232.983    7481.7313   -1889.5462   -3173.2793    14675.996 0.0015434081  0.037280323    1.6314748 
 1648000    399.52209   -7234.1518     4204.859   -826.39704   -1441.7401    13819.156 0.0015414203  0.037275484     1.631448 
 1650000    401.21636   -7233.6162    5824.9615   -4546.4052   -1671.6872    13501.461 0.0015382898  0.037289005     1.631433 
 1652000     388.1739   -7233.6498    2499.3198   -2533.9141   -1496.7506    11552.181 0.0015359205   0.03728813    1.6312681 
 1654000    354.00392   -7232.6043    5874.2266    1049.0717   -2569.5229    12322.262 0.0015323703  0.037303324    1.6311323 
 1656000    413.85761   -7234.5515    4987.2992   -133.10467   -1322.1141    13750.514   0.00153121  0.037313198    1.6311138 
 1658000    398.25655   -7233.2418    3872.8495    1246.2087   -770.01647    12462.273 0.0015313504  0.037284621     1.631305 
 1660000    371.87058   -7232.5101    4062.3098     1358.786   -3350.4762    11365.025 0.0015293491  0.037285248    1.6314061 
 1662000    394.70414    -7234.448    1647.3489    803.21699   -2012.7035    12074.188 0.0015256955  0.037293396    1.6313651 
 1664000    386.42668   -7233.8384    1704.6556    3689.1326   -2592.8305    13479.179 0.0015261672  0.037277292    1.6313286 
 1666000    362.02487   -7233.7223    3697.8918    246.38902    556.03951    11645.393 0.0015212323  0.037321075     1.631103 
 1668000    401.08187   -7234.1284    3636.6105    1286.8236   -2905.3091     13787.61 0.0015193654  0.037307901    1.6311204 
 1670000    396.97914     -7234.68     1830.335    949.35555   -2418.8918    12671.723 0.0015171905  0.037297516     1.631312 
 1672000    391.10437   -7234.5475    4899.6676   -120.87369   -1787.7915    12311.378 0.0015160146  0.037322046    1.6312406 
 1674000    399.30296    -7234.116    4294.1634   -3112.1494   -2574.9489    12797.472  0.001518232  0.037314219    1.6313936 
 1676000    373.76324   -7231.5046    4407.6202   -656.28044   -2974.1859    15093.237 0.0015147587   0.03731423     1.631568 
 1678000    414.93894   -7232.8842    5082.8834   -224.58858   -2036.8153    9560.0446  0.001511067  0.037313071    1.6316972 
 1680000     391.2946   -7235.6539    4454.6667    610.68799   -2846.9215    11840.648 0.0015187472  0.037301915       1.6314 
 1682000    404.96079   -7234.0901    5004.6064   -395.27917   -5255.9085    11014.713 0.0015144574  0.037328088    1.6313043 
 1684000    397.56762   -7234.8383    3969.9506   -224.42068   -2759.0898    12827.909 0.0015155423  0.037339978    1.6313412 
 1686000    393.11725   -7233.9716    3368.9198    1043.2131   -2746.1374    11636.161 0.0015110867  0.037339278    1.6314069 
 1688000    393.57866    -7235.128    4828.0042   -1747.6455   -927.06812    13522.803 0.0015107286  0.037338234    1.6314918 
 1690000    395.28018   -7232.5244    3601.0601   -1540.4977   -400.35775    11608.732 0.0015084595  0.037319133    1.6315338 
 1692000    381.29855   -7235.1596    4063.7958    -930.4128   -1380.9752    12011.247 0.0015043314  0.037320382     1.631614 
 1694000    395.72956   -7234.7707     4090.791    550.08343   -503.30037    11807.287 0.0015037864  0.037326924    1.6317071 
 1696000    395.96751   -7234.2513    4043.1932    426.38646   -2718.6146    10312.192 0.0015079416  0.037317357    1.6317562 
 1698000    392.23767   -7233.7525     2355.713    909.46246   -2255.9005    12538.462 0.0015041471  0.037330459    1.6317066 
 1700000    391.33427   -7234.4116     3355.034    1307.6758   -567.58763    10743.784   0.00150155   0.03734255    1.6316414 
 1702000    390.34371   -7234.4194    3876.5621   -1250.9566   -1267.9998    13234.712 0.0015003256  0.037352562    1.6314643 
 1704000    420.06245   -7233.8431    1270.1638   -1479.7028   -424.08429    12129.602 0.0014981516  0.037341465    1.6314843 
 1706000    405.27131   -7234.5607    5602.4125    1083.6287   -1752.3142    14278.492 0.0015131671  0.037344082    1.6316581 
 1708000    425.60364    -7233.483    1994.8332   -40.944197   -1649.0795    13286.102 0.0015204629  0.037341788    1.6319657 
 1710000    408.61723   -7234.6102      1042.43    1568.5541     448.1109    9714.6733  0.001525571  0.037338551      1.63181 
 1712000     409.7632   -7233.5566     2962.692    263.20256   -3131.9492    11916.526 0.0015263491  0.037321274    1.6316085 
 1714000    412.09763   -7233.7152     1923.452    1160.4424   -1633.6646    12193.105 0.0015223488  0.037360008    1.6317076 
 1716000    385.37106   -7233.1322    5911.2561    1355.8189    732.16068    12945.735 0.0015281621  0.037366442    1.6316553 
 1718000    400.45784   -7233.7506    3704.6877   -763.09951    16.665696    13789.942 0.0015314069  0.037351612    1.6316001 
 1720000    381.70707   -7233.3598    5153.8976   -2259.2231   -2279.9269    11906.226 0.0015319014  0.037342307    1.6314641 
 1722000    410.25639   -7232.6601    4709.9215    2354.6944   -607.01502    13523.746 0.0015337779  0.037390809    1.6314023 
 1724000    424.57231    -7233.621    3943.6255   -161.91267   -268.74879    12980.846 0.0015336159  0.037391862    1.6316228 
 1726000    410.42313   -7234.0604    7493.9435    1253.1458   -3603.3891    11594.344 0.0015327778  0.037359683     1.631783 
 1728000    368.12846    -7234.057    4293.5228    1985.9427   -713.45654    10633.588 0.0015310662  0.037399111     1.631622 
 1730000    379.70981   -7235.4986    4051.4045    749.56518     470.8947    12676.508 0.0015325459  0.037411326    1.6315737 
 1732000    415.43464   -7232.9614    2014.1946    2562.4892    -2868.446    10560.619 0.0015306824  0.037381176    1.6315154 
 1734000    411.55863   -7233.5358    2080.6631   -332.60919    -1463.967    11781.732 0.0015290961  0.037399378    1.6315052 
 1736000    398.64012   -7234.1778     4174.299    2028.7783   -3921.4628     11198.26 0.0015278942  0.037408185    1.6316159 
 1738000    429.59444   -7233.2609    1480.9339    466.59913    84.381254    11193.196 0.0015266498  0.037399956    1.6314026 
 1740000     401.4284   -7233.9021     4029.365    1108.9002   -1322.6683    14227.467 0.0015253519  0.037374648    1.6315723 
 1742000    411.04472   -7233.0687     3464.901    187.52915   -4765.8869    10373.388 0.0015298483  0.037374467     1.631814 
 1744000    380.55958    -7233.578    3221.3323   -784.56235    -994.5175    9592.2071 0.0015286334  0.037383307    1.6318574 
 1746000    385.63238   -7233.2855    1682.5007    1851.1087   -3635.7492    11411.149  0.001526018  0.037379553    1.6317735 
 1748000    399.29651   -7234.1493    3514.7625     269.7043   -2789.3443    13695.855 0.0015241376   0.03737299    1.6317748 
 1750000    383.33863   -7233.4272     4273.465    1487.9407   -815.19818    12056.552 0.0015241091  0.037400152    1.6319638 
 1752000    361.30486    -7233.246    1885.7849   -839.92858   -1665.8303    11401.232 0.0015237828  0.037399883    1.6318455 
 1754000    402.89923   -7234.0709    5028.1486     1186.958    183.86285    13052.487 0.0015225394  0.037394099    1.6316925 
 1756000    397.94989   -7233.7667    5974.5791    401.48906   -2621.1387    15475.367 0.0015204141   0.03738717     1.631899 
 1758000    417.12631   -7233.5516    4830.0795   -453.57953   -1643.3589    13021.724 0.0015213049   0.03737803    1.6320914 
 1760000    382.12607    -7232.861    4419.9009    521.28943    -1610.218    14845.924 0.0015201447  0.037368541      1.63207 
 1762000    396.25355   -7235.3249    2399.6203   -1809.7498   -1572.0877    15600.465 0.0015172022  0.037355887    1.6324806 
 1764000    410.07892   -7233.3101    4843.2652   -1659.6873   -1912.0723    10656.814 0.0015142694  0.037360534     1.632512 
 1766000    409.89341   -7233.1685    5930.5931   -250.98736   -3287.8392    12422.025 0.0015153543   0.03735701    1.6322864 
 1768000    401.31321   -7233.5722    4285.5765    2501.0148   -795.95053    11336.322 0.0015194321  0.037421731    1.6322716 
 1770000    401.71221   -7233.2412    4999.3892   -1687.1849   -1488.5271    10838.315 0.0015202871  0.037417921    1.6323962 
 1772000    391.82994   -7232.9401    3747.3816    1610.7203   -2317.3921    14995.776 0.0015188617  0.037401777    1.6322204 
 1774000    386.77912   -7234.2699    6353.3407   -774.75422   -2837.3718    12246.133  0.001519304  0.037423585    1.6324606 
 1776000    372.26356   -7233.4933    3192.2351    239.14596   -1053.7185    13864.301 0.0015170846  0.037408859    1.6325666 
 1778000    402.36441   -7234.4022    4583.7016     239.5874   -639.50759    10611.458 0.0015177652  0.037391937    1.6324614 
 1780000    436.69308   -7233.8138    3190.9924    22.095913   -3307.1631    11078.717 0.0015163209   0.03740763    1.6324833 
 1782000    380.10791   -7233.2119    3804.1517   -202.92638   -815.41548    12115.878 0.0015138723  0.037449864    1.6325451 
 1784000    380.46345   -7233.4138    4044.1549    1484.1791   -2887.9124      11449.1 0.0015137106  0.037439483    1.6324735 
 1786000    416.93986   -7234.4877    5074.6213   -1081.6767   -1299.7543    14588.854 0.0015126519  0.037435812    1.6324378 
 1788000    388.74125   -7233.4674    3857.8378      3155.74   -1469.4016    13952.079 0.0015300294  0.037428837    1.6324433 
 1790000    410.73987   -7234.2693     3536.375   -48.022598   -1026.3751     13683.92 0.0015356643  0.037416218    1.6325023 
 1792000     401.4347   -7233.0904    3697.5423   -502.42927   -921.17726    13742.774 0.0015343486  0.037421824    1.6327262 
 1794000    371.47343   -7233.2099    3618.5518   -192.34648   -2065.3914    12573.021 0.0015355987   0.03743506     1.632712 
 1796000    412.13583   -7233.4975    627.04804   -961.14145   -1358.6275    11899.865 0.0015344319  0.037460497    1.6326048 
 1798000    415.86305   -7233.5789    1487.9249    2681.1524    248.08397     11807.64 0.0015318068  0.037454643    1.6326067 
 1800000    398.08544   -7234.7592    2576.6271   -351.83085   -2591.2483    12543.338 0.0015363964  0.037458628    1.6327439 
 1802000    390.92117   -7234.6165    1557.8421   -2146.7546   -2409.3444    13139.053 0.0015333187  0.037455618    1.6327758 
 1804000    391.18469   -7232.6551    2801.3202   -588.60692     197.1693    11750.772 0.0015403633  0.037442004    1.6328228 
 1806000    411.62509   -7233.4055    3422.0305   -472.52997   -1955.0535    11788.087 0.0015458444  0.037412391     1.632733 
 1808000    394.43806   -7234.5181    4488.2663    2339.7746   -4885.5349    13412.564 0.0015495797  0.037423185    1.6327457 
 1810000    408.78769   -7233.7259     3775.058    1118.9051   -3026.2102    14197.862  0.001554359  0.037474799    1.6327387 
 1812000    390.76698   -7233.2705    6751.2834   -140.65786   -2660.5789    13675.049 0.0015569589  0.037465619    1.6328779 
 1814000    405.59522   -7233.0983    3029.8351    108.42142    -2438.144    11594.956 0.0015587167  0.037450412    1.6327728 
 1816000    379.50183   -7233.9687    5412.9434   -278.37119    377.07453    14328.261  0.001555539  0.037436651    1.6327284 
 1818000    385.46394   -7233.9296    3213.6412   -1454.6596   -4109.2877    14955.272 0.0015543099  0.037422465    1.6329353 
 1820000    395.09531   -7233.8915    1883.9083   -638.21473   -1059.9898    12141.768 0.0015524694  0.037439047    1.6330367 
 1822000    390.76152   -7234.1536    4854.0626   -174.11036   -4132.8072    12441.554   0.00155011  0.037449715    1.6329946 
 1824000    412.45306   -7233.9176    4577.3492   -73.786661    -2683.466    10911.453   0.00154838   0.03748934    1.6329206 
 1826000    379.93401   -7234.1251    4987.6567   -1461.1828   -393.49557    11762.331 0.0015554115  0.037502742    1.6328832 
 1828000    393.49822   -7235.8901    5706.7085   -228.16499   -2476.3986    10939.555 0.0015515643    0.0374792    1.6328363 
 1830000    386.31371   -7231.3029    1926.8992   -2077.1324   -2714.3788    13092.351 0.0015488443   0.03748265    1.6327677 
 1832000    376.84448   -7234.9421    3674.8814   -1996.7295   -1938.9617     11709.69 0.0015493941  0.037486489    1.6329471 
 1834000    427.80728   -7234.0034      1311.29   -475.10645    -1405.795    14596.299 0.0015497063   0.03748232    1.6329724 
 1836000    403.40656   -7234.2956     3643.224    185.73692   -4684.2802    9037.7129 0.0015510687  0.037483676     1.632943 
 1838000    399.32171   -7234.6055    4455.9784   -3084.1767   -3438.3781    12284.396  0.001550405  0.037505026     1.632674 
 1840000    400.62922   -7233.1027    2015.1666   -48.458084   -4353.6822    11403.673 0.0015488197  0.037534548    1.6326154 
 1842000    396.18452   -7233.9317    4698.0824   -1011.3599   -3551.3766     11891.19  0.001549323  0.037520914    1.6327648 
 1844000    412.92318   -7234.3339    2104.9245   -1698.8901    136.59446    11425.483 0.0015478389  0.037518102    1.6328714 
 1846000    416.04151   -7235.0197    2041.7134    2219.3135   -2722.7722    13570.767 0.0015455649  0.037502987    1.6328014 
 1848000    388.64548   -7230.5827    4053.6805   -118.70634   -1380.0956    14118.316   0.00154171   0.03749933    1.6329685 
 1850000    407.00452   -7233.5527    1340.9568     2521.719   -1533.1673    11588.174 0.0015457726  0.037494508    1.6329022 
 1852000    392.78532   -7234.6014     2055.484    434.50551   -3162.9932    12144.268 0.0015571833  0.037492954    1.6329831 
 1854000    384.79145   -7232.8913    3671.4806    945.53776   -1520.2979    11697.561 0.0015532751  0.037503908     1.633038 
 1856000    387.74864   -7234.0157    1775.1778    2012.9255   -4921.5674     9462.238 0.0015558044  0.037518902    1.6331031 
 1858000    387.30755   -7234.0571    2488.7738   -1652.9244    71.630685    14187.037 0.0015520935  0.037510293    1.6329145 
 1860000     396.5441   -7233.5512    4031.9972    3634.5226   -2313.6579    10845.995  0.001549757  0.037503164    1.6330572 
 1862000    402.51555   -7233.2831    3445.5675      990.419   -1994.4775    12287.615 0.0015519199  0.037508179    1.6330618 
 1864000    406.58429   -7233.8347    5529.1724   -2115.2586   -1213.7726     11417.38 0.0015540037  0.037497305    1.6330642 
 1866000    400.36388   -7233.3278    3440.4381    3362.3491   -2870.6466    11368.338 0.0015497093  0.037488329    1.6329911 
 1868000    433.84614   -7233.7123    3606.4539    456.37511    73.127617    11959.555 0.0015484781  0.037518261    1.6329944 
 1870000    398.34239   -7233.9164    5503.6756   -515.48388   -1916.2082    10337.265 0.0015498987  0.037531689     1.633157 
 1872000      415.712    -7234.098    2363.1207    953.63697   -2525.9625    12416.457 0.0015497359  0.037522091    1.6330538 
 1874000    438.88879   -7232.1226    5133.8047     3557.153   -315.84556    10005.834  0.001548478  0.037499915    1.6330104 
 1876000    385.59922   -7235.4452    3897.6716    1915.8266   -4260.8214    13347.017 0.0015523473   0.03749839    1.6329536 
 1878000    386.16252   -7233.1643    1562.6753    717.63197    -2702.757    13322.288  0.001551728  0.037525307    1.6329717 
 1880000    406.49388   -7234.0879    2836.1027   -1707.5285   -1220.5209    11607.321 0.0015559765  0.037529662    1.6330864 
 1882000    388.11682   -7233.9453     3921.081    1390.5864    69.291825     15492.92 0.0015544642  0.037572175    1.6330494 
 1884000    398.49564   -7234.8966    2969.8597    376.25451   -535.50203     13311.72 0.0015533087  0.037571873    1.6330756 
 1886000     378.7588   -7233.0969    1378.4979    2551.5311   -2507.3275    14627.952 0.0015520078  0.037558536    1.6330508 
 1888000    435.50814   -7234.1753    3762.1455    2012.1632   -1584.3312    12183.633 0.0015508403  0.037536903    1.6331262 
 1890000    397.37843   -7233.1657    153.98876    723.79142   -3463.0675    11679.189 0.0015497612  0.037542832    1.6331449 
 1892000    396.19027   -7233.5309     3416.257   -462.21605   -3265.0238    13264.852  0.001549332  0.037550604     1.633078 
 1894000     401.8708    -7234.838      4173.17   -1131.1278   -1628.5214    12180.081 0.0015473908  0.037545507    1.6331603 
 1896000    385.96599   -7234.8111    3964.6058   -2279.4369    1527.7273    11521.964 0.0015453925  0.037570802    1.6332251 
 1898000    400.98221   -7234.1847    6848.5532    651.42937   -410.11095    11272.957 0.0015439794  0.037576921    1.6332288 
 1900000    414.61072   -7234.5313    1026.3262    767.13401    371.24897    13971.131  0.001558039  0.037567715    1.6331818 
 1902000    387.68622   -7234.3835    3482.3906    1481.4487   -827.57247    12850.161 0.0015561147  0.037572948    1.6334121 
 1904000    420.66581   -7233.0525    5033.4314   -188.71622   -312.92647    14109.251 0.0015522621  0.037574445    1.6334228 
 1906000    380.10578   -7232.6635    1433.8284    1461.3938   -341.29949     12089.55 0.0015517419  0.037558531    1.6332788 
 1908000    367.54057   -7234.0698    1777.1845    2770.4183   -4916.3096    13413.885 0.0015619067  0.037578547    1.6332013 
 1910000     391.8958   -7235.4415    4231.5518   -164.63821    -1227.555    11799.147 0.0015642504  0.037580322    1.6333381 
 1912000    393.97963   -7234.6862    2881.0664    1214.9967   -2809.2669    14002.907 0.0015620199  0.037578294    1.6334295 
 1914000     386.0637   -7233.2841    3775.7928    321.56651   -267.33196    14504.422 0.0015586016  0.037557617    1.6334495 
 1916000    400.30672   -7234.4869    2016.1671    1667.3475   -1420.0964    12579.785  0.001558978  0.037520426    1.6334709 
 1918000    368.02667   -7234.5563    3973.2529    766.68189   -4771.0748    13670.322 0.0015599888  0.037538276    1.6335386 
 1920000    408.52151   -7233.5903    4963.3471   -258.89358   -1137.7493     12534.08 0.0015632846  0.037571263    1.6336142 
 1922000    392.32818   -7232.5316    5251.9896   -1292.1452   -3187.1606    11842.789 0.0015714006  0.037566824    1.6337746 
 1924000    413.41897   -7234.2728    4592.6545     1122.656   -2027.0527    13348.163 0.0015779825  0.037562123      1.63372 
 1926000    406.57559    -7233.697     2634.977   -477.62504    -738.0498    12352.881 0.0015754641  0.037591859    1.6337842 
 1928000    373.98924   -7233.1058     3724.179   -420.17571    1427.5276    15386.526  0.001580502  0.037595855    1.6337937 
 1930000    405.20423   -7232.1152    3030.6742    -1814.049   -375.23429    9692.8931 0.0015958951   0.03757022    1.6340944 
 1932000    420.75735   -7233.2537    4786.1972    622.17319    372.11581    12963.047 0.0016053109  0.037531917    1.6339432 
 1934000    382.21823   -7233.3443    3860.0611    269.83245   -2347.9124    12839.249 0.0016036654  0.037536173    1.6340077 
 1936000    401.26164   -7233.8933     2227.497   -495.37847   -1817.3912    11899.194 0.0016079374  0.037560584    1.6340834 
 1938000    374.29928   -7234.2784    1141.7153    939.59543   -1238.8354    12011.258 0.0016105664  0.037544115    1.6341565 
 1940000    394.18237   -7234.3179    2799.2038    31.728901   -1764.2971    12266.912 0.0016174678  0.037544702     1.634178 
 1942000    379.06184   -7234.5665    1406.3437      2290.97   -147.25244    13256.905 0.0016181294  0.037545749    1.6342022 
 1944000    427.73763   -7233.1862    1900.2267   -1670.4905   -20.270957     13778.87 0.0016157035  0.037542749    1.6343898 
 1946000    410.36601    -7233.674     686.3787    403.33364    54.548025    12317.817 0.0016237956  0.037525734    1.6345073 
 1948000    387.30148   -7234.6447    2728.9035   -647.93424   -2779.4894    14028.796 0.0016255484  0.037518513    1.6344392 
 1950000    380.18369     -7233.82    3530.0729    467.25056   -972.33898    10721.899 0.0016370105  0.037532248    1.6344296 
 1952000    420.08554     -7232.86    4291.2347    -1538.435   -1948.7041    13315.105  0.001639993  0.037549375    1.6345292 
 1954000    373.20726    -7234.121    6693.2145   -1442.5302   -1249.1904     11529.83 0.0016437736  0.037538823    1.6345581 
 1956000     403.0847   -7233.6486    5947.1245    873.04303   -3862.0791    11325.491 0.0016500585  0.037523962    1.6346325 
 1958000    415.96666   -7232.6089    6453.8236     1404.467    1296.7298     9653.125 0.0016502166  0.037530735    1.6346786 
 1960000    386.92091   -7234.6831    4946.6778   -336.62425   -2842.0867    13253.651 0.0016525864  0.037517339    1.6347226 
 1962000    400.86703   -7233.9635    4794.0931   -2364.6654    1608.8615    12836.543 0.0016557342  0.037508221    1.6347694 
 1964000    401.50425    -7234.808    2772.8072   -2171.8406   -666.46787    14256.145 0.0016551758  0.037504455    1.6349632 
 1966000    399.53889   -7233.5356    4250.2297   -1825.6845   -509.39852    14455.695 0.0016602966  0.037504421    1.6351785 
 1968000    413.49242   -7235.7952    2331.8158   -766.35083   -1336.4716    11660.444 0.0016608918   0.03748579    1.6350443 
 1970000    406.34349   -7234.8931     2476.232   -526.42734   -3272.9858    13819.538 0.0016579757  0.037487565    1.6351849 
 1972000    399.87096   -7233.1215    3095.5785   -3617.6448   -2763.4392    11505.244  0.001665177  0.037469033    1.6354452 
 1974000    376.11165    -7234.063    5079.7631    522.80462   -1774.1126    11457.534 0.0016637885   0.03748738    1.6353185 
 1976000    385.11492   -7233.2222    3729.8306   -2265.1373   -4226.3836    12486.193 0.0016847956  0.037504173    1.6352146 
 1978000    414.12019   -7233.5296    4640.7112    553.47072    -2306.332    12225.739 0.0016882853  0.037508479    1.6353616 
 1980000    374.57334   -7235.3938    3841.0676    591.84324   -2492.8944    13019.113 0.0016899827  0.037511202    1.6354714 
 1982000    408.43963   -7232.5684    1645.5086   -2321.7538   -2446.6986    11836.708 0.0016915639  0.037518644     1.635607 
 1984000    402.46229   -7235.2753    1921.2697   -179.30616   -327.99732    12887.224 0.0016952769  0.037516347    1.6356163 
 1986000    413.90834   -7233.1946    2549.1486   -1573.6094   -2314.4253    13090.075 0.0016976376  0.037482952    1.6357094 
 1988000    423.77746   -7233.6381    2077.4259   -950.98026   -709.00259    12842.082 0.0016970345  0.037495003    1.6356344 
 1990000     396.3517   -7233.6138    1212.8585    1011.8912   -2558.9793    14164.666  0.001696808  0.037508656    1.6357308 
 1992000    390.21656   -7233.4212    1134.2719   -1280.0785   -1380.4178     13626.97 0.0017099813   0.03749175    1.6358808 
 1994000    389.91117   -7234.1521    585.80849   -198.40497   -2351.3871    11747.534 0.0016997168  0.037500433    1.6357761 
 1996000    393.95015   -7233.8687    1557.1394    680.08877   -2735.8188      16683.3 0.0017040983  0.037496154    1.6358439 
 1998000    404.54291   -7234.7274    3486.7234   -54.940692   -2225.7235    13320.748  0.001700945  0.037487072    1.6360468 
 2000000    402.63202   -7234.6246    1043.7703   -464.32842   -235.26395    12468.894 0.0016994024  0.037474026    1.6361947 
 2002000    392.63095   -7234.3243    4070.7646   -186.41446   -4301.5985    12831.346 0.0017115259  0.037449658    1.6361129 
 2004000    401.23425   -7234.1118    3330.0892   -1084.8397   -2599.7251    9832.6187 0.0017169732  0.037458147    1.6363206 
 2006000    397.18708   -7235.4142    3121.9573    1579.2985   -4254.9954    8562.0932 0.0017166522  0.037468093    1.6363719 
 2008000    420.49032    -7233.374    2586.5127   -1807.3532   -3165.5719    10919.333 0.0017153537   0.03748922    1.6363123 
 2010000    404.06704   -7234.1214    4778.6176   -2493.4037   -1274.7432    10673.159 0.0017201139  0.037474319    1.6364292 
 2012000      405.871   -7234.6049    3244.9653   -4040.3394   -3119.7464    10168.817 0.0017230503   0.03746528    1.6364784 
 2014000    407.20413   -7234.1326     6017.172   -241.78136   -1177.3498    11526.035 0.0017306649  0.037467373    1.6366035 
 2016000    410.19782   -7233.2294    4811.2776   -934.42545    68.893826    13002.492 0.0017332928  0.037458245    1.6366429 
 2018000    393.33995   -7233.8608     3894.083   -3048.2026   -2203.9569    13656.439 0.0017358754  0.037446298    1.6367576 
 2020000    378.64544     -7233.72    4337.9006   -240.16975   -733.17543    10396.213 0.0017401673  0.037454148    1.6369003 
 2022000    391.18836   -7234.9485     2760.964   -2095.6242   -2321.3805    13165.679 0.0017456991  0.037480708    1.6368143 
 2024000    349.28939   -7233.9769    3490.8075   -193.89744   -2649.0884    13984.305 0.0017455109  0.037474958    1.6369308 
 2026000     404.5591   -7234.1076    2016.0439     667.1443   -968.90704    12297.651 0.0017493381  0.037461044    1.6368725 
 2028000     388.2521   -7232.8057    1908.3176   -3395.9026     -2544.17    13445.257 0.0017465776  0.037456838    1.6370087 
 2030000    400.82814   -7232.6275    1326.3549   -1610.6053    349.46948    11026.685 0.0017573979  0.037448165     1.637186 
 2032000    380.09816   -7233.1324    1048.8329   -1376.9931   -1200.5368    13120.342 0.0017645916  0.037451615    1.6370441 
 2034000    423.44345   -7233.0109    3960.0708   -64.483346   -2707.0732    12588.963 0.0017743415  0.037425628    1.6372496 
 2036000      401.898   -7235.2852    2771.5658   -799.47653   -1299.1152    12854.837 0.0017710797  0.037425756    1.6373372 
 2038000    363.74668   -7233.9454    3672.4243   -458.62227   -2817.4212    11985.313 0.0017738874  0.037454277    1.6374365 
 2040000    411.27083   -7235.5679    4058.4831    491.24719    567.35037    10523.362 0.0017849195  0.037446111    1.6374508 
 2042000    351.39387   -7232.5691    2520.7718    448.80695   -2200.1677     13913.26 0.0017812764  0.037449049    1.6374678 
 2044000    410.26768   -7234.6178    3387.6085    -1841.744   -460.94084    13432.872 0.0017973561  0.037447924    1.6375278 
 2046000    388.21562   -7233.3947    5670.7959    265.38217    2.0180526    13690.908 0.0018060508  0.037441175    1.6376555 
 2048000    403.62305   -7233.7185   -104.10918   -784.10151   -3843.0587    12824.823 0.0018038346  0.037455834    1.6377113 
 2050000    421.11966   -7233.4336    4237.0538   -4185.6765   -142.31832    14215.114 0.0018033933  0.037454736    1.6378914 
 2052000    408.66773   -7232.3707    3730.9715   -475.12711   -2491.4294    10420.792 0.0018050294  0.037430421    1.6379391 
 2054000    376.34439   -7233.4418    4402.2888   -611.13083   -1400.0208    12193.753 0.0018051049  0.037431177     1.637862 
 2056000    394.74175   -7234.9958    4745.3301    466.04686    -2577.158    12888.474 0.0018038037  0.037415229     1.637845 
 2058000    395.13004   -7234.3553    1096.3885   -1878.3006   -2740.9664    10378.005 0.0018041791  0.037411597    1.6380162 
 2060000    419.81537   -7232.9726    4899.9538    288.77054   -1979.2227    11756.536 0.0018174004  0.037417062    1.6380251 
 2062000     393.7971   -7235.2972     3677.994   -2116.9785   -207.71792    12780.063 0.0018218587  0.037423396    1.6380113 
 2064000    411.48898   -7234.7028    5115.1579   -3072.3866   -1092.9251    12493.659 0.0018353546  0.037406353    1.6382286 
 2066000    397.81904   -7234.9415    2746.7386   -99.924108   -2948.6189    10923.378  0.001837729   0.03739566    1.6383125 
 2068000    412.43874   -7234.9585     1774.114   -2515.4821   -310.39865      12817.9 0.0018377529  0.037389895    1.6383691 
 2070000      387.834   -7233.9467    4102.0029   -1252.3801   -2331.7592    15055.566 0.0018413835  0.037398948    1.6381104 
 2072000    389.47877   -7234.6084    4627.7718   -2855.2387   -3348.1777    14399.636 0.0018538682  0.037394261    1.6382941 
 2074000    438.79581    -7234.674    3903.1002   -641.36949   -1385.4828    15579.749 0.0018651962  0.037401304    1.6383489 
 2076000    399.98841   -7234.3775    4864.9878   -303.27535   -2526.6839    13957.897 0.0018703084  0.037400089    1.6385183 
 2078000     385.8141   -7234.2147    3863.0414   -1050.5017   -2166.0028      15041.7 0.0018795525  0.037407994    1.6386345 
 2080000    409.25964   -7233.7757    5257.6031    2441.8872    280.49201    13327.794 0.0018781495  0.037399043    1.6386061 
 2082000    427.82943    -7233.272     4306.488    869.54518   -3281.4366    13865.732 0.0018766581  0.037378972    1.6385437 
 2084000    422.92987    -7234.667    3713.2178    331.15615   -880.39918    14592.522  0.001876441  0.037390864    1.6386646 
 2086000    424.18812   -7235.2613     5354.096   -1693.3019   -1105.8266    12031.551 0.0018740889  0.037400247    1.6387396 
 2088000    404.41867    -7233.629    3619.3068   -3522.3406   -1324.7153    11300.025 0.0018809392   0.03737318    1.6389195 
 2090000    404.49782    -7234.735    3897.2295   -2835.3677   -1516.2794    12597.494 0.0018832037  0.037362321    1.6389039 
 2092000    431.31363   -7233.2534     4367.797   -1873.0301   -463.40391    12883.104 0.0018952613  0.037383056    1.6389629 
 2094000    425.76842   -7235.0322     2795.491    304.40653   -2994.5698    11859.841 0.0018956601  0.037370492    1.6390383 
 2096000    403.70204   -7233.3908    8524.7475   -867.59837   -1291.7582    10806.259 0.0018922675  0.037373048    1.6390319 
 2098000    392.12564   -7233.8291    5647.7425   -2429.0058   -3396.8662    12804.928 0.0018962308  0.037381051    1.6390568 
 2100000    417.95846    -7233.467     4052.569   -569.82096   -994.56723    13374.468 0.0018985064  0.037382986    1.6391314 
 2102000    389.90511   -7234.3837    3342.6132   -4017.9375   -2313.4212    12974.775 0.0019144089  0.037366072    1.6391994 
 2104000    392.12345   -7233.0187    2244.5516    484.43724   -1866.1709    13090.297 0.0019313833  0.037352705    1.6391275 
 2106000    392.46089   -7233.6159    3215.5714   -641.43056    722.28591    15673.565 0.0019341954   0.03735456    1.6393208 
 2108000    402.31693   -7232.2343    3848.7123   -705.09744   -4129.5601    12684.139 0.0019367519  0.037336389     1.639568 
 2110000    373.43725   -7233.1525    2782.3406    720.15481    -979.2222     12422.47 0.0019357392  0.037333867    1.6392913 
 2112000    393.02512   -7233.8334    2870.9871   -1379.2769   -3109.5828    15204.804 0.0019337247  0.037328737    1.6392204 
 2114000    391.13815   -7232.8999    1442.3282   -2458.0761   -2216.3957    15415.608  0.001953292  0.037344469      1.63957 
 2116000     392.7804    -7233.986    2562.9739   -439.32843   -2145.0437    12989.404 0.0019666061  0.037349605    1.6396611 
 2118000    381.81899   -7234.2949     4106.597   -2499.2705   -1278.8256    12970.935 0.0019652605  0.037335563    1.6396609 
 2120000    390.45301    -7232.921    2923.5258    -2819.016    251.07735    13507.834 0.0019775229  0.037321153    1.6398188 
 2122000    404.77169   -7234.5911    5239.4586     4146.902   -1096.0536     12624.62 0.0019906916  0.037290344    1.6398184 
 2124000    396.32185   -7232.9115    2766.9524    1094.4337   -2487.0462    15120.277 0.0019893536  0.037297501    1.6397105 
 2126000    388.52401   -7233.2498    3393.4767    631.53607   -1826.1715    12949.769 0.0019880751  0.037302333      1.63981 
 2128000    448.46988   -7236.0227    4522.8823    80.092168    -2729.428    12510.686 0.0019964171  0.037295903    1.6399955 
 2130000    409.60262   -7234.4489    4377.8462    345.82695   -2475.3143    10651.573 0.0020054828  0.037301534    1.6398726 
 2132000    398.37944   -7232.7182    5146.1425   -807.61137   -2599.4261     10597.57 0.0020102871  0.037276476    1.6399211 
 2134000    407.77518   -7233.8391    6116.7631    2088.1704   -463.69906    14167.234 0.0020169779  0.037268174    1.6398983 
 2136000    395.94314   -7234.2345    4437.3312   -538.26783   -1886.4124    11739.605 0.0020163636  0.037277273    1.6402478 
 2138000    397.30903   -7234.3801    5493.0999    286.65088   -1634.9352    12343.263 0.0020149239  0.037286409     1.640275 
 2140000    398.68248   -7233.2277    4142.3508   -2350.5651   -2511.9074    13808.166 0.0020255835  0.037282696    1.6403498 
 2142000    394.87085   -7232.6067    4981.5765    -289.7763     -1392.24    10275.212 0.0020308847  0.037269576    1.6403913 
 2144000    400.39689   -7232.4314    6441.3376   -1878.4431   -1823.7088    13750.266   0.00202857  0.037280363    1.6402905 
 2146000    428.90215    -7232.945    2836.2206   -3493.8001   -245.86461    12773.657 0.0020302782  0.037256043    1.6404691 
 2148000    384.56829   -7232.4699    3333.6557   -297.40608   -938.98315    14365.821 0.0020384412   0.03724204    1.6406045 
 2150000    385.26862   -7233.4033    3182.9908   -3166.9984   -285.94486    12984.246 0.0020345939  0.037259223    1.6406945 
 2152000    393.78343   -7232.0074    5914.9411   -2741.8528   -2674.5591     15985.26 0.0020498592  0.037266267    1.6407118 
 2154000    363.49982   -7232.6286    2081.4456   -592.76478   -1781.3333    13755.005 0.0020564845   0.03724971    1.6408216 
 2156000    402.35097   -7233.0721    4198.7448   -2633.5368   -2717.7246    13372.504 0.0020581435  0.037269152    1.6409009 
 2158000    379.27997     -7232.83    4218.1275   -1652.6329   -1612.6475     10983.37 0.0020595252  0.037282044    1.6409277 
 2160000    394.15852    -7233.236    3650.5142   -1963.6164   -795.26275    13049.454 0.0020682335  0.037277905    1.6407877 
 2162000    373.99043   -7232.3179    4144.6949   -1085.7412   -1187.0356    11708.641 0.0020676873  0.037274603    1.6408874 
 2164000    419.46851   -7233.8737    2020.2219   -2903.1385    231.99187    12078.586  0.002071238  0.037270827    1.6409735 
 2166000    413.66047   -7233.9964    3667.5753   -3231.8958   -2189.3445    10849.041 0.0021001779   0.03725491    1.6409973 
 2168000    437.97261   -7233.7315    2622.0854   -1927.6532    107.96711    13360.223 0.0021062663  0.037262922    1.6410958 
 2170000    418.27428   -7234.1021    967.01936    1661.5278   -1197.1289    10304.126 0.0021083934  0.037270065    1.6410482 
 2172000    397.64996   -7235.3714    2865.5707   -2077.0436   -1324.3153    13822.159 0.0021069208  0.037266876    1.6410439 
 2174000    385.81562   -7233.8258    3290.0185   -2988.0865   -2610.3254    11821.674 0.0021172942  0.037241028    1.6413496 
 2176000    392.39221   -7233.8857    2918.7146    -677.7732   -305.07855    12809.642 0.0021262351   0.03729472    1.6413921 
 2178000    362.81406   -7234.5237    2946.4381    376.92342   -1425.7794    14139.877 0.0021372952  0.037275282    1.6413839 
 2180000    409.56655   -7233.6894    2919.8092    1066.4595   -2373.0071    13931.771 0.0021437808  0.037266002    1.6415217 
 2182000    361.04888   -7233.3991    6577.5821   -290.88616   -2675.6172    12464.538 0.0021423119   0.03727359    1.6416744 
 2184000    425.12082   -7234.5042    5104.2861   -2185.8877   -1523.4837    10327.725 0.0021412728  0.037268675    1.6416302 
 2186000     385.9391    -7232.739    5618.1895     3023.608   -164.36128    12517.627 0.0021395678  0.037254311    1.6415413 
 2188000    424.89502   -7234.8711    5919.6712   -2298.7255   -2462.4336    12131.548 0.0021421281  0.037252955    1.6417722 
 2190000    386.86413   -7232.8706    5925.8508    1486.5242   -824.48877    12208.891 0.0021513748  0.037243889    1.6417151 
 2192000    393.99247   -7233.5457    7126.8486   -1555.2509   -2221.6322    13520.356 0.0021492398  0.037244915    1.6418882 
 2194000    387.30734   -7233.0904    4653.3699   -2823.5122   -1893.0312     13681.67 0.0021665742  0.037249611    1.6419559 
 2196000    406.31206    -7233.505    3529.9068    861.64753    137.09769    11283.928 0.0021777969  0.037230515    1.6418999 
 2198000    402.32463   -7232.8275    4139.4638   -1229.3372    1376.2511     14952.27 0.0021787265  0.037234912    1.6420131 
 2200000    422.54579   -7235.4508    1038.2492    -1548.384    980.98323    11682.771 0.0021772156  0.037223672    1.6421853 
 2202000    375.36855   -7235.5509    2030.9277   -697.96667    1701.2207    14546.912 0.0021801258  0.037229328    1.6422139 
 2204000    407.09027   -7235.6422    1335.1775   -359.42186    -3495.356    11222.064 0.0021838124  0.037224258    1.6421937 
 2206000      423.387   -7233.3858   -141.57304   -734.86919   -1279.4148    14231.241 0.0022017339  0.037216725    1.6423423 
 2208000     388.0786   -7232.8658     4377.693   -2361.2769   -2594.4521    13105.789 0.0021989708  0.037225171    1.6424952 
 2210000    417.48149   -7233.4311    1869.8912   -506.15612   -2754.8425    11303.512 0.0022018554  0.037204983    1.6426522 
 2212000     385.8138   -7234.1872    3633.6773    1947.9479   -2375.8728    9693.6642 0.0022009074  0.037193428    1.6426106 
 2214000    387.33105    -7232.497    3047.9918   -776.58795   -2937.7557    9511.3119 0.0021990636  0.037196095    1.6425309 
 2216000    388.91694   -7232.4464    1880.3815   -1588.8589   -2353.5677    12914.802  0.002205589  0.037193319    1.6424775 
 2218000     394.3309    -7234.248    4360.1438    868.05479   -1326.9232    12920.771 0.0022109889  0.037198221    1.6426122 
 2220000    387.95002   -7233.2483    4958.7736   -1584.0489   -4726.0284    11817.245 0.0022106525  0.037206518    1.6428121 
 2222000    389.79037   -7231.8742    3925.1428   -1847.2647   -3438.8674    11271.037  0.002212367  0.037205808    1.6427659 
 2224000    412.07427   -7234.4743    5141.1994   -930.59788   -2208.2512    12575.993 0.0022224172  0.037195041    1.6428474 
 2226000     416.7141   -7233.3782    1832.7087    -1193.193   -625.28236    15369.403  0.002229442  0.037182907    1.6428699 
 2228000    382.07151   -7232.1044    4352.0545    836.66586   -2242.9339    14644.997 0.0022308626  0.037178387    1.6429855 
 2230000    412.74725   -7232.4771    5503.4439    866.45893   -1908.5645    15376.599 0.0022278728   0.03718504    1.6432408 
 2232000    420.52151   -7233.0508    1335.7646   -1098.2377    -1483.582    12323.387 0.0022292471  0.037178393    1.6432154 
 2234000     396.2966   -7232.5328     5081.467   -434.32152   -2326.7286    15370.581 0.0022242983   0.03717487    1.6431659 
 2236000    414.35521   -7234.2186    1123.8532   -1026.6972    536.04418    13055.943 0.0022275386   0.03717389     1.643442 
 2238000    394.69091   -7234.6972    643.61885    -651.0413   -9.9831305    13459.942 0.0022323881  0.037153119     1.643501 
 2240000    395.87767   -7232.2282    1668.1439   -127.55395   -2722.5688    11228.939  0.002245817  0.037169535     1.643734 
 2242000    392.14248   -7233.3177   -352.83708     -1880.13   -4751.2499     11701.29 0.0022535371  0.037184855    1.6437036 
 2244000    378.75957   -7234.2263    4006.0197   -847.66223   -149.64372    10905.783 0.0022558569  0.037170839    1.6436514 
 2246000    404.27802    -7233.738    767.80169   -1647.2611   -4064.1648    11949.422 0.0022531767   0.03717882    1.6435806 
 2248000    375.57389   -7235.7667   -268.07432   -123.77316   -3745.8019     10253.06 0.0022517849  0.037174136     1.643846 
 2250000    406.85172   -7232.6062    1212.0375   -2379.1571    624.84015    12319.366 0.0022527915   0.03716283     1.643988 
 2252000    410.42353   -7234.4079    1520.4204    578.24517   -3379.5715    9814.0811 0.0022655656  0.037151847    1.6439802 
 2254000    415.22736     -7235.31    1055.8883   -1418.9067    -785.0544    11024.534 0.0022682397  0.037149682    1.6439507 
 2256000    380.79713   -7232.7322    3992.3117    2753.3731     11.51876    11707.615 0.0022690416  0.037130952    1.6441099 
 2258000    373.67214   -7233.2446    5298.5173    190.89201   -3900.6045    10437.319 0.0022688404  0.037131671    1.6442314 
 2260000    389.07605   -7234.1207    1951.3529    1458.3403   -3893.1698    13619.951  0.002273586   0.03716077    1.6442475 
 2262000    382.05987   -7234.7816     5591.286    869.33323   -2676.7313    12080.318 0.0022729327  0.037164613    1.6441756 
 2264000    418.36402   -7233.2029    2926.8251    887.69079   -1932.1328    14238.349 0.0022797825  0.037154014    1.6442616 
 2266000    402.95545   -7234.7714    5968.8663    441.39541   -1466.3988    14838.894 0.0022868686  0.037147423    1.6444095 
 2268000    389.29144   -7234.0729    3533.2114     -506.769   -2508.7757    15408.921 0.0022967783  0.037146968    1.6445555 
 2270000    422.05802    -7233.621    5756.8112   -317.51802   -348.86218    13291.611 0.0022977687  0.037130587     1.644693 
 2272000    373.08038   -7233.6864    7478.5989   -381.61354    -2341.156    13802.389  0.002296342  0.037148654    1.6444973 
 2274000    375.78391    -7233.788    3886.3157   -377.91931   -788.84096    12653.538 0.0022957647  0.037161873    1.6444475 
 2276000    385.28937   -7235.5634    3916.2876   -418.84093   -1489.2517    12932.399 0.0022964284  0.037161391      1.64462 
 2278000    390.83497   -7233.8252    4176.3598   -1561.2206   -2742.7037    11867.143 0.0023005934  0.037167343     1.644763 
 2280000     406.7999   -7232.3865    3265.5261   -2644.2403    242.30493    11616.847  0.002312096  0.037139781    1.6447013 
 2282000    387.50241   -7233.5112    4084.3521   -468.25131   -108.09652    13232.234 0.0023120322  0.037114933    1.6445254 
 2284000    387.38216   -7233.7997    1388.2836   -1401.1981   -354.31681    12784.746 0.0023109251  0.037114056    1.6448396 
 2286000    403.69593   -7233.6532    1662.8606    509.07139    -937.5015    11759.134 0.0023115367  0.037117058    1.6449879 
 2288000    396.66183   -7233.9418    2685.9826   -3649.4959   -2247.7978    12300.601 0.0023158077   0.03714535    1.6448987 
 2290000    418.85099   -7233.7207    804.59244    1616.6448   -3636.3577    13505.395 0.0023492526  0.037141422    1.6450633 
 2292000    382.88641   -7231.7368    3563.0997   -1960.3679    655.14738    11796.692 0.0023461489  0.037150329    1.6448781 
 2294000    397.43173    -7235.141    1940.9071    -836.6764   -3288.2123     13324.27 0.0023446722  0.037144397    1.6448814 
 2296000    406.79254   -7234.1086    5213.1776   -1078.9508   -1467.9179     13367.17 0.0023460501  0.037149324    1.6450294 
 2298000    387.87941   -7232.7606    2509.8492   -1601.5762   -2542.5158    11615.644 0.0023542711  0.037128782    1.6451256 
 2300000    426.23492   -7234.0268    3445.3936    1037.1063   -4444.9726    13387.217 0.0023731855  0.037135665    1.6451723 
 2302000    414.90787   -7233.4486    4759.3529   -1732.6594   -3526.9542    14760.734 0.0023680596  0.037137755    1.6451443 
 2304000    404.22751   -7233.0564    4588.3215    -1033.842   -4131.0458    12981.601 0.0023656497  0.037133361    1.6451958 
 2306000    385.34497   -7231.5556    4790.6312   -1057.8022   -1848.5259    11650.281  0.002367845  0.037132963    1.6451892 
 2308000    401.78148   -7234.4589    4625.4734   -3075.9049    31.966897    11372.219 0.0023703235  0.037119514    1.6452114 
 2310000     414.1696   -7234.8203    2950.1237   -2381.7907   -1786.0441    11865.548 0.0023912206  0.037094766    1.6451749 
 2312000    413.09459   -7235.1104    5071.3115   -2898.3542    427.11621    12798.256  0.002393678  0.037096864    1.6451841 
 2314000    373.28009   -7233.4232    4994.9738   -2710.1279   -892.39978    12406.242 0.0023939779  0.037117868    1.6452786 
 2316000     355.0912   -7233.9671    2807.8633   -2312.1296   -629.31025    12625.563 0.0024009829  0.037112781    1.6452545 
 2318000    409.01928   -7233.5276    5168.7169   -379.50569    757.14132    10316.647 0.0024039642  0.037105444     1.645344 
 2320000    405.47955   -7232.7531    2425.6974   -1899.2965    685.12393    11016.218 0.0024008756  0.037117288    1.6454009 
 2322000    399.93917   -7232.0639    4534.2838   -2162.2572    3395.6359    10511.269 0.0023997355  0.037096826    1.6453367 
 2324000    401.35895   -7233.5908    2035.6414   -1780.1131    1216.3854     11737.95 0.0024092206   0.03709594    1.6453398 
 2326000    385.67558    -7234.645    3038.1921   -123.08966    545.20237    10891.658 0.0024189204  0.037079922    1.6454873 
 2328000    387.38444    -7233.985    3187.3275   -4218.7252    215.04875     10111.34 0.0024144032  0.037080827      1.64548 
 2330000     405.6286   -7232.8015    5016.8728     2026.897   -173.91601    11374.615  0.002417387  0.037085507    1.6454742 
 2332000     392.7145   -7234.7135    3495.2496   -694.86348   -525.19447    12298.163 0.0024163838  0.037085316    1.6456286 
 2334000    382.23192   -7233.7741    3376.0471   -1059.0747   -695.41449    11954.539 0.0024129826   0.03707743    1.6455201 
 2336000    394.53708   -7234.5633    3158.6966    238.79557   -3508.8567    14966.011 0.0024127329  0.037059852    1.6455564 
 2338000     405.5586   -7233.0231    2964.0701   -1496.9349   -867.31164    12988.552 0.0024149872   0.03704994    1.6457307 
 2340000    390.62685   -7233.5186    2526.6642   -1105.9947   -1241.0264    14381.616 0.0024169419  0.037039766    1.6457444 
 2342000    366.85961   -7233.8769    2793.2345   -1212.1629   -2146.5568    15609.818 0.0024285144  0.037037405     1.645971 
 2344000    393.55826   -7233.8318    3865.8389    2462.1766   -1424.5995    11785.924 0.0024399524  0.037044981    1.6460903 
 2346000    396.23522   -7233.6917    4661.1731   -3159.7877   -3290.7767    14837.844 0.0024350975  0.037039714    1.6458544 
 2348000    384.63596   -7232.8168    6540.9638    849.88388   -1222.7218     14799.94 0.0024325119  0.037057241     1.646003 
 2350000    416.00181   -7233.6088    5345.5774    -619.5379   -2436.0201     12881.84 0.0024264142  0.037067484    1.6461503 
 2352000    384.72776   -7234.0561    4197.9561   -1373.6257   -927.91668    11336.027 0.0024288174  0.037045921    1.6462057 
 2354000    421.89899   -7233.4529    2411.0619    902.31367   -1215.1761    13215.595 0.0024387184  0.037037523    1.6460418 
 2356000    414.65328   -7232.6781    4303.6148   -1219.8185     205.0394    14905.224 0.0024406137  0.037040303    1.6462052 
 2358000    377.51667   -7232.5092    3470.2559   -2280.1642   -1676.3671    10921.192 0.0024459112  0.037035648    1.6462609 
 2360000    424.61718   -7233.1107    1346.1328   -989.25754   -971.89239     14232.59  0.002445325  0.037036011    1.6461915 
 2362000    412.98924   -7233.1486    3024.7101    59.516054   -1024.3347    14922.586 0.0024475648  0.037041222    1.6463785 
 2364000    390.61952   -7233.0058   -73.082847   -1387.1443    -1765.462    13102.627  0.002447082  0.037042298     1.646464 
 2366000    385.14566   -7233.4613    3627.0628    261.18777   -2141.2838    15116.729 0.0024474313  0.037026242    1.6463698 
 2368000    383.88686   -7232.4024    5180.2028   -1495.4996   -638.52444    12038.833 0.0024472372  0.037030971    1.6465433 
 2370000    370.80268   -7233.7001    6179.8575   -1694.5253    103.77042    13448.021 0.0024540809  0.037014097    1.6465708 
 2372000    394.37793   -7233.6924    5404.1706   -401.48636     -426.228    13061.213 0.0024565106  0.036989829    1.6465879 
 2374000    379.89473   -7233.3741    6442.1817   -792.97251    1027.4986    13795.515 0.0024559998  0.036994741    1.6467002 
 2376000    423.21427   -7232.9316    5021.0669    -2826.385   -2694.3991    11473.947 0.0024570127  0.036992027    1.6468059 
 2378000    394.78807   -7232.8717    3359.9053   -1934.8563    -3465.445    12875.708  0.002463496  0.036988374    1.6466567 
 2380000    404.35166   -7234.4791    3636.5983    324.99369   -2081.3013    11190.523 0.0024649334   0.03701947    1.6469026 
 2382000    404.12236   -7234.1813     4494.523   -1376.1774   -1805.3386    12271.225 0.0024615597  0.037019756    1.6468426 
 2384000    390.53581   -7234.1909    4377.9464   -1553.5225     485.8487    14749.584 0.0024758596   0.03701383    1.6469857 
 2386000    407.79145   -7233.8961    2503.7932   -1663.6249   -1619.0513    11706.395 0.0024729994  0.037014847    1.6472145 
 2388000    417.75657   -7232.4647    3951.6579    -705.9148   -3234.2024    10571.933 0.0024716099  0.037010304    1.6470443 
 2390000     402.2638   -7233.6226    5191.8631   -2564.8492   -1626.8597    13484.172 0.0024854799  0.037001624    1.6470226 
 2392000    402.83581   -7233.8085    2443.0041    2349.4049   -2016.7876    9654.3877 0.0024867933  0.037005176    1.6473034 
 2394000    397.00206   -7234.8142    3292.5872    239.69619   -3185.0206    13652.513 0.0024846982  0.037011818    1.6472136 
 2396000    403.45382    -7234.328    3646.4653    867.03922   -415.23082    12547.309 0.0024822673  0.037011583    1.6471838 
 2398000    391.51381   -7233.6698    2865.3165     1043.732   -2071.2697    14033.377 0.0024809714  0.037012719    1.6471897 
 2400000    446.57137   -7234.4176    2476.7488   -1510.6025    1906.5459    12289.089 0.0024860904   0.03699693    1.6472011 
 2402000     396.0842   -7233.2876         3078    676.77273    507.57644    12423.232 0.0024951601  0.036988862    1.6472872 
 2404000    406.84208   -7234.4758    933.85502   -846.20799   -2506.5966    12765.865 0.0025115465  0.036989956    1.6475323 
 2406000    389.23961   -7233.1171    3100.5379    2063.9107   -693.10864    10586.919  0.002515469  0.036982906    1.6475485 
 2408000    388.92009   -7233.0343    2702.9771   -959.89481   -3558.4843    9016.6392 0.0025124865  0.037010276    1.6474995 
 2410000    391.14954    -7233.907    2141.8745   -739.36336   -2269.6919    9794.5952 0.0025174962   0.03703353    1.6474268 
 2412000    408.34304   -7234.6515    1053.3449    746.59927   -21.254405    11163.538  0.002514377  0.037017017    1.6475484 
 2414000    395.49755   -7233.3608    1033.5799   -665.92252   -4192.9543    14407.922 0.0025156665  0.037006592    1.6475431 
 2416000    409.37627   -7233.4553     1629.227   -1532.0104   -2491.4963    12763.309 0.0025241045  0.036994455    1.6476991 
 2418000    401.53632   -7233.6849    2469.2344   -2955.4771    -623.5797    14097.298 0.0025372134  0.036978566    1.6478184 
 2420000    378.79141   -7233.8948    653.52899    -1610.823   -3560.4324    14645.039 0.0025400603  0.036977898    1.6478486 
 2422000    389.11866   -7233.6526    3439.4632   -318.60874   -279.90083    13173.952  0.002538979  0.036995112      1.64796 
 2424000    391.94365    -7233.971    3591.8155   -77.167436   -2131.8602    13760.402 0.0025377028  0.036987148    1.6479527 
 2426000    395.80687   -7233.8114    1920.0877   -1334.0178   -148.28685    14970.228 0.0025368846  0.036979069    1.6478599 
 2428000     403.1839   -7233.9672     4382.373   -760.17891   -3683.1774    14903.234 0.0025359751  0.036993917     1.647926 
 2430000    403.21284   -7233.8807    2194.5158   -1424.5479   -305.20783    12295.042 0.0025388984  0.036981786    1.6479755 
 2432000    398.94196   -7234.2275    4278.0269   -671.87619   -925.00347    13200.269 0.0025523631  0.036977719    1.6480401 
 2434000    403.35398   -7235.4486    3670.3255     738.6961   -1325.1282    13655.947 0.0025597453  0.036985296    1.6481829 
 2436000     395.3399   -7231.6142    6217.8767   -3564.8375   -1282.0816    10934.138 0.0025558637  0.037000095    1.6482461 
 2438000    403.79985   -7234.7207    4141.5529   -1327.5923   -1365.8555    11607.919 0.0025576834   0.03700095    1.6482217 
 2440000    413.02484   -7234.9833    3785.7165   -1333.8596   -1064.3717    12209.031 0.0025562957  0.037006118    1.6482139 
 2442000    419.56639    -7234.826    5161.4797   -594.48692   -1789.3586    12140.013 0.0025557201  0.036992018    1.6482758 
 2444000    392.32107   -7234.3264    3317.0893    -3215.551   -132.15651    13062.368 0.0025564741    0.0369877    1.6483075 
 2446000    442.52309   -7233.8597    5655.9027   -406.48247   -1937.4062    13712.463 0.0025607968  0.036974699    1.6485565 
 2448000    411.59836    -7233.397    4801.9591   -2743.7798    -187.9267    10269.434 0.0025755645   0.03696085    1.6485003 
 2450000    384.79849   -7234.7139    4529.1358   -618.52185    -3438.298    11939.292 0.0025798167  0.036966302     1.648362 
 2452000    397.05309   -7232.9554    3127.7988   -1421.6766    -697.4656    9306.3526 0.0025748863  0.036971541    1.6486017 
 2454000    385.20602   -7234.4311    2501.4572    1198.4016   -2889.9812    11543.712 0.0025708284  0.036958924    1.6486211 
 2456000    382.85421   -7232.5601     5140.804   -2353.7552   -4783.1764    13695.614 0.0025687989  0.036968637    1.6486045 
 2458000    400.83256   -7234.3835    4389.2208    -3944.383     -3128.87    11097.055 0.0025725845  0.036974611    1.6486093 
 2460000    409.40361   -7232.7414    3590.0243   -277.81463    -1822.503     13238.23  0.002578714    0.0369714    1.6485667 
 2462000    436.83394   -7233.6862    2258.9787   -4845.3897   -2525.7189    14170.425 0.0025790127  0.036957245    1.6487224 
 2464000    435.02093   -7236.2397    3097.8376   -3038.1213   -2488.4452    12353.449 0.0025882294  0.036956064    1.6489596 
 2466000    399.56706   -7233.8488    3857.3205   -1331.7416   -2586.5844    10777.745 0.0025916136  0.036959113    1.6489632 
 2468000    406.08674   -7234.5256    4448.1488    -1849.156   -1828.4783    10282.257 0.0025951768  0.036971436    1.6486984 
 2470000    396.83999    -7233.667    4235.0425   -2360.3545   -1676.2719    11677.385 0.0025985687   0.03696034    1.6489199 
 2472000    403.72668   -7234.0149    2230.2539   -1571.5162   -1585.0599    12709.804 0.0025971316  0.036957913    1.6489796 
 2474000    437.00485   -7232.8203    2713.7513   -1775.1142    344.98591    15210.149 0.0026028951  0.036963764    1.6490948 
 2476000    401.45001   -7233.2164    2069.2679   -3758.0268   -821.58507    11288.143 0.0026155531  0.036950387    1.6491495 
 2478000    409.04348   -7233.8743    4116.0791   -1699.6028   -1502.8835    14654.641 0.0026295116  0.036929065    1.6491637 
 2480000    375.51462   -7233.1978    2867.0537   -2220.2764   -1646.9684    11397.657  0.002635158  0.036929851    1.6492326 
 2482000    411.26698   -7232.6447    2268.5155    2086.5109   -537.17505    10100.539 0.0026349305    0.0369383    1.6493021 
 2484000    412.50365    -7232.936    3478.5231   -1495.8082   -845.67755    14175.427 0.0026322792  0.036945923    1.6494599 
 2486000    367.41938   -7232.9728    1807.9138   -1326.8137   -2991.4013     10164.72 0.0026340504  0.036931261     1.649366 
 2488000    370.05849   -7231.9965    4841.8541   -1040.2586    107.98601    12453.284 0.0026357593  0.036933867    1.6492515 
 2490000    403.97197   -7233.1761    2487.4132   -1052.9302   -1249.6279    10189.493 0.0026348416  0.036919166    1.6492349 
 2492000    380.92239   -7233.3686    3172.0249   -2432.8544    -1441.669    15116.934  0.002632104  0.036900379    1.6493192 
 2494000    399.37443   -7233.5578    4406.6558   -1228.5411    190.29622    13235.893 0.0026317343  0.036890403    1.6494353 
 2496000    409.30482   -7232.3856    4363.2551   -551.27205   -2019.2703    13632.859 0.0026293402  0.036881781    1.6494586 
 2498000      405.798   -7234.0575    1842.8725   -2223.1134    -1259.221    13194.539  0.002632542  0.036869656    1.6494928 
 2500000    372.63997   -7234.0816    3042.9414    645.09739   -3281.2849    14071.544 0.0026351094  0.036870724    1.6494809 
 2502000    401.68343   -7233.5289    197.49171   -2893.8817   -917.54365    13400.613  0.002637325  0.036877292    1.6495523 
 2504000    416.31843    -7232.864    1019.3774    -2054.882   -354.76062    14866.002 0.0026418351  0.036866189    1.6495338 
 2506000    400.42689   -7232.9952   -183.63217   -3372.7706   -516.94188    14093.207 0.0026513499  0.036876244    1.6495746 
 2508000    413.65179   -7234.1302    2016.1733    657.69936   -1528.2861    13570.155 0.0026545748  0.036878136    1.6497125 
 2510000    413.08236    -7233.865    3648.4625   -695.31714    -1366.216    11241.932 0.0026527992  0.036860762    1.6495654 
 2512000     387.9655   -7231.0475    1093.7379   -766.53561   -1504.2816    12735.035 0.0026729376  0.036851125    1.6495583 
 2514000    371.80182   -7234.7921    2919.6937    1313.3917   -3541.7907    12411.284 0.0026860898   0.03684699    1.6497931 
 2516000     417.0348   -7235.1099    2643.8679    455.81431   -2473.5111      12493.6 0.0026829104  0.036838525    1.6497394 
 2518000     414.1249   -7233.0246    1642.3565   -3127.0189   -563.28739    13326.815 0.0026855952  0.036841719    1.6498081 
 2520000    406.54615    -7234.739    950.41322   -41.985126   -3672.8828    10371.701  0.002701255  0.036835754    1.6498096 
 2522000    398.06932   -7232.2228    4146.5021     372.9162   -1794.0414    12833.223 0.0026993082  0.036858608    1.6496896 
 2524000    394.15965   -7233.4143    1991.1291    1493.6147   -1719.2443    12390.191 0.0027013815  0.036856297    1.6497247 
 2526000      414.541   -7234.5748    2319.7395   -522.78822   -3414.6961    11600.193 0.0027055765  0.036855846    1.6498033 
 2528000    394.70053   -7233.1005    1594.6706     1833.745   -2577.9037    12120.417 0.0027032042  0.036838101    1.6499616 
 2530000    410.55897   -7233.6408    2178.7784   -1246.9546   -2833.5912    8656.6361 0.0027012039   0.03685199    1.6499065 
 2532000    381.44122   -7234.5028    2446.7247   -35.904719   -1891.0907    14075.076 0.0027024243   0.03684148    1.6497713 
 2534000    371.19333   -7233.2992    1741.0903     2120.632    -4430.981    10973.497 0.0027074948  0.036820164    1.6501327 
 2536000    393.21234   -7233.4065    2921.8888   -968.24613   -3378.7532    13351.267 0.0027037007  0.036839911    1.6501424 
 2538000    377.05663   -7232.4542    1272.8234   -804.06207   -2229.1607    12816.927 0.0027108179  0.036854881    1.6501667 
 2540000    413.69594   -7232.5991    2331.8346   -3104.3891   -2449.8648    12105.248 0.0027311711  0.036839288    1.6500244 
 2542000    404.93165   -7232.6469    2663.7527   -984.49759    -3527.012     12847.68  0.002737411  0.036829732    1.6500978 
 2544000    398.89808   -7232.8301    982.91986   -1837.1701   -2360.7137    12555.631  0.002736971  0.036845388    1.6501644 
 2546000    408.03268   -7234.2108    1823.8883    271.19504   -2285.9158    14958.632 0.0027365105  0.036858204    1.6501541 
 2548000     415.0853   -7234.4544    1734.8426    532.03591   -2768.8314    13580.419 0.0027356436  0.036843097    1.6502189 
 2550000    386.73599   -7233.1335    2819.1517    428.06181   -2190.1488     12411.16 0.0027443724  0.036836715    1.6501125 
 2552000    406.37958   -7234.2627    2000.6195    1246.4886   -2852.4538    14690.997 0.0027451865  0.036841017    1.6501646 
 2554000    397.91869   -7232.8424    2420.5104    -663.8627    -1753.467    11999.883  0.002746153  0.036856052    1.6503524 
 2556000    409.61372   -7233.5273    3497.7817    1853.7286   -2256.0405    12298.581 0.0027526852  0.036841016    1.6503447 
 2558000     423.8038    -7233.897    650.85485    656.64151    380.98933    13670.485 0.0027736757  0.036854221    1.6503338 
 2560000    375.85569   -7233.5367    2583.9841    1476.5201   -3547.3536    13149.646  0.002776149  0.036850176    1.6502974 
 2562000     423.4931   -7233.9598    3530.4065   -26.268356   -277.54998    16990.637 0.0027765178  0.036849473    1.6504014 
 2564000    392.58653   -7234.2407    3813.1295    266.80416    -2750.393    10793.059 0.0027799706  0.036854377    1.6505127 
 2566000    365.12881    -7232.887     4043.336    24.170632   -1753.5249    15989.477 0.0027775971  0.036844752    1.6504476 
 2568000    427.25064   -7233.6661    5012.3491   -522.46248   -2345.4455    13800.861 0.0027917779  0.036838286    1.6506318 
 2570000    411.74861   -7232.8267    4661.6347    -575.9009   -1939.3143    12297.973 0.0027994446  0.036857859    1.6506712 
 2572000    406.23128   -7234.1722    5542.6714     569.4636   -2574.2215    15870.961 0.0028023095  0.036857536    1.6505873 
 2574000    421.74978    -7234.321    4357.2373    -2034.569    -1027.191    12268.551 0.0027981601  0.036859056    1.6507903 
 2576000    370.32348   -7234.2256     3107.563   -1748.3204   -1502.0879    12069.734 0.0028015969  0.036858629    1.6506631 
 2578000     413.8921   -7233.6648    3438.5571   -885.51647   -1421.6141      14176.6 0.0028023483  0.036862087    1.6506304 
 2580000    394.63443   -7233.9726    5007.2481   -2299.6171    673.18624     14530.29 0.0028032477  0.036847907    1.6507604 
 2582000    397.85291   -7234.0991     3331.191   -1158.2523   -2885.9635    13551.212 0.0028056575  0.036846792    1.6508457 
 2584000    378.55312   -7234.4021    3069.4649   -840.17606    445.27434    15546.684 0.0028131701  0.036837542    1.6507809 
 2586000    393.38424   -7233.4296    2729.1485   -1964.5146   -4212.2066    15038.046 0.0028171486  0.036817895    1.6508584 
 2588000    390.92931   -7232.3742    213.45781    794.70996   -2018.4333    15328.253 0.0028253108   0.03684842    1.6509545 
 2590000    388.96032   -7233.5964    4596.5606      609.095   -2422.4584    13559.266 0.0028276393   0.03688047    1.6510078 
 2592000     386.6721   -7234.6352    2667.8921    2540.1626   -2166.6094    13345.524 0.0028224646  0.036871519    1.6509744 
 2594000    406.71741    -7233.793    3285.7613    377.71199   -440.15677    10517.127 0.0028241398  0.036859311    1.6510552 
 2596000     394.3204   -7233.0335    3494.1009    2623.1477   -2695.4276    13299.685 0.0028239415  0.036849178    1.6509217 
 2598000    382.44232   -7234.2112      750.296   -1626.4368   -783.00223    13763.639 0.0028208044  0.036861452    1.6509679 
 2600000    413.08638   -7234.2159    4750.4299   -1467.6677   -894.13155    12445.215 0.0028389949  0.036855897    1.6511568 
 2602000    408.91557   -7232.8301    5332.8113     1367.442   -2462.7129    10246.206 0.0028470781   0.03684441    1.6513137 
 2604000    395.10521    -7233.668    5785.4273   -1066.3453   -1446.4967    11109.625 0.0028425465  0.036850007    1.6511705 
 2606000    399.65169   -7233.0529     3661.819   -438.36907   -1951.9716    11857.085 0.0028488152  0.036871986    1.6511448 
 2608000     395.6108   -7233.5643     4403.013    947.05451   -1106.9372     13487.56 0.0028477107   0.03689453    1.6510804 
 2610000    378.54485   -7232.6354    4577.1101   -3830.1139   -23.591866    12885.703 0.0028509979  0.036890664    1.6511914 
 2612000    378.47576   -7235.0718    3693.9119   -1112.9305    -1114.212    15557.616 0.0028599091   0.03686898    1.6513391 
 2614000    396.30558   -7233.8418      5428.84   -3442.1662   -471.30905    12192.127 0.0028653642  0.036854959    1.6512816 
 2616000    398.06572   -7234.1122    3750.7141   -117.49621   -3070.8134     12722.44 0.0028685386  0.036846767    1.6513565 
 2618000    408.56808   -7231.7956     7052.622    358.45967   -2250.1534    13006.099 0.0028695379  0.036841278    1.6513436 
 2620000    365.03035    -7232.086    4337.4554    -384.9238   -1590.3114    13674.191 0.0028670423  0.036844879     1.651378 
 2622000    410.00287   -7233.7315    6455.4798   -877.14516   -4441.2891    11207.452 0.0028723973  0.036856576    1.6514961 
 2624000    418.96423   -7234.9339    2302.3655   -1700.3746   -987.08163    11925.765 0.0028721796  0.036873659    1.6513707 
 2626000    388.17078   -7234.7791     5310.737    283.37694   -3610.0581    14928.315 0.0028833212  0.036869978    1.6514918 
 2628000    361.87425   -7233.8898    3503.4939   -551.25454   -828.76306     13875.55 0.0028887288  0.036872546    1.6513797 
 2630000     393.0699   -7234.8277    2854.0185   -800.05838    788.76216    12045.991 0.0028875532  0.036863422    1.6516024 
 2632000    433.74936   -7234.9228    4602.5891   -2168.8097    -1339.581    13110.759 0.0028892431   0.03684668    1.6516515 
 2634000    414.67881   -7233.1424    4791.3777    163.81586    917.11357    14225.974 0.0028882494  0.036857823    1.6516515 
 2636000    422.48864   -7232.1697    6582.6441   -666.69735   -606.55671     10611.28 0.0028927479  0.036861075    1.6516239 
 2638000    398.14633   -7233.2935    1713.7776    2616.7383    558.88353    14807.221 0.0028949117  0.036858136    1.6515806 
 2640000    420.89403   -7235.5694    1871.4892   -1659.7735   -355.10944    13916.316 0.0028964265   0.03685081    1.6515259 
 2642000    384.47991   -7234.8349    4951.4034   -2243.2361   -1179.5285     12869.79 0.0029085387   0.03687106    1.6517474 
 2644000    369.17988   -7234.6294    2893.0964   -3974.0666   -605.00191    12303.644 0.0029085069  0.036878318    1.6516837 
 2646000    392.04944   -7233.8142    2759.3307    -1316.104    47.939018    13220.271 0.0029108485  0.036861143    1.6516521 
 2648000    407.77368   -7233.4233    1166.1307   -581.08005   -1855.0366    14471.423 0.0029139368  0.036850058    1.6517283 
 2650000    384.65758   -7233.8477    2565.1697   -2100.3474   -1096.1921    11993.676 0.0029112551  0.036866742    1.6519036 
 2652000     382.2877   -7233.3017    1008.2189   -2966.2617   -1274.2034    12745.174  0.002921499  0.036878073    1.6517442 
 2654000    418.02228   -7234.8187    5458.3752   -411.54573    -266.9155    13364.731 0.0029188834  0.036867507    1.6517833 
 2656000    398.26199    -7233.163    3503.4663   -2055.4635   -4321.2756    10936.883 0.0029168938  0.036864228    1.6517927 
 2658000    404.35494    -7234.421    3944.5113   -845.14982   -641.60042    12674.328 0.0029169152  0.036868197    1.6518562 
 2660000     420.1095   -7233.9015    2793.4672    -865.7196   -2754.7519    14156.671  0.002930521   0.03685271    1.6520208 
 2662000    386.99332   -7234.4095    920.17072    -2452.353    -2191.019    13733.243  0.002932093  0.036851543    1.6520975 
 2664000    383.55274   -7234.4098    3725.7343    332.18369   -2288.5447    14313.334 0.0029360376  0.036861239    1.6522009 
 2666000    416.95944   -7234.9331    4153.3738     1870.658   -554.18906    12723.649 0.0029353409  0.036859187    1.6522389 
 2668000    420.69369   -7233.6957     1126.201   -1237.9314   -2984.1257    13271.662 0.0029332681  0.036841943    1.6522013 
 2670000    394.98581   -7235.1592    4409.8306    876.21275   -4030.5353    11031.703 0.0029328476  0.036841611    1.6521524 
 2672000    435.66243   -7234.2328    2742.2384   -159.28794   -3703.1279      13035.1 0.0029312093  0.036850817    1.6521774 
 2674000    399.85195   -7233.6806    2157.6783   -332.57731    -3192.904    12221.225 0.0029460757  0.036849634    1.6524174 
 2676000     402.2622   -7232.4736    2748.3429   -1025.9402   -2290.2352    9821.4221 0.0029555425  0.036848677    1.6524823 
 2678000    410.79303   -7234.1081    1182.9017   -1418.2197   -1170.5426    13663.139  0.002957843  0.036856582    1.6524016 
 2680000    441.00096   -7234.5298    4216.7536     704.0612   -998.86877    12397.287 0.0029598466  0.036836014     1.652524 
 2682000    416.19964   -7234.0482    464.29339    488.50742   -1602.5846    11602.496 0.0029592067  0.036819158    1.6525217 
 2684000    397.83729    -7232.716    3546.6895   -572.27687    1509.1264    11476.564  0.002957698  0.036815323    1.6525879 
 2686000    411.83675   -7232.8928    80.081919   -1072.0759   -1897.4377    11953.431 0.0029600362  0.036795347     1.652637 
 2688000    400.14222   -7233.5074    2211.0748    457.54927   -2286.7165     11664.81 0.0029656637  0.036797394    1.6526339 
 2690000    399.43738   -7234.4741   -166.33353   -2232.2896   -1819.5125    12872.143 0.0029737591  0.036816594    1.6526332 
 2692000    410.53788   -7234.3865    4330.7094   -636.49262   -360.40987     13341.07 0.0029717998  0.036803991    1.6527274 
 2694000    394.78737   -7232.7385    1769.2359   -525.59787   -2663.1004    13324.891 0.0029706826  0.036790453    1.6528052 
 2696000    446.50008   -7233.7603    5388.1188   -2064.2661   -3746.1253    12352.063 0.0029682867  0.036800652    1.6527498 
 2698000    405.11846   -7232.8305    3439.4775   -2494.9078   -1339.5431    9833.4741  0.002976277  0.036818094    1.6527335 
 2700000    369.87402   -7233.9806    2288.9366   -1075.8536   -2364.5806    12727.658 0.0029948599  0.036804226    1.6526944 
 2702000    377.63542   -7234.2484    2851.6525   -875.42593   -4567.9742    9910.2734 0.0030078557  0.036812018    1.6528414 
 2704000    416.68373   -7234.8258    1647.4521   -1096.0637   -1853.2996     13291.15  0.003005418  0.036816645    1.6530634 
 2706000    401.42465   -7233.8573    2381.2288   -368.66414   -1998.8457     10340.52 0.0030039572  0.036819064    1.6530093 
 2708000     415.8084   -7233.4541    360.06875     514.2843   -1881.5339    14128.948 0.0030053466  0.036811414    1.6529002 
 2710000    389.77255   -7234.3451    882.92916    1049.1947   -2143.8948    14640.087 0.0030141717  0.036793431    1.6529563 
 2712000    395.34305   -7234.6158    2973.4779     3435.458   -660.80342    11806.703 0.0030098309  0.036788152    1.6530612 
 2714000    406.78942   -7234.5421    639.88194     479.5727   -1927.6624    14596.716 0.0030094881   0.03677879     1.653014 
 2716000    394.22779   -7232.7571    1593.5502    1702.5795   -1835.4847    13000.914 0.0030094154  0.036774536    1.6530793 
 2718000    378.90664   -7232.6726    3178.8271    1362.1773    -4160.496    13012.364 0.0030081178  0.036766038    1.6529576 
 2720000    400.65147   -7234.0938    896.40211    -743.6979   -628.47598    15082.481 0.0030068691   0.03677938     1.652942 
 2722000    406.24035   -7234.6323    2100.0853   -1930.8861   -1408.5429     13955.01 0.0030077167  0.036769054    1.6531194 
 2724000    413.80369   -7233.7289    550.23531   -385.85389   -1240.4303    12160.862 0.0030160508  0.036771111    1.6532472 
 2726000    392.65268   -7232.3651    2805.4112   -1652.0772   -2699.0531    14479.448  0.003023356  0.036770673    1.6532511 
 2728000    380.43909   -7233.2707    551.63227    1364.8349   -1438.2841    10266.015 0.0030321267  0.036798774    1.6531823 
 2730000    412.81003   -7232.4874    1718.4209    83.973112    -2464.078    12320.944 0.0030302307  0.036814949    1.6530093 
 2732000    407.86881   -7234.7834    2249.3056    212.32929   -685.99056    12130.348 0.0030290994  0.036801155    1.6532451 
 2734000    390.48956   -7233.2092    1755.7499     1448.997   -3193.9405    13672.192 0.0030266639  0.036786751    1.6532667 
 2736000     366.5007   -7234.3118    1742.2541   -3748.1619    -2971.795      12217.9 0.0030319624  0.036797705    1.6532457 
 2738000    409.05582   -7232.6717    3853.8914   -1476.1415   -1986.7813    13825.695 0.0030474744  0.036778393     1.653213 
 2740000    395.81194   -7233.7168     2182.389    1490.8366   -3250.2353    12937.503 0.0030585028  0.036760731    1.6532703 
 2742000    414.09806   -7233.9903     6192.768    1112.0954   -5031.8302     11118.49 0.0030575207   0.03677837    1.6533906 
 2744000    403.02802   -7234.5645    2440.7242    169.18301   -3021.2788    11337.016 0.0030544243  0.036839622    1.6533945 
 2746000    413.99456   -7235.4661    168.88677   -1909.4971   -3634.8062    9907.4063 0.0030570634  0.036839992    1.6534147 
 2748000    406.73165   -7234.2751    1493.6264    520.20902    -364.0064    12731.626 0.0030783668  0.036837223    1.6533842 
 2750000    427.47258   -7233.4461    2668.1929    2025.7773   -3100.9391     12125.12 0.0030767869  0.036831071    1.6533952 
 2752000    378.42258   -7234.2601    438.01214    1214.7328    396.10417      12879.2 0.0030755554  0.036819721    1.6534782 
 2754000    415.69334   -7232.9459    2344.4423    3263.5931    -3427.057    11437.452 0.0030731672  0.036798815    1.6535722 
 2756000    388.50313   -7233.5468     1097.909   -1116.8475    -1982.778    14218.386 0.0030753318  0.036804413    1.6536004 
 2758000    364.43343   -7233.6469     2281.951    1596.6737   -3967.8198     12475.17 0.0030791081  0.036801096    1.6535864 
 2760000    383.30024   -7233.1419    2016.7799   -167.01422   -3633.3827    12366.666 0.0030774735  0.036816951    1.6535942 
 2762000    408.48392   -7232.5733    2507.3419   -1329.1258   -1649.8932    14115.312 0.0030757674  0.036829687    1.6536213 
 2764000    423.35804   -7233.9016   -1016.9647   -2751.9273    425.85639     13131.12 0.0030841964   0.03681169    1.6536018 
 2766000    417.64709   -7231.9692    1856.3883   -573.24616    -1245.405    9837.0204 0.0030852697  0.036806044    1.6535823 
 2768000    389.06575   -7234.1636    1506.8857   -1349.8002   -2416.7229     12203.52 0.0030883773  0.036811795    1.6537296 
 2770000    427.29749   -7233.4892    3661.1791     677.9663    -910.2996    11037.009 0.0031007203  0.036818581    1.6537669 
 2772000    395.18237   -7233.2771    2426.0585    -111.3042   -2177.9764    12568.716 0.0030979029  0.036804675    1.6536425 
 2774000    362.37402   -7233.3503    5613.2119    1060.6006   -1375.8209    10476.825 0.0030956501  0.036809093    1.6536252 
 2776000    396.37883   -7233.8324    966.33083   -1630.9152   -1841.2169    12084.872 0.0030945512  0.036816872    1.6536682 
 2778000    415.22089   -7235.2219    3788.6872    234.99433   -2637.4907    12017.456 0.0031116705  0.036803108    1.6536578 
 2780000    416.36092   -7233.3984    4930.4326    1800.5898   -2695.3058    13338.953 0.0031200787  0.036805407    1.6537521 
 2782000    366.52425   -7234.6491    4683.3134   -158.57409   -2069.4181    12053.622  0.003118872  0.036809198    1.6537536 
 2784000    394.87623   -7232.9784    5215.2376    1216.1705   -2228.6306     13848.17 0.0031231548  0.036817052    1.6537559 
 2786000    417.97747   -7234.4982    3476.0508   -866.71268   -1974.5067    12286.039 0.0031197582  0.036810222    1.6538759 
 2788000    379.91058   -7234.5775    4044.1185    1812.6411   -3582.9103    10875.016  0.003119307  0.036800798     1.653879 
 2790000    417.31608   -7232.1206    2621.4035   -1108.7967   -2510.4347    13482.699 0.0031204798  0.036820611    1.6537645 
 2792000     415.6058   -7233.6595    4023.4219   -758.48691   -1164.7963    12561.399 0.0031195857   0.03681218    1.6538317 
 2794000    379.48028   -7234.5275    2623.9256   -55.789439   -1987.7066    10976.213 0.0031236133  0.036793277    1.6539256 
 2796000    388.78876   -7233.3783    4850.5573   -1356.7757   -2443.8763    11864.713 0.0031283351  0.036782847    1.6539573 
 2798000    367.02426   -7234.5641    5346.4587   -437.37343   -5325.5453    13872.804 0.0031381047  0.036807022     1.654039 
 2800000    383.39588   -7233.9604    1044.5355    836.70505   -2205.8013      11394.6 0.0031342761  0.036835726    1.6541432 
 2802000    366.22581   -7234.2785    5500.1722    1277.3438   -4121.0443    11354.203 0.0031323595    0.0368243    1.6539746 
 2804000    424.33069   -7234.0645    623.54592   -246.28568   -3328.7963    14881.971 0.0031366713  0.036835925    1.6540024 
 2806000    401.13965   -7234.6047    4518.0735   -1499.3255   -3058.7317    10718.417 0.0031407896  0.036848361    1.6541764 
 2808000     399.2622   -7233.7774    5435.1028   -2598.2737   -3090.0485    11568.022 0.0031512123  0.036846549     1.654114 
 2810000    412.20198   -7233.2633    2911.3458   -334.90404   -588.27565    12035.803 0.0031576696  0.036830276    1.6541232 
 2812000    392.68169   -7232.8752     7074.471   -2618.7908   -3192.2624    10879.365 0.0031551468   0.03680972    1.6542837 
 2814000    350.62356   -7235.5821    1586.8514    -1704.869   -2826.0145    13255.449 0.0031580806  0.036807469    1.6542327 
 2816000    404.33769   -7232.6124    4249.6857   -2192.4463   -3672.1954    11612.909 0.0031560835  0.036838842    1.6543117 
 2818000    380.97871   -7233.8321    1559.6884   -1956.6049   -789.96535    14239.581 0.0031559898  0.036818338    1.6542245 
 2820000    413.16176   -7233.8827     189.3621   -2203.4151   -2363.5593    10456.872 0.0031603257  0.036816398    1.6543484 
 2822000    384.79548    -7232.537    4366.0946   -1957.2295   -3996.0308    13771.097 0.0031734457  0.036825339    1.6544885 
 2824000    393.43363   -7233.0338    1758.1628   -2598.2864   -2087.9514    12999.987  0.003177145  0.036828926    1.6544688 
 2826000    420.99804   -7233.4577    1310.5115   -4606.7079    -3075.318    15015.125  0.003178052  0.036822575    1.6545445 
 2828000    384.81911   -7233.2082    3271.8366    1677.0909   -345.26654    13203.229  0.003181244  0.036826162    1.6547774 
 2830000    390.01826   -7233.3398    1990.4998   -411.35481   -3072.6522    12196.638 0.0031784497  0.036826395    1.6546956 
 2832000    393.49429   -7233.3259    4300.7559   -776.81299   -780.55938        12871 0.0031770469  0.036821427    1.6547164 
 2834000      375.563   -7233.6858    2032.6241   -2239.9127   -1646.7287    14646.804 0.0031757979  0.036826263    1.6547855 
 2836000    415.14012   -7233.6752    2824.8407   -2851.4519   -2071.1048    14367.178 0.0031958692  0.036811944    1.6547804 
 2838000    373.41373   -7233.9023    5018.5823    986.83929   -3357.6207    15483.182 0.0031931947  0.036810307    1.6548408 
 2840000    434.84877   -7232.1054    1260.3477   -2283.4788    -1427.654    13791.065 0.0031935322  0.036818064    1.6549992 
 2842000    403.46725   -7235.6911    1145.4923   -776.03218   -803.52576    14943.717 0.0031956747  0.036813546    1.6549281 
 2844000    407.11451   -7233.7756    54.540279    -2523.532   -1567.2365    12682.233 0.0031958588  0.036816475    1.6549398 
 2846000    407.80925   -7234.5964    2518.7088   -1311.1551   -1449.7393    13836.556 0.0032056937  0.036818026    1.6549306 
 2848000    421.97107   -7234.2437    2942.5378   -542.31661    1272.0709    14934.653 0.0032050614  0.036810402    1.6549812 
 2850000    386.01868   -7233.8623     5714.659   -1600.9363    795.15225    13485.937 0.0032035535   0.03681056    1.6550461 
 2852000    401.79476   -7232.5194    5488.5022     1316.481   -2692.9517    12110.628 0.0032201809  0.036804705     1.655011 
 2854000     404.6747    -7233.655    4767.2482   -1646.7924   -1353.1546    13087.218 0.0032232873  0.036808565    1.6549641 
 2856000    402.80272   -7234.5425    3443.5556    93.655949   -1462.6547    11359.439 0.0032249023  0.036823389    1.6550992 
 2858000    391.07687   -7234.7393    2601.2197   -1416.7762   -245.95116    12049.184 0.0032245594  0.036821493    1.6551844 
 2860000    421.95614   -7234.7221    4556.9654   -2588.0134   -391.01663    11794.571 0.0032255032   0.03682285    1.6550792 
 2862000    408.16897    -7233.869    3542.9992   -240.95356   -2505.1587    13011.965 0.0032252274  0.036810391    1.6550661 
 2864000    415.67528   -7233.9766    3659.6595   -956.81707   -2064.4904    11771.909 0.0032240458  0.036808032    1.6549916 
 2866000    430.04406   -7231.5662     2186.643    667.50159    -1294.076     12937.47 0.0032250518   0.03680238    1.6551279 
 2868000    386.39938   -7234.8514    861.67104    905.29567   -4103.9744    12210.332 0.0032247657  0.036791478    1.6552782 
 2870000    394.92477   -7234.6824     2256.077     894.3492   -1576.5774    12055.694 0.0032301854  0.036826368    1.6552949 
 2872000    387.12598   -7234.3032    3150.0135    1670.2528   -1404.7033    14979.253 0.0032440171  0.036810967    1.6553325 
 2874000    395.74043   -7234.2596     2333.555    1013.6394   -1898.9588    14275.441 0.0032446305  0.036794709    1.6551864 
 2876000    398.84743   -7234.5764    3226.2468     2424.209   -4698.8612    15941.376 0.0032421177  0.036787784    1.6552927 
 2878000      401.274   -7235.0699    5802.1506    1152.0544    -2622.339    12705.901 0.0032398111   0.03678983    1.6555359 
 2880000    416.63704   -7232.0075    2268.9792    814.45395   -4499.0183     12035.14 0.0032395186  0.036789306    1.6554157 
 2882000     392.2179   -7233.8071    3011.4458   -1807.2753   -4194.7875    12792.335 0.0032431723  0.036790424    1.6553523 
 2884000    382.27683   -7232.6728    2592.2588     1503.334    -1177.581    13379.417 0.0032555304  0.036797645    1.6554025 
 2886000     408.0905    -7231.795    2158.4628    45.151844   -1033.1863    11249.272 0.0032556308  0.036789263    1.6555681 
 2888000    399.52742    -7234.624    4704.4371    -607.8674   -2726.0739     13205.69 0.0032572415  0.036770995    1.6555787 
 2890000    413.02432   -7232.0658    4265.0598    2868.1197   -994.55724    11824.675 0.0032550928  0.036783229    1.6555114 
 2892000    398.33933   -7232.9356    4741.4821    -2460.377   -4089.1708    12395.004 0.0032564285  0.036786218    1.6554098 
 2894000    437.93693   -7232.0524    4521.2583    147.83436   -2029.6829    12009.349 0.0032599378  0.036786345    1.6554232 
 2896000    391.32048   -7233.6788    3154.9576   -530.25383   -4264.5179    13542.673 0.0032586404  0.036796269    1.6555389 
 2898000    376.72906   -7233.9898    2154.6982   -1332.8305   -2621.7844    10897.536 0.0032589462   0.03677908    1.6556707 
 2900000    405.48161   -7233.2831    4031.9871   -2677.8695   -3164.6848    11225.821 0.0032555318  0.036770182    1.6556236 
 2902000    404.65919   -7234.1919    4117.2347    206.09409   -1348.5892    14745.281 0.0032624875  0.036761269    1.6555302 
 2904000     390.3645    -7234.272    4895.3269   -180.20893   -4061.6358    12346.574 0.0032622958  0.036745776    1.6556371 
 2906000    390.30982   -7232.6092    4954.3641   -799.62365   -1875.1172    13520.499 0.0032599264  0.036749681    1.6556326 
 2908000    390.33217    -7234.397    3668.9184    1940.8346   -264.65926    13030.719 0.0032598505  0.036756215    1.6557578 
 2910000    408.49489   -7234.7863    2930.3844    -262.9479   -1195.3295    12448.339 0.0032636568  0.036754717    1.6557343 
 2912000     429.3944   -7233.6454    3905.5033   -429.61392   -901.51398    13569.109  0.003285929  0.036768219    1.6556766 
 2914000    414.17206   -7233.3254    606.14462    203.18185    379.11756    11001.114 0.0032889569    0.0367634    1.6558338 
 2916000    375.76442   -7232.9221    3319.5541    3144.1362   -2780.4196    14244.984 0.0032871704  0.036761808    1.6557591 
 2918000    411.42027   -7233.9554     194.1709   -362.55547   -1635.5267    14774.246 0.0032860179   0.03677371    1.6558865 
 2920000    421.40819   -7233.2558    1722.4074    1138.4734   -1676.3933    13077.217  0.003283065  0.036758524    1.6559829 
 2922000    391.48896   -7232.3998    917.17985    237.10636   -333.17685    13804.289 0.0032845373  0.036748021    1.6558517 
 2924000    368.26156   -7235.0139    1489.9529    515.12729   -967.24785    14122.188 0.0032877782  0.036740993    1.6557889 
 2926000    375.95577   -7233.1013    1101.8075    -911.4603   -1328.9478    12926.937 0.0032857879  0.036726548    1.6558569 
 2928000    413.56337    -7232.984   -327.51504    3879.6101   -1236.0676    14172.565 0.0032834092  0.036716459    1.6559008 
 2930000    391.08629   -7233.8579    4477.0589    81.619454   -46.821767     10398.53 0.0032814695  0.036717488    1.6558406 
 2932000    395.44143    -7234.451    2562.4983   -248.67356   -619.16527    11054.076 0.0032805206  0.036714574    1.6557403 
 2934000    422.07436   -7235.4444    1625.2117    178.03342   -1083.7332    14782.816 0.0032815794  0.036703427    1.6558688 
 2936000    397.11774   -7233.7545    3028.3014    1484.1899   -783.23182    8959.4805 0.0032872075  0.036707613    1.6559925 
 2938000    415.20107   -7232.4397    2818.2651    241.32023   -2320.7225    10753.986 0.0032845749  0.036701256     1.655875 
 2940000     396.7868   -7232.8007    4981.5981   -609.61354   -2014.1088    12643.177 0.0032875841  0.036703299    1.6558742 
 2942000    400.73876   -7233.4287     1907.528   -573.19255   -1545.3273    14590.979 0.0032854835    0.0367094    1.6558714 
 2944000    444.65329   -7234.1417    4539.7634     2236.697   -192.28613     11949.91 0.0032834158  0.036695314    1.6557884 
 2946000    389.89741   -7234.3584    2800.2437     644.1445   -89.787109    12885.092 0.0032817298  0.036675437    1.6557801 
 2948000    413.43583   -7233.2029    1572.5005   -164.48664   -996.74171    14214.066 0.0032835518  0.036694746     1.655764 
 2950000    406.06162   -7233.8415    3636.9279     2873.272   -1655.3468     14536.12 0.0032846375  0.036683512     1.655904 
 2952000    407.16956   -7234.6119    6494.6691   -1522.8822   -2946.9093    13172.284 0.0032837197  0.036670782    1.6559088 
 2954000    415.56012    -7233.577    4241.2961   -228.27266   -3510.4582    13610.081 0.0032893436  0.036674857    1.6558993 
 2956000    397.57713   -7234.0802    3924.6687   -200.70294   -3534.6197    13989.658 0.0032875704  0.036697422    1.6558668 
 2958000    406.75043   -7232.1805    4285.0213    584.71901   -3556.6204     11007.44 0.0032851672  0.036694168    1.6559628 
 2960000    423.19108   -7233.7814    3909.7837   -1956.0282   -1944.0594    12057.049 0.0032882135  0.036688944    1.6560031 
 2962000    395.92872   -7234.0895    2730.5464   -1475.8508   -1895.4948    13421.376 0.0032944839  0.036687881    1.6559905 
 2964000    398.72929   -7233.9418     4644.634   -797.78278   -652.45725    13804.456 0.0032991844  0.036671115    1.6561803 
 2966000    398.15983   -7232.4276     5086.096   -1040.4737   -1401.2747    10694.147 0.0033035363  0.036676968    1.6562159 
 2968000    366.05518   -7233.2426    3975.1525   -1136.3786   -785.99005    13501.352 0.0033033566  0.036680014    1.6560271 
 2970000    375.84797   -7233.7817    7133.6312    -975.4107   -1099.2798    13480.587 0.0033025323  0.036686907    1.6561162 
 2972000    378.20109     -7233.99    4626.1299   -383.52695    1232.1071     13655.39 0.0033013468  0.036695182     1.656173 
 2974000    395.64572   -7233.8143    4807.1082   -321.89774   -1761.3611    11734.333 0.0033060342  0.036685773    1.6561324 
 2976000    412.10116    -7233.116    4333.5768    862.00074   -1595.3343    10755.233 0.0033048614  0.036677984    1.6561481 
 2978000    390.28632   -7234.3083    2575.1412   -2282.9672   -610.14067    12765.561 0.0033029017  0.036667713    1.6562231 
 2980000    411.10279   -7233.0027    3327.6394    193.49951   -3246.7932    12245.979 0.0033033279  0.036653881    1.6562602 
 2982000    404.71552   -7233.8031    4113.4387   -110.72176   -968.88802    13148.198  0.003301918  0.036653526    1.6563673 
 2984000    395.90719   -7233.6533    1865.1304   -2911.7178    -4140.301    11851.125 0.0033032345  0.036661044    1.6564087 
 2986000    369.19409   -7232.3145     3996.432   -1476.0583    1221.5982    10487.392 0.0033143248  0.036668525    1.6563135 
 2988000    402.77067   -7233.9246    5941.4687   -1112.7021   -2969.8094    13517.836 0.0033195623  0.036661074    1.6564898 
 2990000    434.48157   -7235.4609    2290.2446   -1349.5127   -1789.3125    10452.831 0.0033203351  0.036658733    1.6565419 
 2992000    376.53656   -7232.4063    3893.2699   -432.96257    -6051.508    12563.269 0.0033184947   0.03665769    1.6565423 
 2994000    416.87203   -7235.0372    658.58975     57.26002   -3018.4794    15176.955 0.0033165248  0.036661461    1.6564891 
 2996000    379.62486   -7233.1456    1547.7576   -141.96143   -3848.2888    9940.7365 0.0033162429  0.036652932    1.6565948 
 2998000    383.21143   -7234.7457    1691.4128   -2161.9237    -2800.908    14952.492 0.0033123916  0.036644805     1.656544 
 3000000    418.41816    -7232.528    4048.6369    1232.8568   -3007.4532    12435.016  0.003314633  0.036641034    1.6568278 
 3002000    397.10799   -7233.8003    3815.1964    360.97072   -3853.6197     11018.59 0.0033132476  0.036644261    1.6568234 
 3004000    389.50447   -7233.1901    3570.7229   -142.13864   -3919.6767    13294.449 0.0033139327  0.036640325    1.6566835 
 3006000    416.18956   -7233.0197    4180.0246   -974.38012   -2924.0196    10060.816 0.0033173623  0.036649488    1.6566836 
 3008000    407.48041   -7232.4208    3460.8603    2613.3579   -3028.6194    13858.114 0.0033159767  0.036642685    1.6567231 
 3010000      402.095   -7233.8529    3065.5824   -1801.2948   -2535.6841    10696.375 0.0033139626  0.036635568    1.6569256 
 3012000    373.87908   -7233.8074    1424.7037   -1300.8761   -3567.0205    10998.865 0.0033153537  0.036627705    1.6568624 
 3014000    402.61453   -7233.3472    491.56682   -1664.6716   -2091.2524    12096.652 0.0033194228  0.036629475    1.6567959 
 3016000    390.23829   -7233.9966     3885.033   -2102.6567   -1466.2748    11760.545 0.0033351859  0.036628778    1.6568055 
 3018000    424.19355   -7233.7525    5197.2073    -155.2529   -329.25609    14552.955 0.0033330938  0.036639885    1.6568368 
 3020000    359.99876   -7232.6268    3450.9597   -1655.3798   -4063.2417    14141.758 0.0033303586  0.036639695     1.656952 
 3022000    420.86067   -7235.0309    3097.1485   -1406.8764    36.583162    12046.911 0.0033414084  0.036632737    1.6570465 
 3024000    417.19635    -7234.051    2482.0365   -2742.7206   -3906.8488    11868.715 0.0033490538  0.036645417    1.6568873 
 3026000    397.01585   -7232.5083    1359.4738    874.99661   -650.26249    13396.308 0.0033522115  0.036642024    1.6568302 
 3028000    392.60478   -7234.8543    4396.1144     2757.792   -1773.1072    12622.865 0.0033498947  0.036631587    1.6570742 
 3030000    381.69817     -7233.47    2624.7928   -198.52863   -4816.7329    14820.858 0.0033494481   0.03662428    1.6571928 
 3032000    409.70016   -7233.9112    2256.4673    1545.8359   -903.21499    12104.369   0.00334676  0.036637773    1.6571349 
 3034000    412.33114   -7233.2778    3257.7371   -1471.7025   -2262.8943     14592.84 0.0033462402  0.036627009     1.656989 
 3036000    417.33966   -7234.1815    -38.82641   -1635.8083    -3452.967    14865.743 0.0033454121  0.036620464    1.6571107 
 3038000    403.82419   -7232.0783    3291.3181    107.98609   -1293.0598    10717.239 0.0033482539  0.036621343    1.6573485 
 3040000     400.6611   -7233.1364    3778.8033    1270.7629   -3990.9592    12758.591  0.003346186  0.036622698    1.6573215 
 3042000    399.83258   -7233.1342    3650.8752   -336.25582   -3080.4611    12943.517 0.0033465433  0.036630611     1.657304 
 3044000    392.50215    -7233.147      8539.85   -515.77392   -4536.0993    11485.504 0.0033539323  0.036630842    1.6572391 
 3046000    412.02864   -7234.6378    5776.1406   -275.01109   -3370.0223    10648.983 0.0033552221  0.036636444    1.6571242 
 3048000    406.64783   -7234.1839    3853.2493   -1023.4418   -1094.3963    10202.146 0.0033551974  0.036640821    1.6572309 
 3050000    380.61408   -7234.5413    3061.5279    140.56204   -3374.4261    12316.419 0.0033600301   0.03663626     1.657353 
 3052000    396.89827   -7233.4677    2564.5302   -3180.3448    258.57029    14261.856 0.0033586322  0.036632753    1.6573596 
 3054000    377.00052   -7234.0816     4895.171     1192.141    -3515.312    9902.0194 0.0033593929  0.036618736    1.6574116 
 3056000    400.09862   -7234.2638    2007.4238   -877.86659   -3493.8709    12781.297  0.003358459  0.036624687    1.6572616 
 3058000    432.53681   -7235.5616    3079.8964   -1003.7219   -2724.8727    11146.112 0.0033594791  0.036621035    1.6573999 
 3060000    374.58324   -7233.7235    5179.1135    944.33239   -740.04657    13617.007 0.0033581826  0.036644595    1.6574158 
 3062000    413.88695   -7233.6934    2211.7876   -1017.8218   -4289.8188    11554.161 0.0033576643  0.036648461    1.6574392 
 3064000    405.23569   -7233.7325    3359.5753   -1043.4513   -111.66448    14646.444 0.0033733029  0.036631351    1.6573943 
 3066000    393.47406   -7233.5005    3175.9221   -506.86153   -1422.6888    12071.449 0.0033769763  0.036643965    1.6574415 
 3068000    420.27833   -7233.5279    2494.3274   -1813.5858   -1061.3722    13237.413 0.0033730723  0.036623504    1.6575052 
 3070000    398.92922    -7235.027    3238.9964   -974.84265   -441.13234    13128.398 0.0033761024  0.036633475    1.6575932 
 3072000    413.77907   -7233.2636     3998.967   -660.01373   -713.70556    13102.993 0.0033747777  0.036647452    1.6576038 
 3074000    366.38002   -7234.5595     5057.793   -562.58364   -586.59701    13505.659 0.0033775977   0.03664815    1.6575699 
 3076000    388.58339   -7234.6392    5032.0469    -563.1587   -736.79678    13702.604 0.0033784275  0.036658546    1.6574814 
 3078000    389.87497   -7233.7386    1932.4514    457.03442    24.635947      17104.6 0.0033801934  0.036646225    1.6576262 
 3080000    381.12943   -7234.0074    1778.1091    1457.7968   -1599.6507    14845.342 0.0033782666  0.036643288    1.6576886 
 3082000    392.11476   -7235.6377    1442.0116    276.59556   -2712.0369        15732 0.0033759255  0.036653648    1.6576393 
 3084000    394.93068   -7233.3097    3958.2165    1984.7711    -1929.244    14093.858 0.0033809808  0.036648533    1.6577324 
 3086000    392.51949   -7233.6763    3741.0331    199.78226   -378.83414    15040.505 0.0033847002  0.036637587    1.6577414 
 3088000    402.20383   -7235.1137    2671.0079   -835.69503   -5344.5488    11780.638 0.0033850251  0.036631093    1.6578131 
 3090000    400.07329     -7234.41    3611.8335    -1620.302   -503.04623    12005.721 0.0033839578  0.036656197    1.6579528 
 3092000    437.62171   -7232.9097    3613.9637   -4440.9699   -2679.4481    10635.657 0.0033953144  0.036661642     1.657927 
 3094000    395.19787   -7234.1982    4358.9234    643.15233   -2038.6004     10847.67 0.0034043004  0.036661567    1.6579263 
 3096000     383.4338   -7234.5171    2707.8067   -3801.1246    748.02722     11204.69  0.003401872  0.036657836     1.657992 
 3098000     414.4197    -7232.922     2477.997   -380.44558    -610.2344    8835.7229 0.0034026418  0.036661824     1.657986 
 3100000    415.54911    -7234.387    2406.3543   -2598.3167   -145.39022    12657.501  0.003399699  0.036657585    1.6580083 
 3102000    384.17315   -7234.8194    3344.1321   -122.47077   -122.29898    11947.799 0.0034032703  0.036657926    1.6581052 
 3104000    396.39852   -7232.6672    4025.5772   -3694.9227   -1424.4341    12141.889 0.0034025001  0.036653141    1.6580912 
 3106000    416.69988   -7232.5165    2761.2175   -4531.6125    1131.8675    12821.651 0.0034000482  0.036658784    1.6580438 
 3108000    394.73471   -7233.0608    5373.4532   -1231.1745   -2324.3752    12998.386 0.0034077848    0.0366634    1.6581509 
 3110000    387.78622   -7234.4376     3479.302   -4603.8477   -979.85978    13704.106 0.0034094914  0.036657634    1.6582343 
 3112000    402.77283   -7234.8177    3775.3586     17.48261   -2590.6781    12153.535  0.003418069  0.036648435    1.6583198 
 3114000    395.61658   -7233.5325    6080.5729    79.465002   -2299.8037    12356.588 0.0034169934  0.036664968    1.6583297 
 3116000    406.56499    -7235.025    5753.1003    -567.9177   -1089.9962    13253.529 0.0034176202  0.036666496    1.6582655 
 3118000    396.79255   -7234.4615    3667.1249    1609.2039   -619.02686    10725.032 0.0034157219   0.03665246    1.6583987 
 3120000    392.93842   -7234.3326    4451.3062    -1559.684   -1463.2272    15416.649 0.0034144125  0.036638815    1.6584316 
 3122000    429.77368   -7233.8521    3878.6714   -339.24292   -1269.3214    14173.498 0.0034206274  0.036637353    1.6584547 
 3124000    404.17879   -7232.8527    2500.8021   -2443.6318    896.22415    14850.844 0.0034192963   0.03663584    1.6584584 
 3126000    418.41629   -7233.4387    3610.1145    2029.8106   -1442.9396    12229.995 0.0034242855  0.036623731    1.6586383 
 3128000    415.09065   -7233.6158     1749.272     1328.679   -974.18033    12769.851 0.0034234722  0.036636998    1.6586642 
 3130000    398.94443   -7232.8615    4540.3299   -120.15849   -1278.3673    13115.204 0.0034222956  0.036632445    1.6586831 
 3132000    412.82841   -7233.8562    3883.8957   -1268.4435   -1083.8924    11865.069 0.0034218837  0.036631468    1.6588859 
 3134000    439.42278   -7232.9264    3848.3484    193.76847   -2351.1702    12638.022 0.0034300217  0.036626852    1.6587725 
 3136000    419.78177   -7234.3568    4896.2171    675.71604   -862.01367    11939.543 0.0034319477  0.036628516    1.6588168 
 3138000    393.17303    -7233.887    3521.2273    642.62723   -3167.0129    12632.196  0.003435639  0.036621626    1.6588642 
 3140000    404.57968   -7233.4953    5669.6547   -27.198953   -2978.1807    11712.686   0.00343425  0.036622275    1.6588914 
 3142000    399.17396   -7233.2275    6119.2933    1979.6825   -4764.6299     11945.29 0.0034361322  0.036632479    1.6588647 
 3144000    404.32321   -7234.4847    2653.6813   -283.68942   -2997.8664    9398.0425 0.0034359831  0.036634946    1.6588644 
 3146000    414.01824   -7234.2421    1474.4782   -785.84861   -2884.6571    11154.971 0.0034396363  0.036648718    1.6588164 
 3148000    426.67115   -7233.9219    581.83191    575.24837   -1753.1692    9491.1044 0.0034427638  0.036644812    1.6588714 
 3150000     400.7839   -7232.6869    1958.6162   -2188.2781    89.294018    11341.102 0.0034422856  0.036639993    1.6589138 
 3152000     397.8153   -7232.4182    2386.9725   -637.07733   -1203.9237     11220.06  0.003441569  0.036633377     1.659005 
 3154000    417.03655   -7234.1474    2675.2456   -314.37705   -1796.4436    12058.757 0.0034454432  0.036621921    1.6589697 
 3156000    402.04908   -7232.8756    3981.3498    26.931878    679.32069    11977.885 0.0034415011  0.036617325    1.6589527 
 3158000    412.13263   -7233.7805    4852.3291    -1711.604   -2665.6126    11986.313 0.0034403721  0.036615013    1.6590075 
 3160000    385.15367   -7233.8583    5801.3134    44.340182   -3053.9507    11384.959 0.0034415824  0.036614685     1.659004 
 3162000    388.43951    -7233.174    3061.6797    296.63356   -572.41177    14375.463 0.0034432783  0.036619346    1.6590727 
 3164000    400.24685   -7232.7135    3387.1684   -2264.3854    -1192.681    11333.652  0.003448435  0.036610635    1.6591831 
 3166000    418.16474   -7233.2986    1980.8716    489.54137   -1669.2625    13443.169 0.0034546878  0.036604656    1.6591418 
 3168000    419.96745   -7233.5286    4394.2524   -1249.1112   -3316.6864    17095.719 0.0034550668  0.036625219    1.6592094 
 3170000    390.30317   -7233.6792    4142.1849   -2794.0052   -759.35507    12291.195 0.0034531517  0.036629948    1.6593008 
 3172000    407.39592   -7233.8751    2872.7596   -1417.7899   -2215.8157    11957.297 0.0034540597  0.036615048    1.6591772 
 3174000    414.29972   -7233.2872    2848.7122    9.1966833   -1415.2573    15330.443 0.0034518243  0.036611116    1.6593281 
 3176000    400.95179   -7233.4886    3432.1452    -307.8712    -2083.203    11716.199 0.0034495911  0.036613481    1.6593948 
 3178000    374.55327   -7235.0782    1702.2038    -2404.596   -1907.7517    15036.876 0.0034487922  0.036602946    1.6593434 
 3180000    421.43767   -7233.8194    1968.4634   -211.06938   -1525.9377    10921.349 0.0034635865  0.036597263    1.6594662 
 3182000     415.8555   -7234.2267     1943.043   -313.79601   -3488.9169    11769.528 0.0034663327  0.036602616    1.6594389 
 3184000    448.50183   -7234.6645    1465.7634   -1218.6028   -2289.8472    14569.608 0.0034765991  0.036604492    1.6594928 
 3186000    414.91562   -7233.5181    161.51977    698.42464   -4260.6881    11079.436 0.0034733164  0.036622977    1.6595793 
 3188000    404.99499    -7232.532    -457.4272   -1768.3634    -1985.951    14858.132 0.0034717783  0.036638754    1.6594765 
 3190000    389.40811    -7232.892    865.91957   -1624.0245   -1240.1126    12475.824 0.0034706997  0.036624012    1.6594921 
 3192000     402.4409   -7234.4821    1669.5242   -2350.8653   -1316.0926    16709.614 0.0034684171  0.036617667    1.6594878 
 3194000    382.83267   -7234.3416    1620.7275   -1595.6866   -3920.7184    14125.243 0.0034732847  0.036605149    1.6595212 
 3196000    400.11083   -7233.6665    1886.4839    855.56221   -1277.4788    12674.071 0.0034785009  0.036598106    1.6596442 
 3198000    408.49115   -7233.9664    1217.2936    431.67876   -3879.4382    12794.924 0.0034748168  0.036589101    1.6595908 
 3200000    402.64637   -7234.3345    4430.4858   -187.53944   -780.45328    9934.0643 0.0034733188  0.036593512    1.6597443 
 3202000    387.45012   -7234.8142    3035.9789   -1177.8355   -2742.0335    13060.619  0.003473115  0.036623668     1.659678 
 3204000    404.88323   -7234.8134    4713.9751   -1459.7724    -1391.978    12770.322 0.0034710072  0.036627347    1.6596652 
 3206000    393.05548   -7234.7484    5185.8767   -620.16244    1065.6364    11056.164 0.0034769036  0.036615643    1.6596889 
 3208000    380.12183   -7233.4414     7380.839    2792.4169   -2249.8961    14342.911 0.0034800435  0.036605783     1.659703 
 3210000    391.91077   -7233.6349    3937.5148   -630.45443   -2108.8256    13170.602 0.0034952076   0.03659994    1.6598255 
 3212000    423.79085   -7233.7877    4655.8195    1866.7097   -1031.6966    12397.548 0.0034940986  0.036603454    1.6597902 
 3214000      425.098   -7232.7019    4772.9414    3146.7487   -1902.3066    11778.308 0.0034911176  0.036612393    1.6598628 
 3216000    413.91968   -7233.7881    7022.0963   -17.253578   -282.64472    9334.8999 0.0034890917  0.036609926    1.6598466 
 3218000    440.29027   -7233.0378    2974.3316      1620.31   -159.48676    12393.036 0.0034885771  0.036600544    1.6598307 
 3220000    401.51435   -7235.5094     390.0294   -1915.7295   -3974.6382    11662.543 0.0034948625  0.036601909    1.6599035 
 3222000    410.14304   -7233.6174    3118.0942   -852.38688   -777.35659    10197.773 0.0035038491  0.036617839    1.6599062 
 3224000    385.69818   -7234.6596    3386.7908   -2473.1293    -2082.672    12146.948 0.0035035695   0.03661046    1.6598235 
 3226000    407.73884   -7232.0701    3717.6179   -2243.1208   -252.96029     11741.53 0.0035026739  0.036603463    1.6599021 
 3228000    403.29599   -7235.6968    3717.0519    -1576.912   -1949.2965    12403.074 0.0035008233  0.036602075    1.6599151 
 3230000    424.27989    -7233.188    5052.6936   -4776.3878   -2337.6971    11129.867 0.0034997043  0.036600183    1.6599671 
 3232000    389.03222   -7234.6867    2754.7112   -1379.4619   -2766.3632     11415.32 0.0035026158  0.036607134    1.6599969 
 3234000    401.34465   -7234.1453    5291.4639     441.0929   -2854.0207    12941.411 0.0035056116  0.036602835    1.6600536 
 3236000    433.30298   -7234.3292    5296.3828   -584.64098    -2962.752    13964.055  0.003504847  0.036605634    1.6600102 
 3238000     386.5973   -7233.4738    6424.3711   -1400.2885    -2766.042    11962.006 0.0035035279  0.036607027    1.6601633 
 3240000    391.42628   -7234.0634    4519.4407     1061.952   -1878.4972     12940.83 0.0035116976   0.03660586    1.6601923 
 3242000    394.13039    -7233.064     2995.562    306.25171   -1140.5478     12696.52 0.0035119933  0.036597221    1.6601778 
 3244000     397.9237   -7232.9488    5621.9155   -132.29816    -1246.992    13817.273 0.0035143707  0.036602247    1.6601692 
 3246000    375.16585   -7234.3508    5856.7997   -382.16257    -2496.817    12519.097 0.0035128343  0.036594182    1.6602038 
 3248000    384.62192   -7234.1717    3941.7497   -439.32988   -1512.1906    13887.711 0.0035117894  0.036590548    1.6602433 
 3250000    414.54392   -7235.4009    4791.0168   -609.73508   -3366.7059    12163.446 0.0035097272  0.036588368    1.6602481 
 3252000    401.84367   -7235.1178    3582.9256   -3372.3135   -520.11681     14333.14 0.0035147494  0.036596765     1.660248 
 3254000    422.43892   -7233.4695    4159.6212   -1365.0182   -2282.2341    14043.308 0.0035279711  0.036611787     1.660279 
 3256000    407.27551   -7234.7635    4105.6783   -888.21622   -1639.8453    12369.875 0.0035278338   0.03661901    1.6602994 
 3258000    409.98247   -7233.1326    3573.4152   -2590.6617    810.72229    12191.131 0.0035335095  0.036614278    1.6604197 
 3260000     377.6642   -7233.9025     4943.205   -4160.6114   -4611.2662    13663.429 0.0035349927  0.036609824    1.6603596 
 3262000    413.15649   -7234.3847     7005.639    171.74315     -178.741    11209.636 0.0035360361  0.036610398    1.6602826 
 3264000     397.2835   -7234.0446    6233.4191   -3336.1733   -3094.9097    14239.269 0.0035334958  0.036606404    1.6602743 
 3266000    386.71178   -7233.0994    3684.3635    -99.88503   -3952.1907    13457.787 0.0035323587  0.036615317    1.6603267 
 3268000    404.03795   -7233.3464    2942.4799    -2473.873    726.23786    11491.379  0.003536674  0.036617924     1.660386 
 3270000    406.93921    -7233.735    4434.7724    -674.9714   -427.96722    13227.412 0.0035474369  0.036602877    1.6603875 
 3272000    406.76602   -7232.3625    2558.5677   -738.26388   -2989.8284    13424.744 0.0035503898  0.036598814    1.6604199 
 3274000    382.39331     -7233.37    4745.1357    31.149924    494.70816    10686.103 0.0035512516  0.036597142    1.6605089 
 3276000    392.69745   -7233.6097    4235.0116    -109.6979   -5475.0991    12800.311 0.0035496031  0.036590594    1.6604457 
 3278000    380.72412   -7232.9581    5999.2903    472.07389   -3612.6365    11437.369 0.0035479277  0.036610564    1.6604737 
 3280000    407.31657   -7233.7359     4172.024    -1640.567   -2635.3697    11686.693 0.0035457161  0.036608878    1.6604722 
 3282000    404.69882   -7235.4208    4221.4736   -1675.7838   -2221.9149    12627.481 0.0035582711   0.03660724    1.6604695 
 3284000    409.90896   -7234.0603    3596.4464   -691.11578   -1351.5436    12098.105 0.0035646109  0.036597343    1.6604323 
 3286000    386.88729   -7233.8492    1850.0543   -1767.7265   -591.17592    13488.803 0.0035642867  0.036606799    1.6606267 
 3288000    385.20792   -7233.9672    5318.4343   -585.79663   -2641.2752    11042.432 0.0035640674  0.036593198    1.6607059 
 3290000     412.1895   -7234.2382    641.78176   -2065.0463   -550.13692    13144.416 0.0035631319  0.036584406    1.6606426 
 3292000    448.67755     -7233.74    4333.3611    3002.3705   -3428.3523    11242.178 0.0035614142  0.036591086    1.6606276 
 3294000    390.81728   -7234.2727     3804.765    1647.9611   -3627.1643    11046.719 0.0035599341  0.036600256    1.6605611 
 3296000     382.2689   -7233.9088     1728.425    629.19394   -48.998897    12406.999 0.0035572213  0.036590519    1.6605514 
 3298000    397.58959   -7234.7028    3218.6281     889.4596   -2010.2364    10111.392 0.0035560608  0.036579379    1.6606038 
 3300000    414.45985   -7235.1451    1209.5033    127.05063   -862.88066    13195.064 0.0035542885  0.036566941    1.6606514 
 3302000    390.90857   -7232.4755    4134.5627    1442.2241   -1563.0698     11335.09 0.0035520821  0.036563883    1.6608151 
 3304000    384.13453   -7233.8553    5573.4881   -1278.5395   -3021.5681    12362.168 0.0035595251  0.036571522    1.6608182 
 3306000    418.80622   -7235.8566    5640.6175   -798.53815   -2047.0456    12484.326 0.0035653915  0.036576085    1.6607424 
 3308000    407.08386   -7232.8595    3070.7833    204.09973   -4494.5595    13149.646 0.0035790998  0.036612344    1.6608445 
 3310000    408.78246   -7234.7604    5458.2232   -148.72499   -2591.8778    13629.367 0.0035730256  0.036630505    1.6609532 
 3312000    381.32463   -7233.7641    2816.3225   -1542.8357   -3170.8891    12639.055 0.0035715377  0.036629298    1.6609542 
 3314000    408.92621   -7233.7793    2239.7024   -582.00196   -2555.2762    12343.478 0.0035828268  0.036617767    1.6608596 
 3316000    405.83551   -7234.5528    3568.9424    1169.5511   -2046.2571    10960.507 0.0035889254  0.036607088    1.6608109 
 3318000    376.21414   -7234.6119     3449.008    1106.8099    -1862.746    13409.881 0.0035847337  0.036604031     1.660889 
 3320000    415.04176    -7235.022    6154.6229   -365.89796   -2171.5328    11975.599 0.0035815502    0.0365988    1.6610636 
 3322000    406.28159    -7234.298    3139.9916    142.59957    -2035.786    12811.217 0.0035901678  0.036596578    1.6610389 
 3324000    400.81946    -7233.763    4969.0674   -1578.3136   -2980.0196    14448.872 0.0036071058   0.03660818    1.6610457 
 3326000    443.49778   -7233.6072    2165.2898   -947.72402    677.50536    12242.269 0.0036124403  0.036628567    1.6610749 
 3328000    383.19423   -7233.7923    6076.8562   -220.58416   -2575.5134    12935.604 0.0036124719  0.036624789    1.6609973 
 3330000    397.21616   -7234.2257    3994.5164   -961.37241    879.24628    13752.242 0.0036113734   0.03661757     1.661148 
 3332000    402.12234   -7234.9148    3725.1086   -625.29544   -796.73266    13851.424 0.0036101397  0.036617044    1.6612516 
 3334000    410.14079   -7232.8873    4290.0402   -3019.7227   -325.28508    10567.598 0.0036184773  0.036621186     1.661196 
 3336000     380.0668   -7233.4574    2533.7385    2856.5921   -2430.8227    12572.287 0.0036236943   0.03662523    1.6611948 
 3338000    406.70358   -7232.8337    1957.3429    987.23903    420.15565    13222.311 0.0036213193  0.036635018    1.6612051 
 3340000    407.77602   -7234.6821    2935.9211    625.36069   -1061.2156    11194.505 0.0036193923  0.036630108    1.6613249 
 3342000    379.21272   -7234.0467    2346.5294   -690.29116   -1868.0654     13485.07 0.0036180283  0.036622425    1.6613519 
 3344000    384.40628   -7234.0574     3331.335   -300.72349   -1422.9125    15245.675 0.0036228006  0.036606604    1.6612911 
 3346000    409.23807   -7234.6391    3529.5985    1184.0132   -4279.9873    12726.375 0.0036281975  0.036613538    1.6612241 
 3348000    396.41719   -7231.9803    4151.5787   -33.487115   -2735.7457    14006.812 0.0036277431   0.03661648    1.6612674 
 3350000    410.24532   -7236.3463    4428.0206    990.11265   -3518.7533    10709.898 0.0036299543  0.036616302    1.6613816 
 3352000    405.52037   -7235.0768    1663.4562    1073.5747   -2529.4588    10599.728 0.0036297807  0.036636033    1.6613963 
 3354000    409.41262   -7233.5041    2878.2297   -1385.1298   -1918.7451    11619.075 0.0036326628  0.036646286    1.6612662 
 3356000    402.57196   -7233.9364    2765.7362     -765.055   -679.24976    11993.164  0.003637389  0.036630765    1.6612734 
 3358000    401.84967   -7233.0294    145.56433   -2584.4815   -2240.8296    13706.256 0.0036354566  0.036616635    1.6613889 
 3360000    415.37797   -7235.2411   -262.42532   -547.19572   -3350.2651    13288.562 0.0036332503  0.036608822    1.6615174 
 3362000    390.15472   -7233.2948   -1452.6975   -148.55954   -1429.8698    11355.037 0.0036388271  0.036620524    1.6615869 
 3364000    379.00089   -7234.4993    1728.4198    775.14025   -5038.0827    13077.792 0.0036484271  0.036622995    1.6614672 
 3366000    408.61598   -7234.2833    1097.1334   -539.82342   -2428.5467    13725.004 0.0036515269  0.036631267    1.6615153 
 3368000    419.60191   -7233.1736    4231.1562   -370.26159    -3685.132    15237.052 0.0036497937  0.036644036     1.661523 
 3370000    399.14567   -7233.5272    2989.2956   -822.71397   -2615.4786    13568.068 0.0036478902   0.03664091    1.6616376 
 3372000    387.99929    -7231.789    2700.5354   -2797.0584   -800.74638    13686.651 0.0036556617  0.036638131    1.6615833 
 3374000    369.62345   -7233.2572    3945.7705   -4380.8111   -685.84413    13569.861 0.0036697209  0.036630762     1.661587 
 3376000    388.59865   -7234.6384    3935.7909   -591.86116    104.52949    11888.492 0.0036752162  0.036630301     1.661795 
 3378000    391.94585    -7233.728    6331.0528   -85.759614   -802.27495    10489.712 0.0036723366  0.036621585    1.6618066 
 3380000    416.03053    -7234.431    1859.9897    1059.9579   -3546.2346    11734.925 0.0036703864  0.036618833    1.6618449 
 3382000    403.97099   -7233.6367     3118.851   -1302.5177   -1540.0395    9974.2037 0.0036709337  0.036625237     1.661895 
 3384000    405.36414   -7233.5031    3950.2919    382.70754   -1661.0592    8963.2826  0.003676629  0.036633451    1.6617105 
 3386000    375.33066   -7232.9903     2632.705    -156.5226   -1526.0538    13353.008 0.0036803768  0.036627793     1.661784 
 3388000    388.51656   -7233.5312    4404.7289   -1186.2925   -1640.6049    12196.481 0.0036805732   0.03662896     1.661899 
 3390000    402.43423   -7235.8083    3642.4124    24.309625   -2921.8814    13970.277 0.0036788367  0.036629027    1.6620666 
 3392000    374.20745   -7233.5041    1700.6558   -1218.9755   -2186.5056    11629.515 0.0036861505  0.036628748    1.6620149 
 3394000     397.7992   -7234.6915    3058.9172    825.29085   -4120.2123    10981.825 0.0036836207  0.036631845    1.6618757 
 3396000    373.08403   -7232.5785    3499.3969    2447.5355   -1454.6894    14347.377 0.0036817915  0.036619418    1.6618519 
 3398000    422.11047   -7233.5761    3152.2272   -420.95442    68.852496    10966.714 0.0036805694  0.036615893    1.6620042 
 3400000    419.36509   -7233.8036    1543.6664   -1021.5119   -3161.1304    15127.727  0.003682333  0.036605091    1.6620677 
 3402000    401.93008   -7233.3528    1863.3371   -949.80873    1869.1538    13147.296 0.0037045708    0.0366154    1.6620453 
 3404000    397.73208   -7234.0157    1354.1008   -1807.6997   -3295.3739    12466.149 0.0037164866   0.03661967    1.6620123 
 3406000    414.74758   -7234.1648    2035.7257   -2103.5787   -900.79023    10683.859 0.0037165353  0.036634654    1.6621051 
 3408000    404.76128   -7233.0517   -645.77293    1454.1368    874.77542    12771.317 0.0037143454  0.036631549    1.6621492 
 3410000    391.03828   -7234.1454    763.25172   -3766.8477   -3017.1802    11226.365  0.003712815   0.03662455    1.6621773 
 3412000    419.64623   -7233.4959   -805.79399   -346.76168   -508.48042    11254.801 0.0037136778  0.036619068    1.6621149 
 3414000    402.45329    -7234.506    961.26437   -1723.2848   -1974.2514     11563.66 0.0037127227  0.036620429     1.662117 
 3416000    369.98048   -7234.6828   -32.046005    -1358.675   -1384.7843    12684.873 0.0037156864  0.036609241     1.662149 
 3418000    391.69506   -7234.0308    3017.8811   -600.76761    44.345791    13616.314 0.0037131922  0.036604557    1.6623113 
 3420000    429.53332   -7234.2019    3104.9902   -2410.9965   -5450.9426    11388.579 0.0037121012  0.036597328    1.6623721 
 3422000    405.02244   -7233.7802    2994.2699   -1823.4907   -1338.8444    12454.949 0.0037173026  0.036606569    1.6622773 
 3424000    400.96793   -7232.5826    6552.5283    -3533.948   -1059.2175    9339.2742 0.0037217895  0.036610947    1.6622992 
 3426000    403.22567   -7233.7415    5416.0809   -1838.0714   -1396.7623    10601.938 0.0037219961  0.036612881    1.6623852 
 3428000    415.17952   -7234.2048    6319.8455   -1909.2727   -461.23134    10137.925 0.0037196983  0.036606115     1.662462 
 3430000     394.6903   -7234.3228    5422.7328   -2243.2975   -1023.0863    12130.799 0.0037254333  0.036607381    1.6625388 
 3432000     398.0671   -7234.7927    3483.1076   -611.88367   -571.98839    11711.652 0.0037261526  0.036601789    1.6624772 
 3434000    365.57607   -7233.5003    5395.4705   -2012.3868   -484.31558    13235.825 0.0037272452  0.036605345    1.6624692 
 3436000    388.38967   -7232.2386    1878.2354   -2495.5919   -28.659311    15128.226 0.0037310053  0.036603375     1.662619 
 3438000    407.19968   -7235.3873    4305.4673    916.27045   -1492.3288     10669.81 0.0037310023  0.036601746    1.6626384 
 3440000    405.70465   -7231.9046    2305.3512   -1784.7558   -2438.9925    14180.318 0.0037307015  0.036602625    1.6626291 
 3442000    389.99131   -7235.5311    6124.7564   -3122.6165   -1269.4763    12442.185  0.003730712  0.036612177    1.6626349 
 3444000    401.08738   -7233.8202    3114.3535   -271.54162   -1024.4058    12321.591 0.0037388898  0.036601455    1.6626382 
 3446000    393.25921   -7233.0409     5395.047   -1076.3753   -2584.0901     13861.31 0.0037386137  0.036602224    1.6626816 
 3448000    410.82304   -7233.6443    979.01044    -1712.757    -1633.469    13879.624 0.0037363914  0.036603158    1.6627494 
 3450000    381.08358   -7235.0407    5106.6781   -682.16403   -1696.7525    13692.012 0.0037379054  0.036594309    1.6628839 
 3452000    378.23404   -7233.9076    5321.1238   -3477.4345   -2979.9135    11643.284 0.0037413418  0.036597531    1.6628488 
 3454000    420.01043   -7233.4065    3234.4472   -29.563232   -2409.3317    13100.771 0.0037435496  0.036610562    1.6628536 
 3456000    399.59471   -7233.3972    2314.7096    -1562.108   -2283.2708    12753.264 0.0037414377  0.036620178     1.662982 
 3458000     384.5819   -7232.3409    3475.6464    253.60476   -1417.8248    11744.775 0.0037462502  0.036622997        1.663 
 3460000    400.43197   -7234.0829    1325.8496   -2409.7975    281.68721    13761.361 0.0037476094  0.036609337    1.6630532 
 3462000     400.3523   -7233.9987    4252.6469   -845.89827    637.33266    11358.786 0.0037512585  0.036607646    1.6631176 
 3464000    386.19146   -7235.0001    3130.4191   -3439.9386   -1036.5521    12102.922  0.003748507  0.036601196    1.6631155 
 3466000    402.68197   -7234.1936    3068.8891   -2083.7758   -1165.5821     10771.96 0.0037484897  0.036599873    1.6631031 
 3468000    413.64445   -7233.9025    3248.1174   -1286.5043   -2314.1987    13370.058 0.0037484342  0.036604592    1.6630358 
 3470000     399.3813   -7233.0975    4266.3134   -106.95436   -2515.4091     11326.25 0.0037477178  0.036616741    1.6630555 
 3472000    401.28321   -7234.9444    3861.2677   -694.24586   -401.77518    11740.396 0.0037479296  0.036632408    1.6630288 
 3474000     406.1516   -7234.3508    2911.3511   -371.26962   -2589.4017    12916.598 0.0037555529  0.036617235    1.6631362 
 3476000    419.82868   -7232.9496     1219.278   -1316.9486   -2596.4291    13840.948 0.0037709931  0.036606994    1.6632221 
 3478000    425.44702   -7234.4736    2947.5115    620.44678   -3699.6479    12949.607 0.0037716788  0.036616391     1.663293 
 3480000    357.97071   -7234.5285    4785.8178    283.71706   -3562.3505    13398.866 0.0037725449  0.036620041    1.6633132 
 3482000     400.4849   -7233.8104    4509.3814   -589.46495   -1616.7976    12117.154 0.0037716776  0.036624066    1.6632413 
 3484000      369.498   -7233.3651    4194.2721   -1472.4135   -940.82275     10558.98 0.0037729919   0.03661475    1.6632703 
 3486000    392.27141   -7234.7414    2698.0414   -418.29965   -2309.7947    13189.986 0.0037706015  0.036614218    1.6633064 
 3488000    422.38146   -7234.6445    2391.5572   -2314.4937    -520.0005    9548.3403 0.0037737925  0.036628204    1.6634245 
 3490000    408.29034    -7235.429    3011.2683   -2216.7321   -3291.3913    10941.882  0.003781248   0.03662935    1.6633384 
 3492000    376.91034   -7232.5857    3003.9735   -704.09163    -1288.946    11084.562 0.0037874261  0.036626044    1.6634029 
 3494000    398.87615   -7233.0983     4689.274   -620.76753   -2581.4873    11934.482 0.0037935222    0.0366154    1.6634368 
 3496000    393.29689   -7233.8881    4786.2163    549.43107   -2797.7809    12483.316 0.0037896444  0.036617819    1.6634394 
 3498000    363.06804   -7233.6987    3555.2101   -806.89133   -2468.9756    13242.321 0.0037873748  0.036615634    1.6634057 
 3500000    406.96003    -7233.526    4652.2575    1132.4488   -2507.0048    11462.517 0.0037860051  0.036613056    1.6634456 
 3502000     420.1962   -7233.9165    3874.7991   -1587.4326   -2843.8976    12408.047  0.003785886  0.036619294    1.6633914 
 3504000    387.08747   -7233.9127      3816.61    -3354.077    491.26116    12425.267 0.0037961381   0.03660815    1.6634278 
 3506000     410.0735    -7234.593    2718.2755   -863.67567   -2817.7354    10706.829 0.0038036797  0.036602423     1.663599 
 3508000    404.11798   -7233.3017    2163.1057    1394.3925   -1114.4844    12734.323 0.0038099982  0.036607406     1.663687 
 3510000    405.55856   -7234.1872    4327.2093    763.18791   -2164.9652    9747.1766 0.0038067411  0.036616934     1.663714 
 3512000    387.08795   -7233.9526    3412.5998   -1312.4045   -2219.2847    13052.412 0.0038058195  0.036622136    1.6636306 
 3514000    405.27122   -7233.0029    4342.6559   -1699.6252   -257.43878    13183.424 0.0038113543  0.036624637    1.6637401 
 3516000    405.86262   -7233.4267    2809.3166   -1019.5627   -1742.6896    14012.312 0.0038108833  0.036614431    1.6637257 
 3518000    388.30758   -7233.5536    1789.0136   -174.63179   -2021.3086    11635.995 0.0038190278  0.036605919     1.663812 
 3520000    394.08281   -7232.9943    1415.3895   -363.08452   -3064.4878     12029.18 0.0038221313  0.036617055    1.6638838 
 3522000    389.89532   -7233.5375    2497.7577   -1963.3779     -309.108    12051.413  0.003820419  0.036618628    1.6638782 
 3524000    406.40401   -7231.3821    445.65407     23.07464   -3969.4079    12003.445 0.0038205031  0.036610377    1.6638879 
 3526000    383.36725   -7233.8449   -477.28592    727.88619   -2308.6179    11813.402 0.0038193591  0.036607185    1.6639429 
 3528000     432.6415   -7234.4068     1788.627    132.99617   -567.77897    12392.608 0.0038157941  0.036606736    1.6639893 
 3530000    386.06839   -7232.5555    1215.7578    1021.8924   -2860.7676    10662.463 0.0038130589  0.036601022     1.663999 
 3532000    366.86563   -7233.6454    962.06106    -492.3048   -3542.0847    15180.014 0.0038124982  0.036590503    1.6639611 
 3534000    399.10693   -7233.6625    1563.8696    504.68139      -2386.3    11045.075 0.0038121825  0.036595537    1.6640231 
 3536000    383.77099   -7234.8466    2021.4062   -3171.3883   -3180.3252    12380.776 0.0038115134  0.036593478     1.664059 
 3538000    395.47306    -7233.329     1694.414   -2472.2272   -1774.9986    9164.9947  0.003822454  0.036594425    1.6641047 
 3540000    422.87331   -7235.7845     2332.854      113.304   -4059.6867    11707.397 0.0038220497  0.036595947    1.6640314 
 3542000    385.43879   -7232.8117    3219.1268   -857.40527   -1308.8162    13017.822 0.0038207996  0.036603404    1.6640392 
 3544000    424.08671   -7232.7765    3609.8757   -757.12658   -1681.2123    11083.301 0.0038190449  0.036607341    1.6640975 
 3546000    391.54289   -7233.7337    2595.5142   -2174.8535   -1106.2504    14935.139 0.0038182042  0.036598432     1.664077 
 3548000    397.82224   -7233.8112    3597.2314   -1804.2633   -1388.0589    11705.091  0.003815788  0.036597904    1.6642045 
 3550000    422.33586   -7234.7635    3267.3551   -1190.3872   -702.94324    13636.663 0.0038160167  0.036589974    1.6641678 
 3552000     401.3485   -7233.2327    4487.0756   -771.69191   -407.32802    10822.153 0.0038174877  0.036575468    1.6642089 
 3554000     407.1877    -7233.347     2075.929   -895.83795   -2969.3508    13591.897 0.0038177449  0.036573153    1.6641756 
 3556000    432.29092   -7233.8408    5718.7077    1193.5791    -721.8072     9755.766 0.0038186739  0.036578137    1.6642178 
 3558000     374.6794   -7234.0116    1840.2584    390.91627   -809.46955    11599.117  0.003818522  0.036592169    1.6641484 
 3560000    366.20036   -7233.7161    5910.4897    1980.3732   -816.03521    11010.496  0.003816566  0.036590467    1.6641565 
 3562000    414.31706   -7235.0058    3514.8574   -1667.7154   -1065.5978    15060.675 0.0038227172  0.036582786    1.6642336 
 3564000    425.95001   -7233.2105    2827.1006   -1941.8226   -2136.9564    11615.991 0.0038286848  0.036586076    1.6643223 
 3566000    384.20608   -7234.2576    5298.6717    979.03024   -795.69405    11552.122 0.0038344084  0.036591523    1.6642987 
 3568000    378.39899   -7233.7588     4270.611     1520.497   -2539.5035    14887.765 0.0038393077  0.036592372    1.6643971 
 3570000    387.16761   -7234.1543    5376.3425    2082.8162   -1946.4088    12240.169 0.0038357399  0.036578379    1.6644308 
 3572000    388.79267   -7233.1901     1461.767   -800.27935   -2659.1377    10769.412 0.0038332127  0.036582403    1.6643696 
 3574000    392.14195   -7233.1704     3612.473   -31.517736   -2907.4176    13983.501 0.0038317063  0.036599292    1.6643753 
 3576000    399.27829   -7233.6861    2786.7463   -3804.6232   -174.25699    12139.393 0.0038375186  0.036602654    1.6644285 
 3578000    373.43674   -7233.9062     436.6643   -609.12086   -1948.8831    15072.909 0.0038436924  0.036599645    1.6645017 
 3580000    394.62347   -7234.2537    2351.8778   -4158.4179    -995.2422    14182.338 0.0038493509  0.036583915    1.6646416 
 3582000     399.3475   -7233.9743    2966.9052    98.026277    -2637.437    9050.8951 0.0038469586  0.036576838    1.6647148 
 3584000    392.42081   -7233.5655     1432.131   -656.71228    -1980.552    12698.601 0.0038470018  0.036581395    1.6646353 
 3586000    406.09046   -7233.9005    3716.0921    -3501.727   -333.50494    11647.946 0.0038527396  0.036582663    1.6646626 
 3588000    454.07696   -7233.0784    4726.1309    200.58628   -3283.8135    13773.471 0.0038513883  0.036577463    1.6647564 
 3590000    398.08049    -7232.219    4978.6826   -3151.5066    314.18483     12210.86 0.0038511404  0.036595118    1.6647589 
 3592000    379.09635   -7235.0781    2745.6271   -2510.8777   -3356.5884     12455.05 0.0038536918    0.0365871    1.6647507 
 3594000    406.06669   -7233.4422    3504.6355   -3496.1412   -3899.1882    12568.926 0.0038628609  0.036585415    1.6648086 
 3596000    346.19043   -7234.6123    5101.7844    887.25173    -3660.771    11428.015 0.0038693038  0.036582136    1.6648213 
 3598000    402.05563   -7233.5804    4076.0682   -248.12394   -1366.8732    14258.261 0.0038672304  0.036594399    1.6647585 
 3600000    405.44045   -7234.0329    6341.3084    511.47801   -1826.3418    13168.459 0.0038657441  0.036583603    1.6648958 
 3602000    391.80451   -7233.6987    4479.7974     305.7381   -3799.1211    9050.9495 0.0038668451  0.036579267    1.6649368 
 3604000    386.82913   -7234.6411     3549.336   -643.39753   -2101.4381    12620.592 0.0038663856  0.036590675    1.6648494 
 3606000    419.32743   -7233.8726    4703.5653    3053.2242   -3412.1945    11326.392 0.0038721244  0.036581893    1.6648896 
 3608000    387.89626   -7233.1499    6027.3588    1125.7504   -2626.7052    11731.002 0.0038693128  0.036578152    1.6648783 
 3610000    387.09792    -7232.547    3874.6682    -605.4004   -1077.7652    10828.397 0.0038696136  0.036569869    1.6650535 
 3612000    382.68081   -7233.5239    4248.5231   -2275.1727   -904.24694    12935.231 0.0038719366  0.036575951    1.6650953 
 3614000     428.9124   -7232.9597    2055.4502   -2532.4412   -1803.0077    9339.6861 0.0038719451  0.036581426    1.6650787 
 3616000    382.98268   -7234.1537    1769.1668   -1385.3682   -3311.4084    13938.018  0.003886021  0.036583905    1.6650337 
 3618000    384.26706   -7233.3333    4588.6715   -3096.8472   -276.45449    12354.488 0.0038793868  0.036595552    1.6650354 
 3620000    409.32828   -7235.2132    2527.2555   -835.25021   -713.85296    15016.982 0.0038805749  0.036583808      1.66511 
 3622000    375.72876   -7234.0339    4260.2872   -2214.8404   -238.74595    11331.169 0.0038784906  0.036576921    1.6651669 
 3624000    382.14389   -7235.0555    2220.0823   -1492.0911   -208.86209    14142.958 0.0038772611  0.036581589    1.6651303 
 3626000    369.08065   -7233.1657     3173.038   -2643.7304   -2330.3109    13884.193 0.0038842018  0.036567369    1.6651672 
 3628000    390.66926   -7233.2485    1683.8791   -1544.8515   -2857.8649    12597.995 0.0038859577  0.036571325    1.6651879 
 3630000    367.82077   -7234.6645    2801.7822   -1669.4028   -724.28699     15058.89 0.0038843995  0.036585718    1.6652249 
 3632000    380.42059   -7233.4217    3133.0132   -215.88495   -1638.3657    11722.712 0.0038819417  0.036582913    1.6653524 
 3634000    398.81061   -7234.0058    2360.7538   -537.72236   -1514.3861    10332.068 0.0038799118  0.036566727    1.6653392 
 3636000    371.94601   -7232.8243    2823.7991   -580.10861   -3851.2595    16184.301 0.0038825514  0.036569374    1.6652916 
 3638000    385.26262   -7233.8004    2754.9188   -823.71126    -1290.469    14322.384 0.0038871827  0.036586359    1.6654082 
 3640000    408.80171   -7234.1414    4029.8914   -1539.5658   -2445.3783    12640.004 0.0038892359  0.036588807    1.6654645 
 3642000    405.49183   -7234.8925    6649.8248   -828.70093   -1742.6745    13136.524  0.003893866  0.036570486    1.6655036 
 3644000     408.3058   -7234.1127    2539.4715    1079.8732   -1709.7734    10909.053 0.0038935354  0.036576597    1.6655149 
 3646000    417.00256   -7233.6857    6003.1003    66.675144   -2613.8364    10744.171 0.0038915097  0.036573757    1.6654871 
 3648000     395.5123   -7231.4984    3263.1495   -807.21999   -1247.7852    11544.549 0.0038922056  0.036567186    1.6655384 
 3650000     390.2129   -7234.4843    3064.7723    1721.3434    -1820.542    11995.404  0.003891843  0.036574407    1.6655636 
 3652000    405.96293   -7233.0118     743.2352   -2571.6031   -1127.5117    11961.456 0.0038923979  0.036570091    1.6656048 
 3654000    405.69188   -7233.4688    903.09005   -2132.6064    -629.9673    13965.888 0.0038980861  0.036562863    1.6657088 
 3656000    427.49722   -7233.7921    2246.2865   -1945.1193   -1746.1899    12243.105 0.0039051756  0.036563159    1.6657556 
 3658000    417.43331   -7233.7021    3987.5639   -134.51335   -2064.4493    13705.562 0.0039063943  0.036564095     1.665709 
 3660000     451.8571    -7231.782    2575.3809    189.54391   -1322.1333    15141.884 0.0039042622  0.036574165    1.6656998 
 3662000    404.49032   -7233.5962    5222.6278   -204.92542   -2644.0005    15126.739 0.0039021569  0.036574972    1.6656978 
 3664000    392.35364   -7233.6931    3235.1395   -1120.5546     535.6219    11657.293 0.0039091768   0.03656838    1.6657691 
 3666000    407.31516   -7233.5329    4179.6213   -793.48339   -731.59853    13198.544 0.0039111853  0.036558846     1.665761 
 3668000    422.14976   -7234.1155    2885.7755    588.08958   -326.62414     13771.75 0.0039125692  0.036552071    1.6658595 
 3670000    413.33613   -7234.9219    3027.8324    248.11206    823.36431    12388.935 0.0039111158  0.036550568    1.6659015 
 3672000    362.27239   -7234.2498     4105.896    1105.4563   -3701.8649    11185.762  0.003908762  0.036543406     1.665921 
 3674000    410.90427   -7234.2379    3888.0198    1158.9296   -324.65618    10361.237 0.0039111046  0.036545422    1.6659582 
 3676000    398.37845   -7234.3612    3117.1322   -667.23343   -1749.9934    10276.112 0.0039194285  0.036549749    1.6658971 
 3678000    412.26368   -7233.9354    5313.9881    1704.6357   -3301.3819     11449.86  0.003928314  0.036557768    1.6659096 
 3680000     420.5019    -7234.044    1836.1442   -1116.1904   -2863.7048    14386.824 0.0039294714  0.036556199    1.6659966 
 3682000    404.92456   -7234.8323    3583.5777    -97.35285   -3954.4183    11255.623 0.0039275568  0.036560765    1.6659148 
 3684000    394.34709   -7233.9056    2394.7122   -1731.4369   -303.58473    9991.8135 0.0039261748  0.036559787    1.6657743 
 3686000    396.35577   -7233.6359    1317.3774    227.33781   -1155.0983    14455.883 0.0039250426  0.036546346    1.6657882 
 3688000    394.12132   -7233.9606     4833.946   -1540.7238   -665.42587    11410.294 0.0039232359   0.03654196    1.6658539 
 3690000    379.59238    -7233.068    2349.6516   -1749.4676   -1561.6234    11408.272 0.0039235717  0.036540547    1.6659465 
 3692000    399.62384   -7234.6014    2668.6534    -1134.073   -4044.3729    11380.427 0.0039250653   0.03654337    1.6660118 
 3694000    411.48694   -7234.1518    4127.3554   -3389.3858   -1153.0714    9020.1428  0.003932412  0.036560327    1.6659286 
 3696000    410.59939   -7233.9859    5019.1335   -586.89342    38.782554    14068.949  0.003933699  0.036551936    1.6659054 
 3698000    371.48274   -7231.9772    2857.1823    1159.8447   -2699.4285    11567.368 0.0039332653  0.036538313    1.6659926 
 3700000    389.13273   -7233.0684    2530.8882    379.62676    236.96607    14618.644 0.0039319534  0.036526628    1.6659907 
 3702000    384.48761   -7234.5254   -63.811273   -398.55138   -5250.3905    12231.909 0.0039303156  0.036526658    1.6659799 
 3704000    392.55412   -7233.3884    2769.0547   -1407.4411   -3744.3776    12711.508 0.0039322431  0.036538082     1.665916 
 3706000    406.44253   -7233.5156    3974.6331   -1206.0631   -1428.7598    12002.331 0.0039403941  0.036536244    1.6658958 
 3708000    417.48364   -7233.9734    4722.9545   -679.90855   -5240.3083    10219.181  0.003940816  0.036545676    1.6659339 
 3710000    435.62833   -7234.3498    1877.1251   -2041.9335    972.53099    13595.332 0.0039366943  0.036544593    1.6659832 
 3712000    383.14296   -7234.0836    2727.2207   -2350.7157   -343.13531     11675.88 0.0039429214  0.036533782    1.6660994 
 3714000    399.61936   -7234.5723    3388.7998   -830.02852    413.69163    9798.4603 0.0039526039  0.036536788    1.6660338 
 3716000    400.02727   -7233.3372    4823.1129    155.33169    2195.2629    13669.545 0.0039525256  0.036531134    1.6660793 
 3718000    405.10908   -7235.2454    5562.7278   -1588.7464    546.07672    10675.413 0.0039504996   0.03652044      1.66623 
 3720000    409.69344   -7234.5143    3141.4559    701.76984   -1592.4233    13133.672 0.0039472632  0.036535185    1.6662412 
 3722000    416.50169   -7233.9557    2359.9253     -2241.88   -1096.5528    13602.208 0.0039458479   0.03655412    1.6661654 
 3724000    379.77732   -7233.8888    1347.7143    158.00202   -2813.9322    11509.919 0.0039551796  0.036555942      1.66615 
 3726000    375.69202   -7233.6855    4446.2896    1139.4607   -1334.1211    15748.634 0.0039571488  0.036542237    1.6660942 
 3728000    395.24497   -7234.6002    3621.9641    523.43383   -613.34223    13935.753 0.0039547358   0.03652979     1.666293 
 3730000    401.23166   -7235.2229    5245.7983    413.92754    634.40195    13661.922 0.0039579614  0.036530416    1.6663505 
 3732000    394.40668   -7231.1065     3114.869   -2378.3932   -3511.5584    11252.635 0.0039663065  0.036531471    1.6662709 
 3734000     393.1407   -7235.4059    5192.3259   -1139.5123   -2866.8141    11140.091 0.0039666115  0.036543556      1.66633 
 3736000    391.01582   -7233.2142     5697.813    1035.5678   -3534.2492    13179.391 0.0039647473  0.036544077    1.6663601 
 3738000    432.85351    -7235.001    4585.3882    -606.5941   -2361.7943    13860.983 0.0039661311  0.036536765    1.6664576 
 3740000    371.65656   -7233.5006    2336.4851   -2364.1846   -2300.2727    12735.672 0.0039675461  0.036526583    1.6665758 
 3742000    424.01708   -7235.1106    2168.2746   -1625.2718   -3039.4496    11777.476 0.0039831339  0.036518774    1.6664865 
 3744000    390.69547   -7233.5343    2187.1084   -473.36581   -1610.1378    12649.666 0.0039923761  0.036519397    1.6664742 
 3746000    391.29908   -7234.7095     330.3483   -385.92877   -5139.9303    14393.227 0.0039915122  0.036534288    1.6665046 
 3748000    418.33409   -7234.8512    2257.5962   -44.053383    -912.8313    13042.053  0.003989188  0.036537829    1.6665933 
 3750000    387.59874   -7233.9026    623.84655   -2106.6578   -1937.8523    11659.106 0.0039873512  0.036535741    1.6665969 
 3752000    419.21752   -7232.8416    2169.1005   -1730.6823   -140.34789    13510.078 0.0039958398  0.036538772    1.6665095 
 3754000    407.81073     -7232.47    1595.8522   -2904.6999   -552.69133    11835.045  0.003998378  0.036533091    1.6666201 
 3756000    402.70235   -7232.5685    4328.1105   -1553.5688   -580.14473    15977.903 0.0039984662  0.036539956    1.6666294 
 3758000    395.44621   -7233.8276    2509.7116   -1914.5944    -2258.791    12479.852 0.0039979969  0.036537304    1.6666871 
 3760000    420.75711   -7232.1805    7037.7841   -782.25884   -1879.1107    13728.463 0.0040117899  0.036529528    1.6667305 
 3762000    400.09876   -7233.8545    5043.5405   -84.038827   -2414.4676    11889.671 0.0040109684   0.03654174    1.6667291 
 3764000    396.93124   -7235.6129    6013.3214    570.35574   -1336.5557    13851.029 0.0040090572  0.036551658    1.6667317 
 3766000    408.95757   -7234.4002    6719.3202    272.08742    481.35638     13870.47 0.0040069588  0.036538408     1.666744 
 3768000    390.01996   -7234.5092    2998.4144   -74.929194    -1003.985    12085.769 0.0040053378  0.036533306    1.6667284 
 3770000    390.53295   -7233.7121    3644.2508   -399.32088    1341.3556     13077.62 0.0040057066  0.036537217    1.6667613 
 3772000    377.99762   -7232.9152    5779.1408   -1045.5318   -2735.4898    9400.1063 0.0040127789  0.036528124    1.6668474 
 3774000    411.50526    -7233.928    3977.7742   -1086.6549    1660.5677    10728.826  0.004021139  0.036526656    1.6668894 
 3776000    396.14023   -7234.9539    6176.7422    2486.2676   -1309.1886    12211.469 0.0040226593  0.036522301    1.6668912 
 3778000    395.37118   -7233.0798    2660.1348    568.22765   -3087.8923    9909.6956 0.0040192833  0.036533704    1.6669543 
 3780000    395.46175   -7232.7524    6033.6738    663.85968    1444.3129    9808.8541 0.0040179328  0.036530738    1.6669442 
 3782000    402.18453   -7233.5047    6672.9093   -2675.4678   -2012.0602        10386 0.0040171938   0.03652894    1.6669683 
 3784000    435.75498   -7234.1739    5204.6252   -1277.9225   -1476.1789    13656.215 0.0040185445   0.03652884    1.6669141 
 3786000    392.66618   -7232.4982    4895.9799   -1079.8558   -2643.3757    11797.289  0.004023229  0.036522248    1.6669302 
 3788000    407.14638   -7234.4264    2602.0577   -3323.6119   -2183.5383    12093.715 0.0040227706  0.036523518    1.6669647 
 3790000    379.94341   -7233.7503    2296.2147    70.589247    72.892544    13931.424 0.0040206219  0.036522638    1.6669974 
 3792000    409.86805   -7232.8984    2662.8062   -1434.8154   -1062.4422     12198.01 0.0040212015  0.036514179    1.6670978 
 3794000     422.5314   -7233.3444    1125.9839   -802.19014   -2041.2013    12462.685 0.0040208711  0.036519204    1.6670574 
 3796000    419.46389   -7233.3165    3441.6954    97.453858    36.074347     12984.34 0.0040227262  0.036519886    1.6669599 
 3798000    396.34076   -7234.2942    2642.0869   -3000.3052    -764.5207    13615.487 0.0040167056  0.036514693    1.6670212 
 3800000    412.44247   -7231.7917    6860.6098   -4525.8094   -324.71908    14247.367 0.0040148662  0.036517597    1.6670936 
 3802000    401.65371   -7233.6197     4495.575   -1608.9061   -869.26385    11677.421 0.0040161692  0.036516089     1.667209 
 3804000    397.40789   -7232.1323    5123.0561   -2115.4095    1454.2435    10341.293 0.0040231259  0.036510018    1.6671991 
 3806000    406.01087   -7234.9186    3548.3786   -1852.5904    -2498.435    13703.225 0.0040248834  0.036501143    1.6671439 
 3808000    407.59907   -7233.7329    5028.8281   -1203.0498   -1177.2677    11885.994 0.0040231633  0.036501685    1.6671834 
 3810000    402.15343   -7234.4537    5961.2206   -759.32458   -1299.8001    13560.137 0.0040212248  0.036515143    1.6672142 
 3812000     400.5607   -7232.8116    7967.7312   -146.11668   -2914.0378    13837.726 0.0040241476  0.036523488    1.6673729 
 3814000    425.85683   -7232.0457    5969.0328   -462.75795   -2049.4967    12441.981 0.0040314118  0.036522115    1.6672559 
 3816000    392.86334   -7233.6301    6447.0906   -854.69558    -1222.422    14132.323 0.0040304706  0.036521736    1.6671548 
 3818000     399.5453   -7234.5145     4557.524   -1207.7017   -1475.3756    14507.218 0.0040306802  0.036521863    1.6673486 
 3820000    399.79059   -7234.4837    5604.9369   -1811.8743   -381.17059    10616.978 0.0040295025  0.036510705    1.6674666 
 3822000    391.73971   -7233.1434    5864.8095   -666.35135   -1525.2892    12925.711 0.0040282578  0.036497128    1.6673606 
 3824000    403.41373   -7233.3919    3182.5838   -889.90019   -3152.2323    10941.697 0.0040316725  0.036491514    1.6673502 
 3826000    433.39654   -7232.7159     5993.794   -425.36666   -2032.1407     12010.28 0.0040284433  0.036520721    1.6673162 
 3828000    408.53512   -7233.3048    5869.6699    21.820148   -3153.7916    12499.423 0.0040259941  0.036524511    1.6673154 
 3830000     375.3065   -7234.0457    2397.3949   -997.09849   -1132.1901    9667.3302 0.0040240141  0.036545007    1.6674294 
 3832000    385.81084   -7233.3896    5058.9955    -4068.034   -2581.3757    14456.344 0.0040259482  0.036544685    1.6674032 
 3834000    377.32985   -7234.9364    1396.2167   -722.14329   -38.546147    12631.057 0.0040425395  0.036536073    1.6673744 
 3836000    393.01909    -7232.964    4383.7671    818.87154   -1550.0813    14687.038 0.0040427743  0.036529155    1.6674385 
 3838000    359.03054   -7233.9345    4828.6225    -879.1467   -2458.7156    11316.615 0.0040405152  0.036532268    1.6675304 
 3840000     399.3036   -7234.9374    2296.7629   -223.22746    729.41773    11697.213 0.0040390961  0.036530882    1.6675821 
 3842000    397.86601    -7234.067    1888.5102    -682.0549   -1850.5023     10784.14 0.0040383699  0.036526036    1.6675677 
 3844000    390.96806   -7232.4543    2099.9861   -2588.2417   -2070.3316    11940.004 0.0040379274  0.036525213    1.6674546 
 3846000    393.25233   -7234.3241    3099.7152    1190.0995   -1791.9901    13426.674 0.0040419485  0.036533615    1.6675082 
 3848000    387.22137    -7233.646    2351.8349   -2943.6269   -1983.5537    13253.347 0.0040398447  0.036534502    1.6676495 
 3850000    436.33936    -7233.575    604.41996    748.60338   -2182.8633    12903.568 0.0040527837   0.03652221    1.6676655 
 3852000    394.86619   -7234.0264    4272.2005    941.58658   -2050.3753    13272.148 0.0040513793  0.036520555    1.6675711 
 3854000    406.15059   -7233.9737    512.63982   -778.20676   -1832.4773    12345.445 0.0040511903  0.036537125      1.66759 
 3856000    419.36373   -7233.2528    5442.6355    2527.5107    -94.13694    11597.308 0.0040486826  0.036532726    1.6677058 
 3858000    403.62334   -7236.0708    3971.3972   -2608.4997   -1567.4968    11761.028 0.0040470448  0.036536679    1.6676332 
 3860000    389.30172   -7234.9617    3412.7416   -2222.8157   -688.64885    12896.882 0.0040503968   0.03653214    1.6676713 
 3862000    400.83421   -7232.0225    8348.7875   -1643.3936   -3286.8546    13264.638  0.004052415  0.036524266    1.6676986 
 3864000    373.43996   -7234.0518    3010.4529   -3145.6663   -1839.6334     12992.68  0.004061884  0.036524849    1.6677163 
 3866000     418.9412   -7231.7591    5110.8389   -792.72988   -486.23657    12046.977 0.0040664938  0.036529171    1.6677492 
 3868000    429.68318     -7234.07    2898.6076    66.192359   -2484.2725    12767.913 0.0040656651  0.036535718    1.6677763 
 3870000    414.15774   -7235.3667    97.326864    2314.9955   -1150.7572    12883.783  0.004064308  0.036550246    1.6677782 
 3872000    399.42218   -7233.6716    1323.6566   -502.27307   -164.15316    13107.892 0.0040623785  0.036550707     1.667771 
 3874000    404.46061   -7233.7387    624.01179   -1427.5055   -635.54711    12819.662 0.0040600005   0.03653684    1.6677578 
 3876000    374.35373    -7233.485    1105.5395   -204.15401   -158.93418    12860.083 0.0040639909  0.036521024    1.6678066 
 3878000    359.72817   -7234.3497    1636.3981   -2404.3556   -3582.0124    10952.169 0.0040630157  0.036515614    1.6678959 
 3880000    420.15545   -7233.5393     1801.764    1446.5813   -2837.1151    14187.636   0.00406789  0.036515419    1.6678856 
 3882000    394.39164   -7233.5306    5486.5681    668.25094   -4086.7275    14283.619 0.0040651477   0.03652413    1.6678818 
 3884000    409.21203   -7232.5106    2813.2437    1150.8813   -1885.8371    12455.905 0.0040641572   0.03653676    1.6678994 
 3886000    357.62239   -7232.0729    3698.0248    762.83077   -3091.1526    14623.859 0.0040640504  0.036535318    1.6679298 
 3888000    410.07777   -7232.7215    1171.5376   -1663.8997    -2382.381    14259.135 0.0040651077   0.03653188    1.6679596 
 3890000    412.64723   -7232.7573    3750.4836   -795.33507   -1907.6473    13434.858 0.0040677943   0.03652881    1.6679882 
 3892000    375.76805   -7234.2185    1296.3119    357.58748   -3459.9361    11890.978 0.0040672775  0.036534099     1.668032 
 3894000    397.76577   -7235.7856    2796.0141   -66.748892   -4346.8996    12677.929  0.004072739  0.036521169    1.6680577 
 3896000    390.35496   -7233.1479    2323.3897   -3304.0789   -4109.7405    11800.279 0.0040708362  0.036530586    1.6680432 
 3898000    412.64172   -7233.5179    1729.8854   -893.92405    -2968.442    13521.952 0.0040715263  0.036531884    1.6680611 
 3900000    405.17929   -7232.7203    3490.6472    686.55928   -2336.8452    11691.625 0.0040707097  0.036535987    1.6680558 
 3902000    385.11973   -7233.3517    2112.0858      534.412    83.452217    11956.953 0.0040687302   0.03654477    1.6680765 
 3904000    396.72532   -7233.5007     4532.725   -1191.1951   -583.99695    12005.396 0.0040680788  0.036530531     1.668135 
 3906000    427.65569   -7234.4473    2910.8681     762.2171   -1961.5532    12107.584  0.004068983   0.03652712     1.668124 
 3908000    389.21814   -7234.3259    2595.3899   -3325.2264    -1019.715    11363.922 0.0040746338  0.036528282    1.6681417 
 3910000    419.93901   -7234.0082    2601.6655   -568.94799   -4357.3812      12290.7 0.0040749741  0.036528865     1.668219 
 3912000    399.40749   -7233.8981    2777.1753   -1220.9199   -1456.2207    12981.276 0.0040730581  0.036528755    1.6681826 
 3914000    416.20645   -7233.9617    4503.8959   -4148.8651   -977.11835    12913.481 0.0040713237  0.036530966    1.6682026 
 3916000    407.39507   -7233.4694    1524.1097   -1288.4296   -2410.4154    10994.304 0.0040751385  0.036538772     1.668223 
 3918000    366.04482   -7234.6682    109.11003    -1213.424    170.67543    14815.395 0.0040777109  0.036532993    1.6682176 
 3920000    385.46514   -7233.5786     688.2152   -1226.8446   -309.09294    12107.552 0.0040785951  0.036525596    1.6683011 
 3922000    375.17345   -7234.6306    4918.0762   -453.55928   -3196.8002    12487.328 0.0040780205  0.036534607     1.668281 
 3924000    377.77131   -7234.5444    3714.4602   -701.48744    471.67055     10008.78 0.0040777056  0.036532519    1.6683071 
 3926000    412.42053   -7233.8247    1253.2589   -800.71175   -2342.5156      14356.2 0.0040762423  0.036522667    1.6682964 
 3928000     415.0687   -7233.2058    4915.5637   -724.84346   -1247.6178    14180.054 0.0040741813  0.036523243    1.6683321 
 3930000    404.59292   -7233.0655    2670.8082    266.34188   -1320.1665    12292.365 0.0040767477  0.036518614    1.6683515 
 3932000    397.62523   -7234.4236    4318.7113   -610.27323     275.9068     14671.73 0.0040729717  0.036506511    1.6683335 
 3934000     380.3751   -7233.5748    617.64993    669.74552   -634.40064    17491.658 0.0040726163  0.036512503    1.6684674 
 3936000    393.97126   -7234.7775    2111.6701   -1170.7363    -1398.262    14032.103 0.0040778409  0.036514105    1.6685059 
 3938000    373.64255   -7234.1996    3959.6982    950.37757    1049.0167    14178.106 0.0040823176  0.036507619    1.6684559 
 3940000    427.31449   -7234.0003    2197.0961    542.12815   -407.80171    14070.669 0.0040817664  0.036502388    1.6684442 
 3942000    382.71421   -7233.7678    4214.3051   -228.44486   -3862.7598    13103.517 0.0040794441  0.036512153    1.6685212 
 3944000    410.07616   -7233.0238     3815.389   -1036.9243   -3223.0624    10414.618  0.004082514  0.036516145    1.6685312 
 3946000    403.83279   -7235.0442    5041.4926   -337.34374    -71.03456    11504.635 0.0040869458  0.036512505    1.6685193 
 3948000    420.98184   -7234.6531    3418.0449    3047.2778   -3627.1837    12750.044 0.0040877314  0.036515618      1.66852 
 3950000    380.25412   -7233.6727    3489.2655   -1499.6589   -1137.9014    11563.978 0.0040830594  0.036520866    1.6684922 
 3952000    397.69555   -7233.5877    3846.0559    1168.5131    -3042.496    13428.217 0.0040817423   0.03651342    1.6685659 
 3954000    407.81164   -7232.1155    264.15303   -1139.1872   -2961.6796    12808.475 0.0040800012   0.03650651    1.6685624 
 3956000    390.71654    -7234.063   -752.17691   -2560.2307   -1621.6549    11402.818 0.0040830386  0.036516168    1.6685664 
 3958000    387.20397   -7233.5499      2415.47    991.12738   -4008.5014    11323.954 0.0040826245  0.036511945    1.6686541 
 3960000    408.90839   -7235.9444    1714.1708   -1141.9518    939.59723    12950.551 0.0040804787  0.036509711    1.6686261 
 3962000    421.35362    -7234.122    5231.7388    1145.7201   -2486.5924    12582.436  0.004080851   0.03649929    1.6686067 
 3964000      401.131   -7233.0113     4387.316    1288.9577   -807.32822    14118.735 0.0040776355   0.03649985     1.668669 
 3966000    423.15559    -7232.685    2864.4129   -668.51697    928.74463    13318.086 0.0040877141    0.0364989    1.6687515 
 3968000     405.4013   -7234.6975    5433.9554   -672.59155   -3797.9868    10515.634 0.0040892943  0.036503762     1.668711 
 3970000    386.90209   -7232.2592    5572.3169   -488.59536   -2527.5085    13574.641 0.0040878381   0.03650703    1.6686675 
 3972000    420.32433   -7233.7096    3425.8873    -3162.733   -3099.0168    13694.122 0.0040864412   0.03650351    1.6687819 
 3974000     403.2848   -7235.4785    3872.4578    -762.8309   -2758.2598    11772.379 0.0040876802  0.036498531    1.6687478 
 3976000    399.71002   -7232.8126    2612.2179   -2391.4515    1534.5247    13570.422 0.0040931338  0.036500253    1.6687706 
 3978000    382.25744   -7233.3182    2326.8914    1182.3207   -3656.8476    14529.121 0.0040934802  0.036491887    1.6688672 
 3980000    393.22161    -7235.618     3684.473   -1504.9202    773.63221    13034.047 0.0040912348  0.036506634    1.6688403 
 3982000    389.47342   -7234.1631    5331.8645   -145.41837   -1851.6179    13016.891 0.0040911071  0.036497809    1.6688189 
 3984000    385.36201   -7233.6299    4218.6285   -1750.7744    159.22033    13681.696  0.004087687   0.03649698    1.6688444 
 3986000    408.10558   -7233.4074    4692.7604   -24.797412   -741.26804    12633.495 0.0040892461  0.036489907     1.668935 
 3988000    422.53938    -7234.708    3161.6573   -90.820701   -5812.5235    13590.818 0.0040868477  0.036488753    1.6689462 
 3990000    395.72203   -7233.9719    1729.7843    -454.3669   -1116.4556    12522.505 0.0040923519  0.036498485    1.6689654 
 3992000    414.86525   -7234.5065    2451.4216        831.1   -3257.5458    11673.958  0.004094125  0.036491691    1.6689633 
 3994000    394.86305   -7233.5499    1173.0879    2673.7743   -3349.4711    11516.018 0.0040935723  0.036491176    1.6689529 
 3996000    382.59643   -7233.7789    2618.1431    1727.4382    2223.3248    11405.393 0.0040925421  0.036495133    1.6690165 
 3998000    383.36027   -7233.6041    1368.6923   -1156.5561   -4032.7067    11412.562  0.004089658  0.036491512    1.6690152 
 4000000    390.16894   -7234.0153    3340.0864    2187.0022   -58.794048    14360.214 0.0040901528   0.03648979    1.6689523 
 4002000    391.49384    -7234.406    2993.4553   -2706.2098   -3038.4038     14425.59 0.0040895283  0.036482866    1.6690497 
 4004000    433.79228   -7234.0869    6226.9326   -1604.1794   -723.54315    13003.687 0.0041024065  0.036482576    1.6691545 
 4006000    402.08295   -7236.2797    3038.3921    604.60226    404.94419    12476.241 0.0041083926  0.036473103    1.6691036 
 4008000    406.37869   -7233.5264    2345.9022   -610.32413   -2466.1483    15265.491 0.0041061352  0.036478386    1.6691853 
 4010000    401.89589   -7232.3753    3745.8812      778.474   -2197.9595    11238.799 0.0041038977  0.036475192      1.66923 
 4012000    403.06272   -7234.6988    2407.6493   -1141.9217   -1838.5322    12000.078  0.004102443    0.0364906    1.6691152 
 4014000    406.45199   -7234.1335    1983.7971   -2069.4313   -1318.8076    14264.341  0.004103185   0.03649784    1.6691396 
 4016000     395.4108   -7233.3563    3705.5487   -3805.8241   -3658.3073    12958.234 0.0041041938  0.036485125    1.6693188 
 4018000    390.14418   -7232.8369    4065.3018   -1887.9074   -2415.4287    12983.179 0.0041177801  0.036483035    1.6693533 
 4020000     401.5272   -7232.2428    4468.4247    -1009.306   -5488.8029    12411.259 0.0041207296  0.036487832    1.6693386 
 4022000     422.1601   -7232.7043    5611.4177   -1368.8806   -777.25854    11695.432 0.0041214965  0.036491616     1.669361 
 4024000    407.76371   -7233.6584    4831.8241   -1205.5287    -1304.232    13104.073 0.0041191317  0.036489356    1.6693917 
 4026000     384.8545   -7234.6015    5274.6961   -1636.6153   -1793.5374    10383.187  0.004117354  0.036489111    1.6693855 
 4028000    406.35194   -7234.5675      3139.02    575.24423   -707.77298    12792.584 0.0041155235  0.036487282    1.6694346 
 4030000    413.30689   -7232.4874    1811.7572    1661.4345   -3391.5206    14318.704 0.0041147403  0.036483879    1.6694773 
 4032000    425.51262   -7234.6261    4277.7347   -3153.4073    807.79374    11007.774 0.0041177931   0.03648783    1.6695323 
 4034000    397.83101   -7232.0354    2335.3956   -1002.3569   -46.056245    14532.638 0.0041298623   0.03647435     1.669485 
 4036000    367.76184    -7233.506    6245.0722    -727.3401    -3305.058     14157.94 0.0041292986   0.03647379    1.6694956 
 4038000    417.65868   -7233.6771    3670.0478   -1614.6888   -1923.0948    13174.245 0.0041271556  0.036492629    1.6696107 
 4040000    412.01239   -7233.6694    3759.8368   -5287.6667    -3606.909    11738.549 0.0041260951  0.036490755    1.6695743 
 4042000    392.86017   -7234.6365    2514.4446   -2157.0569   -2008.9345    10259.889 0.0041311935  0.036505416    1.6694783 
 4044000    387.48004   -7234.2576    3271.4411   -2564.3339   -1182.5352    13970.885 0.0041343519  0.036498051    1.6694835 
 4046000     372.1306   -7232.0028    3867.3647    2880.7108   -3889.2812    11455.757  0.004136781   0.03649747     1.669613 
 4048000    393.84891   -7233.7272    2426.1278   -4356.5814   0.19973165    11021.452 0.0041340425  0.036492004    1.6696984 
 4050000    387.02764   -7233.7306    3205.4925    179.01734   -1509.5655    13339.159 0.0041444181  0.036476485    1.6697061 
 4052000    420.44793   -7233.8055    1073.0939   -2597.0966   -1584.1773    13237.928 0.0041399671  0.036480855     1.669685 
 4054000    408.47769   -7234.0953    4311.5011   -682.89224   -431.17281    13754.565 0.0041380656  0.036494576    1.6696142 
 4056000    382.50444   -7234.8707    1871.1616   -600.43758   -894.77648    12269.769 0.0041388955  0.036486329    1.6696493 
 4058000    383.01519   -7233.1127    2692.3855   -403.70882    -1513.518     12232.52 0.0041388631  0.036493347    1.6695949 
 4060000    410.23578   -7233.3965    4259.1474   -1019.1301    -3135.932    10038.034 0.0041388588  0.036503008    1.6696032 
 4062000    423.86799   -7235.2046    2900.2163      1195.82    410.24894    12749.657 0.0041396425  0.036501585    1.6696601 
 4064000    399.64613   -7234.8195    4014.6956   -1741.3777   -2794.0135    11901.227 0.0041510083  0.036490025    1.6696448 
 4066000    376.93453   -7235.5987    1286.5379    236.04143   -3821.8535    14651.235 0.0041591813  0.036486683    1.6696478 
 4068000    411.20861   -7233.0307    981.15749   -999.71808   -687.03572    14331.736 0.0041571827   0.03649507    1.6697026 
 4070000    388.93022   -7234.0582     3483.766   -1062.2095   -1260.9701    12969.337 0.0041571395  0.036491337    1.6696577 
 4072000    429.93382    -7234.556    2487.1611    135.70245   -2014.7203    12561.835 0.0041557901  0.036492289    1.6696618 
 4074000    407.31313   -7234.0729    5996.0706   -2455.7877    495.59649    11326.503 0.0041545791  0.036500989    1.6696599 
 4076000    393.15782   -7234.0012    3381.3819   -1172.9602   -1058.5804    11589.941 0.0041623537  0.036494859    1.6696558 
 4078000    389.18365   -7231.9699    2598.7478   -641.42854   -1263.8004    11733.817  0.004168715   0.03649707    1.6696916 
 4080000    388.30874   -7233.2307    1572.3681    353.79441    1716.7593    12379.871 0.0041709849  0.036496621    1.6697685 
 4082000    367.34172   -7234.2411    2873.9646    853.74693   -3576.0994    12090.087 0.0041680061  0.036484583    1.6697946 
 4084000    422.82228   -7233.4159    2783.2708   -1433.1032   -2319.4624    13336.597 0.0041669978  0.036498874    1.6698074 
 4086000    381.19879   -7232.5202    4664.0702   -1003.4365   -819.95763    10418.815 0.0041733764  0.036496387    1.6697651 
 4088000    397.52357   -7232.7104    3446.3394     1308.305   -3559.1776    12578.525 0.0041709252  0.036485374    1.6697041 
 4090000    401.88279   -7233.1285    3885.0815    799.40022   -1729.6357    12758.536 0.0041694912  0.036481517    1.6697105 
 4092000    368.54908   -7233.2629    5535.3461   -2421.4724    -1266.431    13358.242  0.004169073  0.036483051    1.6698002 
 4094000    381.79449   -7232.7712    4525.0099   -191.48913    -3185.972     12595.67  0.004172105  0.036477537    1.6698075 
 4096000    426.05596   -7233.5827    5326.7412    -995.9948   -1063.2631    13225.959 0.0041755292  0.036470576    1.6698333 
 4098000     368.8819   -7233.6655    5965.5796   -2446.1908   -3334.4152    12595.897 0.0041759219   0.03648223    1.6697819 
 4100000    394.35216   -7233.7647     4535.329   -33.934523   -1953.1939    11562.323 0.0041747373  0.036488547    1.6698016 
 4102000    427.27956   -7233.7582    3865.9293   -1179.9666    -397.0604    12787.845 0.0041729491    0.0364828    1.6699225 
 4104000    392.07854   -7234.2361    2455.1942   -2477.7799   -4014.4961    10587.073 0.0041724831  0.036484873    1.6699121 
 4106000    414.76121   -7231.8017   -492.98607   -604.71548   -1104.8104    14252.791 0.0041870572  0.036487049     1.669895 
 4108000    385.11308   -7234.7196    1901.6215    1643.3197   -2105.8914    11117.503 0.0041901317  0.036488438    1.6698439 
 4110000    409.69924   -7233.7449   -828.97552   -2318.2006   -14.005577    11986.019 0.0041880432  0.036489276    1.6699419 
 4112000    392.57519   -7233.8205    3946.3984   -1304.5254   -1322.3294    12725.544 0.0041864145  0.036479748    1.6700073 
 4114000    414.00053    -7233.561    833.77523   -918.12037   -2467.9661    12724.348 0.0041849836  0.036473928    1.6700199 
 4116000    376.21774   -7235.1147    414.22498   -2491.3175   -3205.1182    14010.264 0.0041860345  0.036461785    1.6700818 
 4118000     407.4585   -7234.7045    1657.3265    1.2910345   -3031.5991    11531.792 0.0041840282  0.036469393     1.670062 
 4120000    409.44893   -7232.4818    2698.8387   -523.26077   -2578.7751    15022.077  0.004182464   0.03646596    1.6700241 
 4122000     413.2456   -7233.9088    2555.4758   -1073.9569    -2230.361    12715.031 0.0041864913  0.036466063    1.6701846 
 4124000    381.46068   -7234.2803    5004.1152   -1011.8631    -3422.782    13814.324 0.0041893218  0.036472377    1.6701246 
 4126000    396.35656    -7233.944     4126.834   -2899.0872   -3073.1554    13720.243 0.0041893463  0.036479528    1.6700961 
 4128000    382.46472   -7233.5696    3922.9624   -215.55713    -161.7094    11532.809 0.0041924082  0.036478909    1.6700295 
 4130000     400.4775   -7232.5252    5143.3222     443.5108    -3048.141    14089.745 0.0041906374  0.036486531     1.670012 
 4132000    395.13696   -7235.0862    3318.4264    -2423.036    2402.2596     13377.36 0.0041882986  0.036482401    1.6701076 
 4134000    374.28756   -7233.2469    3451.9536   -823.77378   -2014.7237    10425.023 0.0041894102  0.036470053    1.6701657 
 4136000    398.60057   -7232.5976    3713.9688   -3079.3432   -2432.7647    12572.089 0.0042029351  0.036467108    1.6701344 
 4138000    396.98258   -7232.4793    3593.6446    545.41884    206.49515    11687.137 0.0042059048  0.036478939    1.6701175 
 4140000    403.47029   -7233.5188    5224.2003   -1349.9361   -893.43011    13224.038 0.0042038365  0.036477168    1.6702207 
 4142000    400.66702   -7232.1625    4402.1022   -3477.8448   -1764.9579     12077.19 0.0042035398  0.036477044    1.6702813 
 4144000    434.18325   -7233.1008    6345.8849    1151.2169   -1810.8113    12579.129 0.0042043269  0.036477617    1.6702113 
 4146000    400.47195   -7233.8321    3775.4316   -1314.2087   -3257.0462     14179.83 0.0042084036  0.036472851    1.6702179 
 4148000    418.69659   -7233.1141    3552.8923    3784.9948   -869.70945    13638.119  0.004206435  0.036466444    1.6702571 
 4150000    392.31836   -7232.9732    5077.7511   -532.79514   -1527.6666    12188.229 0.0042047036  0.036465996    1.6702816 
 4152000    378.29583   -7235.6746    2541.8153    358.38357   -3135.7147     11119.38 0.0042064195  0.036457519    1.6703688 
 4154000    405.16026   -7234.4863    5484.7678    1306.5516   -2270.2864    10477.444 0.0042133948  0.036454356    1.6703847 
 4156000    401.85095   -7232.8245    2322.3389    84.536861   -2990.3329    11485.203 0.0042171825  0.036469715    1.6702919 
 4158000    402.26506   -7234.4172    2101.3816   -985.01344   -370.27357    12777.894  0.004214913  0.036483886    1.6702127 
 4160000    403.44464   -7235.9208    2819.0962   -224.62164   -2043.0717     14338.46 0.0042141745  0.036480629    1.6702145 
 4162000    395.62501   -7233.9559    2710.5736   -2725.9355    624.39526    13888.082 0.0042149354  0.036470937    1.6702589 
 4164000      385.154    -7233.645    3224.1963    304.01798   -1233.3166     9880.007 0.0042171623  0.036471231    1.6702688 
 4166000    410.55026   -7231.6277    3007.1127   -1040.6692   -1740.6056    15127.349 0.0042145542  0.036471125     1.670228 
 4168000    384.71346   -7234.2072     3548.023   -1140.6192   -1138.8272    12065.971 0.0042174265  0.036465877    1.6702306 
 4170000    399.55258   -7234.5394    3370.3589    -1945.086   -35.667922    13071.918 0.0042160654  0.036467164    1.6702352 
 4172000    393.58118   -7235.3856    5151.5812    -3130.178   -1040.1319    12074.237 0.0042196878  0.036467599    1.6702214 
 4174000    426.65469   -7233.3856    2964.9699   -866.94287   -4336.5539    13403.109 0.0042218156  0.036471099     1.670245 
 4176000    405.44941   -7233.3985    3083.7588   -2765.0932   -2912.5378    11517.706 0.0042206415   0.03647026    1.6702178 
 4178000    405.34922   -7234.9871     5076.317    2221.7776    -3943.044    13565.801 0.0042193096  0.036469009     1.670137 
 4180000    400.84485   -7234.8394    2464.4997   -2813.6356   -2336.2022     14043.17 0.0042178721  0.036464109    1.6701877 
 4182000    400.80977    -7233.653    4788.2493   -1745.8466   -2721.3646     14133.39 0.0042221775  0.036463179    1.6702608 
 4184000    392.50967   -7233.5429    3062.8986    784.70485    -2407.703    14872.803 0.0042230373  0.036455046    1.6702507 
 4186000    356.87876    -7232.391    3872.1931   -2209.7946   -3621.2814    13014.444 0.0042228896  0.036453254    1.6702338 
 4188000    389.97913   -7233.5662    5833.3002   -2797.6379   -3474.2144    13342.119 0.0042252435  0.036461577    1.6701775 
 4190000    409.75479   -7233.3819    3331.2461   -3880.3924   -706.14598      12286.5 0.0042307339  0.036460286     1.670173 
 4192000    402.95157   -7232.4659    2928.1077   -1819.5463   -5147.7969    11327.951 0.0042305049  0.036464323     1.670178 
 4194000    390.20216   -7234.2293    4002.5168    590.32392   -3108.9362    11129.185 0.0042309331  0.036480415    1.6702547 
 4196000    375.68519   -7232.6249    4050.6598   -789.70304   -287.40244     11284.06 0.0042303697   0.03646798     1.670265 
 4198000    393.55115   -7234.1933    2383.9234    503.59381   -4082.5293    14055.056 0.0042294006  0.036467351    1.6702343 
 4200000     387.2573   -7234.1398    2247.9353   -1573.9874   -427.91972    11652.493 0.0042278164  0.036464487    1.6703206 
 4202000    406.30925   -7232.6285     775.4955    330.19978    -2170.804    13883.763  0.004229017   0.03645774    1.6702739 
 4204000    398.02664   -7234.6675    1239.9589    -1907.389   -2360.8522    11229.683 0.0042321358  0.036463037    1.6702916 
 4206000    427.54935   -7234.5602    3230.1446      1342.22   -2412.4436     12568.39 0.0042326096  0.036459469    1.6702583 
 4208000    380.62482   -7234.1245     2536.632    72.848268   -3811.5882    13460.335 0.0042323081  0.036462274    1.6701749 
 4210000    396.84552   -7234.1223      3155.94    184.33377   -1544.2692      12344.7 0.0042362631  0.036472586    1.6701838 
 4212000    415.42774   -7234.6367    2769.4607   -1028.5818   -3730.1573    12071.496 0.0042359101  0.036477818    1.6702323 
 4214000     410.7007   -7234.0641    5905.8443    1345.4649   -2596.2562    11938.134 0.0042345939  0.036474104    1.6701614 
 4216000    387.07892   -7233.1157    6321.3372   -1697.7385   -1457.4775    12568.273 0.0042376049  0.036464439     1.670238 
 4218000     393.3836   -7234.0853    5300.8987    4263.7559   -1095.3464    12466.719 0.0042369281   0.03645612    1.6702194 
 4220000    387.81044    -7234.145     6518.341   -2548.3348   -4320.0789     11335.06 0.0042391154  0.036452004    1.6702833 
 4222000    395.22116   -7233.8481    3745.9395    1461.3431     406.1712    14848.822 0.0042409618  0.036458858    1.6703205 
 4224000    401.96799   -7235.0339    5690.2962    -3753.029   -2501.6666    11895.195 0.0042427493  0.036462897    1.6703182 
 4226000    396.54395   -7235.0492    3745.2739    622.01005   -2003.9195    14581.226 0.0042426096  0.036468727    1.6701903 
 4228000    372.50856   -7234.6217    1506.3525      1490.23   -1524.1323    14426.506  0.004240721  0.036459921    1.6702217 
 4230000    407.17752   -7234.0025    2493.8551    -4045.896    94.295702    12602.866  0.004244181  0.036451609    1.6703297 
 4232000     413.3909   -7233.5471   -2108.6497    308.38041     32.59888    13355.136 0.0042582734  0.036442925    1.6703132 
 4234000    388.98445   -7233.3273     959.2457    -1657.116   -2814.6649    12137.029 0.0042575698   0.03644387    1.6703673 
 4236000    401.87738   -7235.9477    4617.4987    1440.1814   -367.86149    13659.436 0.0042559119   0.03644785    1.6703478 
 4238000    383.83203   -7232.9309    4436.2741    1969.4716   -2012.2028    12591.206 0.0042547176  0.036437781    1.6703948 
 4240000    404.03926   -7235.5807    6241.9279   -1540.5746   -2906.3098    13483.104 0.0042529983  0.036452837    1.6704113 
 4242000    419.59006   -7234.1796    3780.4503   -1643.8563   -816.62389    12886.036  0.004256822  0.036458293     1.670421 
 4244000    417.46883   -7235.3918    4212.0248   -1482.9071    -2248.615    14824.866 0.0042600863  0.036451139      1.67041 
 4246000    397.02427   -7233.3967    5591.3818   -2873.1217   -4665.7287    15955.598 0.0042646464  0.036441101    1.6704047 
 4248000    385.52165   -7234.9014    339.63008   -2037.8288   -3567.8472    13747.776 0.0042673477  0.036437449    1.6705041 
 4250000    400.76063   -7233.9589     3159.598    894.05374   -3992.6204     12278.01 0.0042666583  0.036441229     1.670576 
 4252000    386.92661   -7234.0023    1497.1983   -380.42966   -3518.1644    11442.279 0.0042653898  0.036443898     1.670569 
 4254000    385.46793   -7234.0245    5802.6084    1806.8892    -2026.338    11590.787 0.0042639217  0.036442301    1.6705602 
 4256000    409.87326   -7234.3411    3766.9334    1176.7302   -3148.3733    12239.983 0.0042637233  0.036440869    1.6705624 
 4258000    371.35757   -7235.0316    5255.5231   -1802.6019   -2400.7473    13151.745 0.0042616657  0.036446748     1.670503 
 4260000    396.21164   -7232.9351    1682.5198   -1034.4652   -625.94722    14914.888 0.0042602112  0.036445573     1.670633 
 4262000    399.84258   -7234.0062    4414.3968    218.89171    354.94162    12808.249 0.0042656604  0.036434954    1.6705987 
 4264000    427.01383   -7233.9741     3563.027    -1694.442   -1283.6692    14929.722 0.0042686329  0.036420224    1.6706724 
 4266000    420.86807   -7233.9393    2425.1743    1115.9625   -5118.0241    12799.404  0.004264539  0.036425987    1.6707762 
 4268000    398.85801   -7232.6499    3605.9639   -915.77828   -2388.7097    10307.608 0.0042645208  0.036438752    1.6707211 
 4270000    399.17792   -7233.5305    1983.5729   -664.08847   -2306.0466    12648.924 0.0042690143  0.036434644    1.6706892 
 4272000    398.33042    -7233.453    4103.1658   -195.79087   -3670.0265    11820.048 0.0042713305  0.036444732    1.6707703 
 4274000    385.03873   -7234.4128    2803.2478   -363.24842   -1561.3399    11929.657 0.0042711072  0.036455862    1.6708005 
 4276000    407.24728   -7233.2559   -478.43169    1613.0858    961.80148     11431.77 0.0042705525  0.036448533    1.6708264 
 4278000    364.31227   -7234.3838    181.56603    -1110.154    -560.2519    12011.349 0.0042685917  0.036441697     1.670883 
 4280000      419.786   -7235.3479    -204.5117     -1480.62   -1300.6906    12976.489 0.0042688393   0.03644794    1.6708442 
 4282000    396.80268   -7233.3898     1521.047   -1141.0204    469.12503    10738.149 0.0042685811  0.036446031    1.6708057 
 4284000    388.33133   -7235.5912    2837.5315   -2982.1464   -3002.4455    11666.782 0.0042666893  0.036436523    1.6708987 
 4286000    405.37413   -7232.8788    2891.8769   -2160.2213   -2871.9246    10251.309  0.004268264  0.036433186    1.6709104 
 4288000    400.79706   -7234.1733    4214.0254   -1432.2278   -2711.7684    11848.301 0.0042670016  0.036442053    1.6709507 
 4290000     405.7057   -7234.1983    3641.1817   -1378.4175     -1887.38    12128.488 0.0042743534  0.036437976    1.6709219 
 4292000     397.4926   -7233.8022    3507.6791    267.41325   -4984.6512    11845.321 0.0042842073   0.03643639     1.670945 
 4294000    403.40181   -7232.6448    3811.1632    177.13679   -91.167492     11164.96 0.0042832705  0.036451478    1.6709424 
 4296000    408.45538   -7232.5293    3656.1864   -386.44828   -546.58561    12623.994 0.0042809879  0.036441988    1.6709646 
 4298000    390.57529   -7233.8915    1108.1699    1319.6341   -1894.7744    10651.705 0.0042802542   0.03643643    1.6709997 
 4300000    418.93493   -7234.1916    2060.2765   -1581.5858   -1498.4644    14127.331 0.0042774562  0.036460548    1.6708921 
 4302000    427.69601   -7234.0267    2702.1849   -822.97632   -471.64616    13245.551 0.0042809709  0.036457252    1.6708878 
 4304000    389.30265   -7235.5243    914.10842   -870.57507   -2001.0235    13655.765 0.0042826357  0.036457492    1.6709702 
 4306000    378.77657   -7233.5998    4581.9604   -3291.2197   -1779.9768     11631.05 0.0042901745  0.036451753    1.6710314 
 4308000    375.83436   -7234.6726    2637.8851   -798.16403   -2492.3313    12274.762 0.0042897254  0.036456819    1.6709713 
 4310000    420.94569   -7233.6793    6565.8696    -1169.148   -2435.7338    14212.701 0.0042877196  0.036456513    1.6709259 
 4312000     400.3422   -7233.7966    4152.0512   -1117.5627   -1859.6281      11977.2 0.0042895312  0.036458645    1.6709284 
 4314000    391.61462   -7233.8029    4185.1347   -2561.6673   -1438.1561    11521.001 0.0042888753  0.036463826    1.6710451 
 4316000    393.32919   -7233.8957    4012.0291   -1277.1362     827.3873    13161.009  0.004287179  0.036457083    1.6711466 
 4318000    426.71297   -7232.4111    892.04956    -1552.434    532.49848    11893.074 0.0043011335  0.036461345     1.671151 
 4320000    386.28397   -7232.9171    1589.0572   -1568.6829   -354.61291     13090.74 0.0043013276  0.036462225    1.6710772 
 4322000    411.15213   -7233.8549    926.57517    116.04105   -1025.8418    12503.712 0.0043026133  0.036443512    1.6710388 
 4324000    375.38608   -7232.3141    929.69541   -1463.5632   -4795.5305    12747.281 0.0043003205  0.036458234    1.6711506 
 4326000    398.98648   -7234.7459    4145.3319   -2291.4468   -1298.3724    12625.315 0.0042990575  0.036469895      1.67123 
 4328000    409.34365   -7234.3732    1040.2823   -1081.6617   -1842.0636    9619.0462 0.0043054199  0.036463896     1.671213 
 4330000    423.90458   -7233.9585    437.20739    1168.0256   -1488.3147    13519.048  0.004305064  0.036460847     1.671122 
 4332000    376.54294   -7234.3509    5368.7232   -779.09475   -392.73357    12640.358 0.0043030611   0.03645392    1.6712311 
 4334000     403.2447   -7234.0776    996.48581   -2513.6126   -911.63908    11701.957 0.0043048602  0.036449019    1.6713065 
 4336000    383.99267   -7234.7737    5490.2733   -100.75613    207.37868    11557.973 0.0043095251   0.03644273    1.6713463 
 4338000    367.04102   -7232.7357    1650.3828   -621.86997   -1970.0502     12093.18 0.0043139779   0.03643391    1.6713206 
 4340000    420.47985   -7235.0924     3254.053    851.08024   -2921.0901    13515.233 0.0043120877  0.036444653    1.6712324 
 4342000    402.12091   -7234.3469    5062.1652    1125.3269   -2377.4686    10492.874 0.0043129973  0.036459954    1.6711888 
 4344000     414.7828    -7233.692    2452.2678   -1153.6093   -2147.6073    13609.363 0.0043134011  0.036466385    1.6712581 
 4346000    417.76357   -7233.6775   -2.1833004    -224.5239   -1537.7023    11245.316 0.0043249008  0.036461599    1.6713459 
 4348000      405.331   -7232.1516      2005.27    1260.1487    948.04369     12693.72 0.0043319852  0.036447469    1.6712234 
 4350000    382.75929   -7234.7335    1258.8169    440.42611   -4678.6742    12858.057 0.0043305116  0.036441515    1.6712662 
 4352000    422.61476    -7234.487    3306.6228    -122.3852   -869.26361    12630.379 0.0043337924  0.036438817    1.6713257 
 4354000    381.63695    -7234.228    4990.5743   -2256.3754   -3089.8034    13424.397 0.0043310443  0.036426107    1.6713721 
 4356000    415.16824   -7236.0088    2207.9434    854.20222   -2501.7041     15012.95 0.0043272871  0.036431571     1.671347 
 4358000    422.33721   -7235.1248    2706.3191   -941.06762   -2155.5397    10506.482 0.0043256986  0.036453022    1.6713624 
 4360000    407.66594   -7232.5042    3242.0623   -749.93545   -1256.2825     12356.21 0.0043292243  0.036456013    1.6713625 
 4362000    410.63286   -7232.8798    3250.5952   -2348.1591   -3170.6837    13044.024 0.0043316052  0.036448246    1.6713478 
 4364000    421.93464   -7234.0354    5631.4733   -1144.8459   -1785.5873    13501.985  0.004334344  0.036447402    1.6714173 
 4366000    373.08066   -7232.8752    2439.2688   -4483.2139    -2197.318    13722.613 0.0043384067  0.036442156    1.6714227 
 4368000    410.42853   -7233.5658    4179.3425    1347.4749    587.37996     14030.32  0.004336275  0.036439151    1.6714595 
 4370000    400.91826   -7234.2024    4762.1115   -982.60401   -1486.0361    12793.938 0.0043351323  0.036434341    1.6714497 
 4372000    389.55247   -7233.1687    6125.4689   -1292.0449   -3558.4332    15218.387 0.0043396931  0.036461152    1.6714618 
 4374000    379.06387   -7233.2366    2978.0702     1848.083   -908.28631    9941.5195 0.0043471234  0.036465235    1.6714948 
 4376000     389.2817     -7232.82    2278.7568    149.89915   -2386.9314    14093.291 0.0043464243  0.036459527     1.671427 
 4378000    392.40649   -7233.7009    4056.6158   -2479.7977   -1481.1651    10333.497 0.0043497772  0.036457978    1.6714638 
 4380000    411.34761   -7232.7848    604.12952    1541.4733   -2277.6799    12510.276 0.0043530426  0.036451936    1.6714317 
 4382000    386.12706   -7233.1477    1452.0807    728.28432   -1934.6741    11125.116 0.0043512934  0.036456969    1.6714673 
 4384000    381.87755   -7234.1333    2790.4094    531.50012   -457.32672    14441.641 0.0043522525  0.036454557    1.6714578 
 4386000    403.33398   -7232.4143    2129.0892     413.5563   -2606.7671    14123.461 0.0043519768  0.036448074    1.6714977 
 4388000    408.26462   -7232.6845    1011.4659    554.78293   -642.91839    11377.586 0.0043495391  0.036444117    1.6715766 
 4390000    356.77596   -7233.5322    2297.7258     1787.263   -712.26329    10311.994 0.0043505009   0.03643315    1.6714913 
 4392000    415.96817   -7232.3156     468.3038   -832.20137   -2229.1642     12355.72 0.0043474135  0.036426708    1.6714288 
 4394000    418.52372   -7234.3241    2493.1822    1242.7535   -985.52599    13547.014 0.0043467929  0.036412224     1.671367 
 4396000    416.80102    -7233.925    1805.1011    31.177201   -3197.1034    12512.142 0.0043494545  0.036412524     1.671385 
 4398000    408.21856   -7233.4894    574.73288   -453.39838   -2084.6621     13942.68 0.0043460045  0.036437118    1.6713785 
 4400000    377.40152    -7233.823    3586.9804   -3504.5275   -1774.8272    12035.725 0.0043466806  0.036427812    1.6713699 
 4402000    403.78648   -7232.7243    3773.2083   -3417.6063   -1598.6026    12827.014 0.0043537565  0.036415275    1.6713492 
 4404000    390.47976    -7233.614    3894.5695   -3522.8751   -2378.2275    12151.884 0.0043566887  0.036410521    1.6713484 
 4406000    414.18038   -7233.1074    4964.5069   -1485.3737   -1165.9664    11823.456 0.0043561567    0.0364006    1.6712832 
 4408000    419.42882   -7233.7269    5491.6558   -1643.2858   -3103.8685    11698.954 0.0043539584  0.036397149    1.6712827 
 4410000    412.06329   -7233.9013    4073.0552   -2881.0935   -3144.8365     13589.55 0.0043538513  0.036400263    1.6713229 
 4412000    407.70315   -7234.0331    6309.3544   -1007.7968   -302.00531    12115.089 0.0043553311  0.036397891    1.6712768 
 4414000    376.49825   -7234.8853    2039.8135   -2367.4435   -2634.1278     13558.99 0.0043598501  0.036389891    1.6712955 
 4416000    399.24138   -7232.8965    3511.5113    2985.3069   -2597.1339    11970.671 0.0043588995  0.036396241     1.671337 
 4418000    420.61757    -7234.029    3074.5604   -1877.8165   -861.68957    14777.007 0.0043561524  0.036386225    1.6713308 
 4420000     403.9046   -7233.3906    1796.8933   -745.98341   -2261.4666    11965.548 0.0043611086  0.036379689    1.6712844 
 4422000    424.32048   -7233.2726    2554.2972    993.63844   -2104.5548    10259.176 0.0043585918   0.03637873    1.6712834 
 4424000    405.82562   -7232.8873    3694.8304   -1104.1856   -2596.3607    13867.752 0.0043568939  0.036381333    1.6712224 
 4426000    401.53448   -7233.7933   -1433.1527   -808.50631   -208.73594    12959.938 0.0043581313  0.036369354    1.6712444 
 4428000    401.63132   -7234.7148    1625.5801   -3342.7666   -3007.6218    12216.258 0.0043590284  0.036371266    1.6713043 
 4430000    381.69351   -7233.5332    3446.8962   -798.20343   -1531.4034    12699.475 0.0043614598  0.036372613    1.6712621 
 4432000    416.33933   -7232.1274    3226.1519   -2023.5194   -1400.1409    12011.514 0.0043585992  0.036362787    1.6712575 
 4434000    397.60054   -7233.7564    4941.8699   -2333.4815    327.60424     12891.89 0.0043576941  0.036350752    1.6713037 
 4436000    383.07592   -7235.0783    2264.6472    120.75038   -2145.6666    12766.689 0.0043602553  0.036358665     1.671259 
 4438000    376.55747   -7232.4332    4420.0856   -16.793073    414.03586    10969.401 0.0043575609  0.036368509     1.671262 
 4440000    417.32115   -7232.3257      3540.25    340.58496    131.66773    10767.183 0.0043588441  0.036356181    1.6713056 
 4442000    374.20012   -7234.2009    4669.5565   -1004.6816   -1866.8424    11025.736 0.0043612882  0.036347213    1.6713348 
 4444000    409.73838   -7232.8438    4333.4739   -657.37274   -1558.0553    10833.261 0.0043600098   0.03634191    1.6712704 
 4446000    408.86228   -7235.0104    2520.5897   -2593.6754    -1280.508    11240.132 0.0043608883  0.036338388    1.6712946 
 4448000    400.67063   -7232.9158    4690.7641   -1860.4101   -472.27204    13198.051  0.004359175  0.036338405    1.6713418 
 4450000    379.23326   -7233.6146    4287.9267     13.71511     -1459.43    11408.744 0.0043577739  0.036337629    1.6713583 
 4452000    388.60302   -7233.5486    3284.0859   -5448.5699   -2493.4365    15009.411 0.0043597619  0.036338316    1.6713251 
 4454000    403.24028   -7234.8336    862.59367    -3386.047   -1199.6655    12503.019 0.0043698721  0.036343281    1.6714409 
 4456000    398.13553   -7234.0236    6623.4533   -591.63248    -1952.702    13300.503 0.0043740423  0.036346525    1.6714175 
 4458000    397.26786   -7232.9738    5003.5841   -1914.6625   -1609.0123    12613.083 0.0043712154  0.036348979    1.6714336 
 4460000     408.5608   -7234.2315    7825.1362   -1182.9263   -762.02183    9662.8161 0.0043709755  0.036342643    1.6715044 
 4462000    390.89533   -7235.2238    4439.8039   -1598.9651    373.22581    11803.243 0.0043699388  0.036345106    1.6714718 
 4464000    403.64343    -7234.418    3539.6933   -161.83337   -1311.1817    11960.537 0.0043687265  0.036335359     1.671451 
 4466000    395.78114   -7234.2375    5110.1218   -2996.6102   -2358.3569    13372.322  0.004374153  0.036337812    1.6714294 
 4468000      400.714   -7232.5022    2934.5632   -3154.5728   -963.62299    13398.092 0.0043785056  0.036339964    1.6715017 
 4470000    423.72415   -7234.3196    2780.1462   -604.56793   -1161.6378    12729.789 0.0043788481  0.036335622    1.6715678 
 4472000    403.45196   -7234.2919    4477.1112   -2252.3547   -4173.8114    13528.556 0.0043799255  0.036335344    1.6715366 
 4474000    415.15466   -7233.1203    2198.0018    1418.2118   -1517.4877    13610.295 0.0043790164  0.036332299    1.6715373 
 4476000    415.95313   -7234.1223    4028.7786   -1755.0312   -3721.9995    11818.124 0.0043793201  0.036332195    1.6715425 
 4478000    394.49847   -7234.0983    3902.6641   -1836.4688    673.58337    14960.056 0.0043804279  0.036328728    1.6714941 
 4480000    408.81728   -7233.5419    4666.2277   -562.90168   -1522.1052    14121.022 0.0043802905  0.036322369     1.671576 
 4482000    418.61509   -7235.4188    2488.5672   -1110.2076   -2346.3323    12583.157 0.0043799713  0.036322369    1.6716265 
 4484000     416.8588   -7233.6608    4502.5031   -3195.2705   -2288.3418    13249.959 0.0043973752   0.03632352    1.6715889 
 4486000    432.12586   -7232.6626    5695.9269    102.77102   -2400.1528     13038.34 0.0044023021  0.036316062     1.671589 
 4488000    397.09356   -7235.6528    3908.0024   -1412.1264   -2470.8105    12925.867 0.0044001563  0.036317759    1.6716531 
 4490000    415.99084   -7234.2032    4246.1206   -2247.9659    78.782071    12879.259 0.0043987083  0.036322006    1.6716793 
 4492000    411.84206   -7235.2497    2057.6724   -2169.4217   -1901.7143    11640.529 0.0043977927  0.036325445    1.6717038 
 4494000    404.20567   -7232.1871    5802.2027   -1763.8229   -1164.0602    11398.845 0.0044021068  0.036332449    1.6716259 
 4496000    412.02464    -7234.082    3863.6724    81.064898   -2161.9906    12162.915 0.0044021221  0.036330728    1.6716183 
 4498000    384.53965   -7233.3949    5217.7858   -303.34273   -793.79866    13815.013 0.0044032916  0.036330725    1.6717472 
 4500000    442.92033   -7234.4128    5296.7643   -294.11597   -325.90717    9749.5268 0.0044076918   0.03631516     1.671801 
 4502000    407.58812   -7233.9296    3434.7338   -160.55781   -3752.6573     12322.78   0.00440662  0.036330183    1.6718489 
 4504000    372.89081   -7234.9003    4600.3986   -205.03799    470.15249    13218.614 0.0044052379  0.036333375    1.6718228 
 4506000    391.97013   -7234.5913    4481.0468    49.178219   -3675.6258    14303.769   0.00440513  0.036323531    1.6717739 
 4508000    401.59741   -7236.1934    4309.6907    759.92339   -2907.9326    16514.613 0.0044041154  0.036317532    1.6717874 
 4510000    404.39398   -7232.2441    3996.0624    591.68893    -2260.662    12419.135 0.0044034312  0.036308654    1.6718233 
 4512000    377.53591   -7234.8715    4274.2065   -143.42007   -2797.9022    14200.447 0.0044012717  0.036305033    1.6718076 
 4514000    403.71767   -7233.7339    4537.1214   -396.66852   -2907.7162    11885.151  0.004406753  0.036301914    1.6717679 
 4516000    399.88178   -7232.9577    2770.1634    1918.0429    2383.0949    14133.991 0.0044071467  0.036292794    1.6717611 
 4518000    370.83957    -7233.468    2419.2937    833.96994    -4221.289    11338.114 0.0044049295   0.03628701    1.6717732 
 4520000    399.80378   -7233.7721    3851.4098   -405.77764   -1137.2059     13525.19 0.0044051183  0.036296276    1.6718081 
 4522000    381.80943    -7233.038    2053.7888   -1686.4356    2756.9619    13121.811  0.004406611  0.036302418    1.6718549 
 4524000     415.9362   -7234.8631    4725.7955   -1646.1761   -3002.6024     12707.57 0.0044061961  0.036292532    1.6718198 
 4526000    391.59349   -7232.9012    2784.8604   -1651.1176   -1988.1889    13470.704 0.0044053268  0.036289158    1.6718284 
 4528000    415.29962   -7233.4456    2916.6303   -956.92823    -3658.495    14184.291  0.004404353  0.036301706     1.671843 
 4530000    387.70224   -7233.0188    583.74624   -624.68424   -2338.1933    13038.519 0.0044092703  0.036294771    1.6718939 
 4532000    373.06306   -7233.0457    3393.3952   -2631.0715   -2302.7996    15073.308 0.0044098858  0.036286506    1.6719271 
 4534000    387.08522   -7235.3582    2760.2704   -1235.4578   -1104.8221    14118.199  0.004408687  0.036277423    1.6719585 
 4536000    411.96249   -7234.2284    4466.9144   -1329.8261   -561.94035     12887.44 0.0044067497  0.036287259    1.6720118 
 4538000    427.23234   -7233.2471    3152.8155   -3027.8963   -4168.8234    13291.656 0.0044069219  0.036283528    1.6720163 
 4540000    415.63837   -7235.5927    5473.0992   -420.89001   -670.78758    12392.457 0.0044072842  0.036278661    1.6719778 
 4542000    386.16656   -7234.5055    2929.0027   -1597.5918    -1195.275    12472.304  0.004406767  0.036282521    1.6721075 
 4544000    428.49822   -7233.8298    3146.6265   -1394.6034   -2403.3207     11613.25 0.0044092774  0.036282906    1.6720774 
 4546000    402.95089   -7232.0559    1581.8113   -354.06166   -2394.5497    12235.649  0.004407722  0.036285088    1.6721319 
 4548000    408.84595   -7235.0729    1384.8922   -212.57118   -3579.2388     9286.099 0.0044109456  0.036284327      1.67209 
 4550000    401.52681   -7234.2526   -717.71578    298.80844   -1408.3784     13888.06  0.004409122  0.036277241    1.6720627 
 4552000    404.04023   -7234.1762    3995.1813    2209.5499   -3680.4167    12288.611 0.0044075169  0.036277004     1.672128 
 4554000     360.7615   -7234.8018    481.91749   -1696.8962   -1484.1432    13409.719 0.0044059169  0.036278202     1.672247 
 4556000    407.12526   -7233.4136   -1196.2178    25.502613   -2538.4679    12352.737 0.0044175004  0.036277949    1.6722892 
 4558000    410.03078   -7235.1607     2806.225   -1795.7536   -3386.9246    11907.882 0.0044188745  0.036277609    1.6722577 
 4560000    403.55651   -7233.6454    1535.5058    365.15334   -2743.8363    15234.788 0.0044188729  0.036285734    1.6722533 
 4562000    390.55196   -7233.6538    4168.0424   -2098.9381   -1165.6857    14074.606 0.0044181194   0.03627957    1.6722974 
 4564000    412.93886   -7233.0189    4216.2923    1181.7857   -2292.2438    13245.787 0.0044165682  0.036279925     1.672301 
 4566000    392.93919   -7233.5529     2157.258    53.861831   -2362.3899    13004.236 0.0044148874  0.036287254    1.6722939 
 4568000    406.94923   -7233.6563    734.52662   -301.04414    -796.4901    11110.212 0.0044168884  0.036290953    1.6722851 
 4570000    393.40572   -7233.4534    3083.8468    -259.5934   -1688.8969    12568.269 0.0044224147   0.03628529    1.6722804 
 4572000    410.71524   -7235.1433    2820.6851    964.54298   -2637.3342    11387.508 0.0044202725  0.036287255     1.672384 
 4574000    419.44582   -7233.0332    5421.8965   -2589.8706   -591.64153    13572.601 0.0044243485  0.036284811    1.6724064 
 4576000    404.58747   -7234.4684    4814.6553     549.1679    -2103.078    10845.803 0.0044256999  0.036272003    1.6724024 
 4578000    414.38746   -7231.8487    5496.7556    1364.4481    1056.1582    14348.427 0.0044242683  0.036276486    1.6723421 
 4580000    383.19052    -7233.205     3467.511   -1095.3333   -252.02448    10884.627 0.0044215524  0.036287448    1.6724039 
 4582000    408.43376   -7233.1226    3721.0525    3618.8297    743.18497    15120.679 0.0044217386  0.036290432    1.6724328 
 4584000    414.10956   -7232.7301    1967.7723   -1129.2531     2167.252    13223.568 0.0044196273  0.036280501    1.6724559 
 4586000    422.54855   -7232.9918    1030.7559   -1317.0267   -2225.6131    14673.651 0.0044211468   0.03627424    1.6724938 
 4588000    421.70907   -7233.8032    4733.5577   -378.78201   -790.05874    11518.579 0.0044174883  0.036269405    1.6725162 
 4590000    386.52983   -7233.5791    2542.2218    17.220446   -231.36549    10627.569 0.0044164192  0.036261186    1.6725112 
 4592000    383.31541   -7233.8333    3297.5972   -1640.1517   -1753.1171    12451.507 0.0044165974  0.036271695    1.6724969 
 4594000    401.04608   -7233.3003    3779.4419   -215.00834   -1818.6835    11597.844 0.0044187085  0.036283453    1.6725549 
 4596000     401.9509   -7234.1018    5168.8398   -257.71933   -3600.4904    15165.525 0.0044189093  0.036277412    1.6725531 
 4598000    413.92914    -7234.497    3791.2843   -43.731361   -2975.8282    12476.327 0.0044201678  0.036276322    1.6725189 
 4600000    416.82717   -7235.0594    2380.3824    1587.1605    -1004.427    12155.522 0.0044185282  0.036274754     1.672506 
 4602000    357.41095   -7231.4937    3039.0775   -874.39581   -1175.4953    14705.688 0.0044166396  0.036267324     1.672543 
 4604000    392.58014   -7234.8433    5472.9737   -1640.7379   -568.10736    14506.292 0.0044187012  0.036256881    1.6725665 
 4606000    388.81866   -7233.3397    6345.8428   -1644.0874    -1786.188    13630.758 0.0044245414  0.036252103    1.6725908 
 4608000    427.61318   -7233.6415    3567.5335   -1131.6788    -1239.172    11849.392 0.0044237079  0.036249023    1.6726323 
 4610000    396.88013   -7233.5275    3509.9517   -1009.8272   -2384.2825    12265.109 0.0044227309  0.036254301    1.6725948 
 4612000    417.81702   -7233.6891    2845.4225    -1137.723    -2245.452      13712.1 0.0044266411  0.036269962    1.6725785 
 4614000    387.60114   -7234.2873    4453.1685   -1476.0448    66.400481    11751.126 0.0044260244  0.036272237    1.6726739 
 4616000    416.40406   -7232.6638    3375.1585   -755.31396    1355.9886    12664.745 0.0044245759  0.036266145     1.672699 
 4618000    408.07279   -7234.2468    2657.8061   -1916.4777   -1379.4533    12213.865 0.0044286619   0.03625345    1.6727134 
 4620000    434.96125   -7232.0051    3224.2922   -343.08797    -236.2503     11127.09 0.0044286985  0.036248228    1.6727347 
 4622000    393.64718   -7232.9049    3693.1254   -1205.3531   -2506.9151    13404.129  0.004426956  0.036251688    1.6727586 
 4624000    392.53672   -7233.6563    4765.1376   -830.67375   -3497.9791    12568.413  0.004427211   0.03625658    1.6727313 
 4626000    428.57334   -7232.7109    6710.5402   -1141.3541   -3020.6037    10358.621 0.0044255064  0.036267089    1.6726933 
 4628000    400.85783   -7234.6717    3496.9221    777.29296   -1909.3927    11157.522 0.0044248082  0.036260167    1.6727056 
 4630000    379.97295   -7233.3246    6274.2558   -1159.1161   -1749.5289    13258.035 0.0044280817  0.036252728    1.6727043 
 4632000    378.35245    -7233.607    5954.3778    49.274582    -3351.064    15230.206 0.0044307764   0.03626391    1.6727224 
 4634000    379.86104   -7233.0288    4846.0918    86.218265    -1137.125    17778.292 0.0044314507  0.036272372    1.6727774 
 4636000    376.63193   -7232.0449    5145.9396   -513.73807    1171.3286    15294.335 0.0044306307  0.036265582    1.6727933 
 4638000    402.37161    -7233.298    2376.2667   -858.19282   -1731.2893     16058.97 0.0044334935  0.036262633    1.6728201 
 4640000    434.54462   -7233.8633    1639.1733    303.36035    415.33697    15031.504 0.0044320476  0.036268408    1.6728348 
 4642000    381.54566   -7234.3053    2689.2891    -1949.317    1143.1674    12661.823 0.0044300109  0.036271623    1.6727975 
 4644000    407.54937   -7233.0568    2598.0274   -1482.0299   -120.91045    15535.927 0.0044296102  0.036266509    1.6728473 
 4646000    380.95737   -7232.5171    2190.3349   -1589.2759    770.25709     10931.84 0.0044355643  0.036261889    1.6728513 
 4648000    438.82216   -7233.6118      7462.72   -2340.6466   -954.99213    13312.336 0.0044404053  0.036273536    1.6728447 
 4650000    381.77149   -7234.5614    3933.7277    1234.5271   -596.08482    10853.422 0.0044393452  0.036273256    1.6728026 
 4652000    392.83163   -7233.9109    7113.7212   -149.09221   -1742.4703    13753.701 0.0044376954   0.03626805    1.6728228 
 4654000    400.43898   -7233.5975    6675.4367   -1332.6917   -56.462856    10188.648 0.0044373296   0.03626304    1.6729044 
 4656000    428.40901   -7232.9559    4537.4214    69.451378   -4156.1215    10873.662 0.0044342205   0.03626674    1.6728773 
 4658000    403.22505   -7233.5964     4557.977   -1623.2102   -1233.3341    12960.019 0.0044328677  0.036273617    1.6728657 
 4660000    387.02936   -7233.3228    6003.2134   -2603.4327   -3377.5603    11998.495  0.004435653  0.036266115    1.6729156 
 4662000    423.47376   -7233.7563    4748.3229   -800.48623   -1175.2498     9250.155  0.004439742  0.036265243     1.672927 
 4664000    413.61458   -7235.4601    4976.5961   -2997.0612   -995.64636    10530.747 0.0044443765  0.036261974    1.6728619 
 4666000    422.62796   -7233.3379    3384.4353    200.38729   -2308.0838    12318.018 0.0044440608  0.036260823    1.6728843 
 4668000    463.95349   -7235.3335    1128.1299   -1224.6927    233.87088     13537.56 0.0044443534   0.03626775    1.6728804 
 4670000    379.90561   -7234.6425    3089.4051    1346.5405   -1212.6638      13590.4 0.0044418663  0.036264488    1.6729015 
 4672000    416.49893    -7234.585    2065.8477   -209.65019   -1545.9234    13644.318 0.0044417194  0.036262599    1.6729348 
 4674000    413.07288   -7233.5124     3577.349   -20.594006   -2305.7533    11945.568 0.0044494969   0.03625996    1.6729375 
 4676000    399.50445   -7234.5116    3035.2414   -273.54851   -3381.6865    14866.412 0.0044497247  0.036266156    1.6728647 
 4678000    400.54739     -7233.79    1646.4388   -1642.0705    -1653.962    14653.621 0.0044516019  0.036277101    1.6729998 
 4680000    390.19739   -7234.5052    1049.8252   -611.04636    230.23108    12059.406 0.0044593336   0.03626994    1.6730356 
 4682000    413.88982   -7234.2421    1841.8152    905.03665   -3254.0885    12352.247 0.0044567152  0.036267694    1.6730258 
 4684000    409.91276     -7235.12    3222.2964   -2457.5142    -886.1863    12204.183 0.0044555617  0.036270187    1.6729864 
 4686000    414.38893   -7232.8196    2960.7379   -311.25892   -4026.5588    11365.908 0.0044560496  0.036266173    1.6729753 
 4688000    403.98806   -7233.1653    2708.0511   -748.42338    -2322.489    12778.929 0.0044547277  0.036261876    1.6729881 
 4690000    407.76149   -7233.2447      3682.48   -920.30393   -2427.7481    11400.511 0.0044582416  0.036255382    1.6730194 
 4692000    446.39265   -7231.5993    1381.3402   -881.50893   -3452.7864    11206.404 0.0044594888  0.036263038    1.6731086 
 4694000    435.82203   -7234.0035    3577.0656   -3164.2146   -71.862958    8604.3902 0.0044620304  0.036258604    1.6730988 
 4696000     429.1271   -7233.4189    3876.0452   -530.21918   -3867.3918    12535.743 0.0044640365  0.036248477    1.6729893 
 4698000    369.44228   -7233.5289    1426.2694   -2264.7758   -1333.7733    13055.357 0.0044619812  0.036259469    1.6730617 
 4700000    396.17161   -7234.2795    3146.1708    -5986.493   -264.85406    12389.641 0.0044615483  0.036253443    1.6731292 
 4702000    371.48847   -7232.2374    4553.4675   -4176.7574   -1578.6526    11683.907 0.0044648848  0.036258501    1.6732262 
 4704000    401.87519   -7233.2119    4536.7868   -6226.0836    -121.8059    11496.224 0.0044682732  0.036267336    1.6731744 
 4706000    393.60671   -7234.0351    4874.4917   -1605.4562     -100.724    9790.6644 0.0044761478  0.036258377    1.6731942 
 4708000    411.45676   -7232.5803     4500.515   -3481.6464   -3249.3443    11392.119  0.004474527  0.036259619    1.6732227 
 4710000    402.90287   -7234.5572    4351.9468   -1300.5811    249.72428    9866.1628 0.0044745519   0.03626597    1.6732594 
 4712000    400.45335   -7234.8419    1955.1818   -270.56941   -3869.1805    14592.368 0.0044719759  0.036260618    1.6732564 
 4714000    395.21857   -7233.0803    3596.9232   -2741.7997    -674.1394    12563.473 0.0044746454  0.036252694    1.6732662 
 4716000    404.76896   -7232.6082    3758.7269   -1197.3475   -4244.0595    15041.475 0.0044753473   0.03624985     1.673274 
 4718000    395.19146   -7233.6817    2913.0348   -2360.0764   -1866.3179    14398.386 0.0044744178  0.036259861    1.6733042 
 4720000    409.28394   -7232.8985    1995.3313   -1018.0085    -2009.234    13502.362 0.0044744363  0.036248065    1.6734094 
 4722000    400.20763    -7233.847    1373.5999    907.08916   -3500.5147    10994.839 0.0044720545  0.036255613    1.6734383 
 4724000    351.84267   -7233.6939    3840.9393   -1457.7128   -919.51256    12292.782 0.0044701999  0.036255571    1.6733115 
 4726000    413.00396   -7233.6046    2465.7181    706.67092   -817.76233    12337.139  0.004474444  0.036247401    1.6733422 
 4728000    400.99063   -7232.1764    4081.5215   -260.24344   -4623.3651    12714.949 0.0044742598  0.036250261    1.6733701 
 4730000    399.62786   -7232.4308    4082.5503    1433.7914   -28.015934     13752.37 0.0044758335  0.036261952    1.6734502 
 4732000    425.06106   -7234.3238    3703.0964   -1466.9939   -1951.6943    12065.921 0.0044811465  0.036267327    1.6733736 
 4734000     382.0958   -7233.8304    3367.1922   -773.41101   -88.979687    12861.334 0.0044914245  0.036270802    1.6733698 
 4736000    446.24022    -7234.138    3578.1441    2621.4935   -1146.3931    12574.284 0.0044885612  0.036262717     1.673342 
 4738000    387.87767   -7234.0956    2976.1671    447.25354   -1273.5568    11070.943 0.0044887096   0.03626302     1.673371 
 4740000    417.96195    -7234.672    541.17462   -1203.5307   -1185.0753    10966.786 0.0044874926  0.036272093    1.6733657 
 4742000    399.68101   -7233.1714    677.70813   -1380.7861    616.17225    9636.9893 0.0045012482  0.036265511    1.6733528 
 4744000    391.01693   -7234.0902    3431.2382    628.72223   -2448.6742    11262.115 0.0045124434  0.036255447    1.6733167 
 4746000    408.66929   -7234.2079     2150.833    1814.0065   -2421.3138    12247.688 0.0045093808  0.036261949    1.6734073 
 4748000     428.4641   -7232.9654    2166.2619    262.53689   -2515.2574    12085.359 0.0045077226  0.036266944    1.6734305 
 4750000    413.97462   -7233.1451    2642.1701    577.92701   -2682.7172    13113.671 0.0045094149  0.036261982     1.673393 
 4752000    417.80401   -7232.5957    3010.9032   -252.63811   -3168.7956     14119.05 0.0045213853  0.036269777    1.6733415 
 4754000    424.80746   -7233.6454    3698.6035    628.42566   -1005.9338    12747.442 0.0045257725  0.036286255     1.673319 
 4756000    387.96766     -7234.15    2838.5491   -1652.2923   -1609.0088    16368.418 0.0045242634   0.03629418    1.6733319 
 4758000    393.00522   -7234.3125    6204.9998   -2092.1626   -576.92691    12319.076 0.0045221473  0.036282893    1.6733721 
 4760000     403.3316   -7233.4933    2825.1045   -229.96912    69.820664    15684.728 0.0045213462  0.036279863    1.6733702 
 4762000    418.86878   -7233.2078    2713.0185   -2147.9905   -3879.7684    13125.892 0.0045275258  0.036276336    1.6733756 
 4764000    401.18179   -7232.9102     5004.138    557.74601    1748.0421    12275.025 0.0045398809  0.036280761    1.6733833 
 4766000    371.54772    -7231.843    4093.2143     2380.586   -2798.7037    15951.167 0.0045379672  0.036278083    1.6734461 
 4768000    416.52288   -7235.8897    3784.4342    1395.4787   -2384.3415    13403.047  0.004536153  0.036277213    1.6735109 
 4770000    415.77638   -7235.8012    4512.8525   -221.76992   -1655.5034    13705.487 0.0045353967  0.036281595    1.6734678 
 4772000    416.11618   -7234.6615    3186.1988   -1157.7159   -3374.4622    14361.068 0.0045406891  0.036276583    1.6734612 
 4774000    390.03558   -7234.2666    3471.5305   -88.469138   -2996.0061     13038.78 0.0045384995  0.036282258    1.6734653 
 4776000    417.46867   -7233.5432    3189.3543   -377.09054   -2454.6956    14659.919 0.0045366945  0.036275288    1.6735952 
 4778000    391.09424   -7234.4524    3701.2105   -911.57882   -3820.1829    11219.881 0.0045392959  0.036270415    1.6737217 
 4780000    377.06025   -7235.7159    4172.8061   -3424.0687   -3704.4276    11328.385 0.0045372104   0.03627709    1.6736685 
 4782000    411.44905   -7233.5188    3178.2138   -1579.2488   -1330.5857    11858.238 0.0045459656  0.036285298    1.6736509 
 4784000    398.48667    -7234.355     3252.213    1448.0983   -3855.8782    12706.308 0.0045447399  0.036286434    1.6735993 
 4786000    419.22047   -7234.0681    1547.9266   -3052.0109   -654.17101    12624.934 0.0045428188  0.036290402     1.673637 
 4788000    363.10858   -7234.5345    1472.2063   -659.24094   -793.58563    14107.992 0.0045443594  0.036283253     1.673702 
 4790000    445.06704   -7233.7628    173.58379    434.64784   -1254.2794    12057.509 0.0045441082  0.036275372    1.6736961 
 4792000       407.69   -7233.3536    3566.2296   -2756.3654   -1060.3616    15076.056  0.004552946  0.036276159    1.6736962 
 4794000    369.65513   -7233.3838     4223.515    1739.0627   -1629.5339     13644.48 0.0045579259  0.036273849    1.6736981 
 4796000    385.89047   -7232.4524    4756.3668   -185.09726   -3105.0726    13013.099 0.0045556627  0.036266621     1.673667 
 4798000     391.5125   -7233.8822    3178.8406    -629.0475   -2681.3031    12241.976  0.004553414  0.036283091    1.6737446 
 4800000    403.87116    -7234.005    4024.6347    -63.24241   -1184.6436    11466.499 0.0045534474   0.03628489    1.6737979 
 4802000    421.18106    -7232.251    913.08945    -1870.308   -1900.1229    14342.219 0.0045703472  0.036293411    1.6737513 
 4804000     371.7594   -7234.5318    3102.1652    38.148808   -261.33255    13041.665 0.0045819008  0.036294823    1.6737264 
 4806000     377.0482    -7234.129    3084.8397   -652.63268    177.03427    12635.593 0.0045796842  0.036288801     1.673819 
 4808000    383.34032   -7232.8353    3111.1114    10.852445   -2479.2033     12036.89  0.004577639  0.036278712    1.6738673 
 4810000    419.50749   -7234.7095    2764.3147    2243.7513   -1959.3247    12661.675 0.0045776711  0.036276695    1.6738087 
 4812000    371.56641   -7232.3512    3689.7959   -651.71003   -3851.7042    12976.625 0.0045758451  0.036281524    1.6737894 
 4814000    412.34439    -7235.462    3485.7541    190.82044   -4445.4449    10642.296 0.0045755952  0.036285664    1.6737172 
 4816000    390.84419   -7233.2866    5324.8576    932.49445   -2891.1787     10167.91 0.0045741868  0.036293431    1.6737017 
 4818000    404.75918   -7233.2573    1718.8865   -982.81291   -2046.9709    11079.744 0.0045741333  0.036303659    1.6737163 
 4820000    381.07097   -7234.2282    5777.7442   -73.796592   -1100.2918    11915.224 0.0045809343  0.036296055     1.673803 
 4822000    374.48337   -7233.0681    3075.8064   -247.41735   -2529.8297    11062.035 0.0045801121  0.036287405    1.6737552 
 4824000    411.01099   -7235.1319    4493.4153    -1005.531   -3088.4444    14423.825  0.004590465  0.036298391    1.6737593 
 4826000    408.14547   -7232.1963    3284.4938    121.47276   -1066.6822    11370.687 0.0045905873  0.036298788     1.673774 
 4828000    366.59565   -7234.3319     2526.373   -834.44583   -3964.2647    16619.995  0.004589034  0.036296682    1.6738125 
 4830000    395.78201   -7233.3269    4384.0206   -3010.7688   -3058.4487    11414.824 0.0045908113  0.036291486    1.6738373 
 4832000     408.2248   -7234.3042    3477.7114    261.15156   -1145.2864    13535.646 0.0045877283  0.036292456    1.6737292 
 4834000    398.65733   -7234.2986    1673.6136   -4523.3776   -3184.6126     12291.25 0.0045875566  0.036288766     1.673758 
 4836000    378.48021    -7233.325    5405.4655     446.9559   -1781.0454    13524.271  0.004587342   0.03628352    1.6738127 
 4838000    422.69623   -7234.5207    2968.0986   -3857.3564   -4338.8016    12859.252 0.0045878834  0.036278276    1.6737903 
 4840000    371.92813    -7232.759    4845.9008   -139.63175    -3248.003    12799.252 0.0045927972   0.03628525    1.6738082 
 4842000    417.13922   -7234.0169    5200.6178     -236.049   -4248.6444    10571.098 0.0045918826  0.036294537    1.6738222 
 4844000    413.99265    -7233.476    3664.1658   -570.20209    56.696478    13622.417 0.0045917012  0.036302835     1.673754 
 4846000    384.76659   -7233.1664    6342.7754   -501.73677   -866.41464    13924.314 0.0045916963  0.036290639    1.6737057 
 4848000     408.8059   -7233.2928    3592.9514    587.75576   -2569.6873    11495.398 0.0045900425  0.036296821    1.6737826 
 4850000    421.29123   -7232.4686    4310.0614   -1095.9171   -773.34236    10701.975 0.0045902193  0.036290785    1.6737708 
 4852000    417.49023   -7232.8613    1195.1991   -3200.1427   -1428.5523    12799.208 0.0045912638  0.036285963    1.6737205 
 4854000     395.4515   -7233.2744    3026.1508   -867.21995   -1425.6494    13040.045 0.0045936645  0.036284156    1.6737454 
 4856000    389.54192   -7234.3597    3781.6912   -668.23209   -92.835219     14836.65 0.0046042543  0.036283384    1.6738494 
 4858000    403.31088   -7232.6676    781.66493    1830.6006    1080.4622    15114.509 0.0046035498  0.036286569     1.673841 
 4860000    397.55858   -7234.8241    4691.3106   -669.57669   -1009.8993    13377.954 0.0046020695   0.03628335    1.6738364 
 4862000    404.26317   -7233.8567    4409.3228   -2965.1426   -1129.2445    11909.919 0.0046066441    0.0362818    1.6738733 
 4864000    398.39383   -7233.9221    2739.6326    3442.1808   -818.07928        12501 0.0046104535  0.036279518    1.6738838 
 4866000    415.67046   -7232.8665    5326.0449   -1843.2471     682.0369    12519.077 0.0046075366  0.036274903     1.673922 
 4868000    384.26069   -7234.6265    3545.9158    517.88755   -2246.4721    11667.448 0.0046079699  0.036267139    1.6739415 
 4870000    391.32723   -7233.8285    6183.0485   -1476.7509   -429.46457    12940.196  0.004606111  0.036275184    1.6739378 
 4872000    399.19225   -7232.9073    5153.8958   -1146.4074    637.54139    12885.827 0.0046064912  0.036271588    1.6739373 
 4874000    386.48873   -7232.6493    4246.9373   -1225.4908   -3570.5539    12968.914 0.0046085283  0.036267461    1.6738923 
 4876000    401.67833   -7233.9918    3784.9474   -1107.4522    -3045.822    15096.168 0.0046079742  0.036271881    1.6739429 
 4878000    390.24814   -7232.7911    2651.2602    1206.0435   -4210.2043     12113.35 0.0046083539  0.036267127    1.6740557 
 4880000    428.79594   -7233.7806    4764.7229   -1202.4177   -1828.7211    10474.131 0.0046065192  0.036277277    1.6740109 
 4882000    382.60039   -7232.8677    1856.3234    2513.9573   -918.25462    11718.715 0.0046067859  0.036279533    1.6740044 
 4884000    411.42536   -7233.9205    4498.9159     325.3225    634.69681    13478.998  0.004606731  0.036271343    1.6739504 
 4886000    420.40703   -7232.8116     2919.799    425.20756   -1298.2426    14339.413 0.0046064832  0.036266627    1.6740073 
 4888000    412.84279   -7232.5371    1493.0717   -3070.4858   -2807.2073    15739.327 0.0046059449  0.036264336    1.6741001 
 4890000    358.68695   -7233.7587    1103.6842    386.27501   -1525.9271    12281.318 0.0046114695  0.036265523    1.6740913 
 4892000    399.06948   -7233.8941    1080.4059   -3979.9229   -2137.1449    10805.856 0.0046071758  0.036263596    1.6740856 
 4894000     383.6271   -7234.4222    2114.1778    508.36553   -2097.8296    12729.775 0.0046127656  0.036268626     1.674072 
 4896000    409.01629   -7232.7553   -51.897265    212.56273   -168.84838    12726.647 0.0046109332  0.036268571    1.6741464 
 4898000    401.25072    -7233.967    1664.7489   -351.17157     -2778.06    12200.403 0.0046094917  0.036258075    1.6741842 
 4900000    403.58182   -7233.5125    2622.9907   -1033.2914   -2245.1156    12715.531 0.0046106454  0.036259645    1.6741534 
 4902000    389.23299   -7234.1897    2662.2644    770.25757   -1304.3778    12247.141 0.0046169106  0.036255332    1.6740852 
 4904000      395.225    -7233.567    4326.1764    -2531.656   -4050.3375    17063.515 0.0046193299  0.036251452    1.6740453 
 4906000    394.70326   -7232.7127    3342.3192   -1319.4262   -1461.5333    14096.763 0.0046222897  0.036253466    1.6741575 
 4908000    404.93038   -7233.1818    3258.3583    432.25762   -3794.3581    10708.271 0.0046201645   0.03625831    1.6742241 
 4910000    414.57095   -7231.3066    3917.5847   -4865.9576   -1093.5878    12986.392 0.0046195932  0.036262325     1.674142 
 4912000    374.91191    -7234.098     1595.332    513.42842   -2719.0133    12212.844 0.0046201174  0.036260681    1.6740728 
 4914000    392.38223   -7233.3874     2423.816    -2492.621   -1233.7167     12582.74  0.004617841   0.03626273    1.6740867 
 4916000    396.28908   -7233.2538    1336.4829    825.11003    387.32158    13558.376 0.0046260047  0.036251491    1.6741433 
 4918000     411.5297   -7232.9329    3473.5538   -1228.5584   -2460.1639    13086.652 0.0046236513  0.036249298    1.6741775 
 4920000    413.35648   -7233.8715    4871.6608    -2394.112   -1108.7877    11621.845 0.0046243489  0.036252548    1.6742125 
 4922000    398.00142   -7233.8665    5501.2673   -1755.3719     70.75696    11844.916 0.0046237921  0.036261873    1.6741227 
 4924000    406.97479   -7233.4183    3419.7682    -3358.092   -941.54171    13955.634 0.0046221594  0.036258356    1.6740643 
 4926000    385.75419   -7234.3066    4230.8851   -2346.5655   -1275.2668    10345.561 0.0046214346  0.036251129    1.6741404 
 4928000    392.64838   -7232.2661     1717.805    333.40553   -1607.9669    11771.625 0.0046248348  0.036247363    1.6740927 
 4930000    374.47005   -7233.3849    2717.6039   -5064.4622   -2546.8707    12273.694 0.0046217623   0.03624843    1.6740715 
 4932000    412.22249   -7233.8652    874.67575   -201.04671   -586.14044    12176.368 0.0046298761  0.036248947    1.6741495 
 4934000    394.99739   -7233.0744    3104.4617    728.01788   -3542.7809    12053.944 0.0046297975  0.036245424    1.6741513 
 4936000    413.93123   -7233.3934     2451.133   -1445.7885     105.5086    12926.876 0.0046283399  0.036244426    1.6741807 
 4938000     438.1738   -7233.3254    3340.6825   -869.08429   -2728.1428    11507.467 0.0046259305  0.036251746     1.674214 
 4940000    382.30653    -7235.013    3306.6932   -2813.5628   -1062.9222    12642.866 0.0046248023  0.036252501    1.6741353 
 4942000    438.12388   -7232.9275    2934.9171   -1899.0456   -2560.8845    13069.058 0.0046287677  0.036246786    1.6741681 
 4944000    404.46668   -7233.0615    2528.5029    365.44726   -3726.9397    9994.3098 0.0046295927  0.036245172    1.6741749 
 4946000    407.83408   -7234.0643    -668.8188   -1904.0499   -1362.1148    13213.998 0.0046316693  0.036246159      1.67421 
 4948000    388.59687   -7233.6119    1350.6175    174.46939   -334.39318    10464.023 0.0046330512  0.036244449    1.6742633 
 4950000    419.44386   -7235.3514   -899.04656   -1141.7051   -2584.6777    11659.796 0.0046322366   0.03625697     1.674276 
 4952000    412.92594   -7232.5379    2304.6972   -1790.2295    -1389.566    12766.799 0.0046312173  0.036253808    1.6742457 
 4954000    413.57154   -7233.8891    2716.2714   -491.56614   -2510.7478    13451.802 0.0046333342  0.036248545    1.6742645 
 4956000    406.48355   -7234.1004    2827.4538    142.95121   -2792.7558    12323.782 0.0046320777  0.036250195    1.6742611 
 4958000    380.17914    -7234.811    4273.0342    1085.9797   -432.64888    13192.127 0.0046298976  0.036241383    1.6742812 
 4960000    408.98093   -7234.6285    3032.7472   -1595.8738   -2699.5186    12948.736 0.0046323476  0.036244963    1.6742749 
 4962000    404.39785   -7233.6084     2581.743    94.662426   -1245.5442     11030.36 0.0046316206  0.036241528    1.6743564 
 4964000    399.90346   -7234.0081    3583.9747   -2985.7157   -252.01729    13303.724 0.0046298866  0.036246225    1.6742965 
 4966000    398.71598   -7232.6202    4256.2724   -2799.7433    15.732867    13285.056 0.0046309106   0.03623825    1.6743449 
 4968000    414.45993   -7233.9148    3441.9143   -216.50822   -1681.6387    12949.799 0.0046320277  0.036236969     1.674363 
 4970000    394.68798   -7234.6108    3614.0527   -3276.9774   -762.79801    11623.514 0.0046297337  0.036246697    1.6743913 
 4972000    399.97035   -7232.6806    1492.6947   -3163.5196   -354.00255    11555.022 0.0046349209  0.036242699    1.6743708 
 4974000    379.49413   -7233.4567    6216.2173   -1692.8192   -2245.1961    11339.424 0.0046368997  0.036246388    1.6744404 
 4976000    372.31221   -7235.3305    1899.4307    567.13883    367.34096    9951.8284 0.0046356404  0.036242529    1.6744033 
 4978000    404.52044   -7233.9908    2939.5642   -3314.0265    -1857.739    12276.838 0.0046349473   0.03623506    1.6744105 
 4980000    382.64352   -7233.4182    4099.7968    1718.2574   -758.12045    11758.071 0.0046398619  0.036237564    1.6744662 
 4982000    405.02469    -7234.708    3481.9358     1062.738   -2817.2993     10096.02   0.00463833  0.036241721    1.6745161 
 4984000    379.05766   -7234.4923    6304.4215   -174.98767   -4098.2711    13776.756 0.0046373462  0.036239804    1.6744041 
 4986000    380.05494   -7233.0753    2299.4204   -213.93423   -2473.5425    15187.839 0.0046366241  0.036241158    1.6744475 
 4988000    372.50347   -7233.4888    2930.8888    46.572482   -3133.3429    11316.484 0.0046341957  0.036243362    1.6744845 
 4990000    399.38437   -7233.7199    676.39384   -1292.0075   -1470.1875    13312.029 0.0046385747  0.036239581    1.6744571 
 4992000    377.51872    -7233.971    2870.9173   -2264.1126    246.67823    14042.601 0.0046417054  0.036233196    1.6745333 
 4994000    405.27713   -7233.3157    1220.1955   -1246.0922   -1952.8989    10459.492 0.0046392248  0.036232626    1.6745926 
 4996000    372.73628   -7233.7582    3506.6773    255.46401   -1391.2898    12009.784 0.0046385637  0.036233533    1.6745119 
 4998000    389.95383    -7232.998    3918.8407   -1514.4858   -2846.0363    14980.242 0.0046389692  0.036240466    1.6745354 
 5000000    389.18855   -7233.4154    2949.2517   -223.27214   -1991.6945    10839.385 0.0046423023  0.036243536    1.6745824 
 5002000    397.75069   -7234.4403    4103.3414   -794.77464    851.89466    12811.773 0.0046455155  0.036239064    1.6745759 
 5004000    393.49929   -7234.7183    685.61611   -1696.4288   -3508.5531    13058.147 0.0046445534  0.036233705    1.6745904 
 5006000    389.43597   -7233.1384   -388.69797    1680.3402    1991.5753     13265.89 0.0046430688  0.036238609    1.6745917 
 5008000    381.00834   -7233.1725    2254.0894   -2021.3293   -1992.5348    13227.302 0.0046412737  0.036234383    1.6746274 
 5010000    359.64823   -7235.4157    3392.2776    75.100507   -2672.3741     14040.97 0.0046464041  0.036230942    1.6747322 
 5012000    408.51277    -7231.744    5594.0738     9.564466   -294.15779    12893.258 0.0046441812  0.036231796    1.6747248 
 5014000    391.37848   -7233.7597    5625.1711    567.03932   -3785.4069    13486.755 0.0046422233  0.036225176    1.6746796 
 5016000    401.90713   -7234.0397    4116.2503     339.6718   -677.51124    13526.399 0.0046464917   0.03622095    1.6746872 
 5018000    418.74382   -7232.3709    6226.0138   -794.24821   -3083.8381    14448.147 0.0046465995  0.036220315    1.6746989 
 5020000    394.61629   -7233.0194    746.01631   -958.47588   -2204.5111    15040.675 0.0046467094  0.036222028    1.6747243 
 5022000    378.45516   -7232.8856     4577.575    395.25401   -2168.1402    11319.242 0.0046478796  0.036228342    1.6747649 
 5024000    409.37254   -7233.5946    6311.1225    871.56152     61.79486    12977.348 0.0046459657  0.036226094    1.6747665 
 5026000    389.05936   -7234.7977    1846.4804    1351.9651   -4251.3594    11815.505 0.0046476171  0.036226182    1.6747708 
 5028000     400.5469   -7234.4823    5308.5029   -1476.4142   -1399.7645    12556.804  0.004647761  0.036229731    1.6747247 
 5030000    413.13654   -7233.9299    788.38006    124.89675   -907.55748    12117.498 0.0046546323   0.03623213    1.6747319 
 5032000    397.53907   -7233.2862    3285.8675    1764.1562   -1857.0195    14317.556 0.0046532228  0.036230333    1.6747139 
 5034000    402.75727   -7235.3508    4604.1811   -2088.5652    609.53391    14276.826 0.0046522226   0.03622907    1.6747711 
 5036000    394.75114   -7233.0801    2984.9458    1248.4167    989.73861     13702.64 0.0046522084  0.036223199     1.674759 
 5038000    383.87106    -7233.098    3708.1692    361.28766   -2227.1864    14610.437 0.0046528928  0.036217857    1.6747764 
 5040000    396.36735   -7234.3154    3069.0353   -358.79404    469.40865    14731.988  0.004651181  0.036220439    1.6748215 
 5042000    392.76661   -7232.9613    2594.0418   -1909.0176   -1885.7376    10751.903  0.004656817  0.036226568    1.6748373 
 5044000    419.38885   -7233.8008    3954.4927    981.57944   -1232.1878     12724.64 0.0046587177  0.036225684    1.6748164 
 5046000    420.41973   -7233.7431    1860.9607    -432.9264   -1474.6551    13448.739 0.0046579799  0.036230179    1.6748503 
 5048000    396.72115   -7233.2974    4466.4579   -843.93085    145.39285    11916.868 0.0046557761  0.036234112    1.6748948 
 5050000    418.26395   -7235.5584    3614.4694   -1887.7767   -291.81339    12065.432 0.0046555363  0.036225086    1.6748678 
 5052000    397.03775    -7233.962    2681.5526   -1266.6311    -2729.109    13470.819 0.0046539605  0.036230652    1.6748651 
 5054000    390.12558   -7233.9852    3694.3973   -1220.3134   -2033.2755    10814.091 0.0046528559  0.036225886    1.6749268 
 5056000    398.35294   -7232.8985    2854.7748   -446.61381   -2501.9722    14005.721 0.0046538209  0.036221972    1.6748807 
 5058000    403.75931   -7231.6302    3892.5025    213.88699   -3071.6485     11770.77 0.0046594506  0.036220358    1.6749412 
 5060000    396.83994   -7233.9248    2062.8821   -1073.8191   -4217.8249    12161.181 0.0046626142  0.036217224    1.6749366 
 5062000    402.89674   -7232.0229    3208.0887   -1224.8413   -2133.4285     13345.95 0.0046615352  0.036242738    1.6749039 
 5064000    419.33261   -7234.5492    3400.9763     2934.894   -3670.9334    11507.758 0.0046606437  0.036238264    1.6749243 
 5066000    393.62619    -7234.262    2486.4666    -3417.232   -1158.8212    12617.811 0.0046582921  0.036241253    1.6749662 
 5068000    395.04551   -7232.5807    1703.3732   -441.01903    -708.7448    14586.978 0.0046613475  0.036243563    1.6749489 
 5070000     408.6917    -7233.064    4414.2283    460.34061     298.6134    13376.144 0.0046610722  0.036232708    1.6749679 
 5072000    390.31392   -7231.3867    3694.9179   -491.94061     1258.803    12958.897 0.0046589434  0.036225161    1.6749811 
 5074000    412.75034   -7233.8141    3231.1734    323.51255   -2201.1857     11367.39 0.0046567977  0.036212886    1.6750083 
 5076000    389.74161   -7233.7117    2994.3368    1115.2594   -989.70293    11520.273 0.0046554106  0.036210066    1.6749736 
 5078000    406.35219   -7233.5707   -773.17263    911.12432   -1924.9885    12257.887  0.004654156  0.036215174     1.674984 
 5080000    368.07717     -7233.46    2588.1669   -1716.5664    -4969.772    11388.731 0.0046581699  0.036219425    1.6749909 
 5082000    403.81716   -7234.5291    1851.0683    2837.5356   -1957.6912    11439.222 0.0046616085  0.036229642    1.6750088 
 5084000    389.60408   -7233.4105    1295.1626   -1271.4362   -2157.3768    14186.376 0.0046633183  0.036224165    1.6749655 
 5086000    442.69089   -7234.3705    4610.2481    837.96981   -2084.7398    12898.489 0.0046615858  0.036216465    1.6750007 
 5088000    389.07276   -7234.5376    1592.0721   -774.30792   -1382.4447    11233.422   0.00466036  0.036212976    1.6749453 
 5090000    413.13901   -7233.8789    6537.8881    1819.6919   -3244.5437    8219.1897 0.0046599617  0.036210312     1.674947 
 5092000    396.17609    -7232.826    3175.0379   -372.14683    1174.6762    13369.493 0.0046572228  0.036210862    1.6749913 
 5094000    381.88001   -7233.0905    3020.9948    -4025.409   -2378.3009    13624.329  0.004656728  0.036207165    1.6750428 
 5096000    400.86873   -7234.4497    2198.7292   -756.91694    661.40326    13735.613 0.0046657813  0.036208361    1.6749869 
 5098000    371.70458   -7234.6153     1199.428   -3034.1736   -2420.7751    12879.732 0.0046651333   0.03621374    1.6750239 
 5100000    372.81911   -7234.1432    2726.4814   -1494.0729   -2886.2698    16661.316 0.0046680521  0.036221465    1.6749723 
 5102000     413.2196   -7233.4395    2694.3149     689.5693   -2236.5428    10353.577 0.0046661363  0.036211469    1.6750112 
 5104000    381.58965   -7233.6972    1728.4689   -4452.5156   -2249.0561    13616.282  0.004665426  0.036205649    1.6749707 
 5106000    389.29204   -7233.4713    3751.6084   -416.53667   -1772.6762     10597.34 0.0046697297   0.03620453    1.6750251 
 5108000    375.08264    -7233.971    1176.3787   -1646.9138   -2841.5337    13162.889 0.0046711499  0.036200433    1.6750409 
 5110000    397.82078   -7233.4897    4338.9541   -824.58156   -1826.4966    11616.281 0.0046700851  0.036200572    1.6750433 
 5112000    394.62269   -7232.9053     5300.817     -1755.02   -3258.4073    15513.131 0.0046694918  0.036200517    1.6750249 
 5114000    389.89821   -7234.0915    2207.1446   -2736.1128   -3791.7482    12906.276 0.0046710075  0.036205047    1.6750595 
 5116000    398.54982   -7234.5525    2727.3189   -810.74314   -2782.1701    12983.737 0.0046724269   0.03619981    1.6750744 
 5118000    394.64691    -7233.338    810.06758   -2824.2678   -1857.0927    14815.672 0.0046724657   0.03619762    1.6750181 
 5120000    403.75567   -7234.7571    1720.6895    2728.0562   -3101.8525    15057.772 0.0046719259  0.036193455    1.6750377 
 5122000    406.92621   -7233.0396    5929.3081     -2064.79    2522.3358    10955.666 0.0046726503  0.036189143    1.6751579 
 5124000    406.93028   -7233.0369    1754.2545    3580.6099    -4205.002     12706.63 0.0046740247  0.036183379    1.6751365 
 5126000    428.07029   -7233.8815    3741.3873   -2177.0444    586.62081    10681.478 0.0046733256  0.036184996    1.6750793 
 5128000    424.69191   -7234.1157    3534.0172    629.58865   -4398.1599    14579.372 0.0046719382  0.036182062    1.6750849 
 5130000    398.63738   -7233.0827    3894.5085   -940.33848   -3238.4296    13934.644 0.0046707092  0.036189756    1.6750794 
 5132000    394.13491   -7233.9529    4604.7804    391.82274   -727.76432    12532.057 0.0046778613  0.036186344    1.6751918 
 5134000    400.21924   -7233.9998   -10.988645   -2039.4884   -1920.1965    10658.206 0.0046810072   0.03618825     1.675195 
 5136000    419.24435   -7234.5932    3092.5896   -793.59204   -3062.5148    10177.291 0.0046793193  0.036186771    1.6752235 
 5138000    416.62196   -7233.7012    808.54175   -1642.5239    837.71043     11734.99 0.0046802047  0.036188763    1.6752101 
 5140000    410.13559   -7234.2139     1749.149   -842.44575   -1078.9738    12650.541 0.0046773811  0.036176796     1.675203 
 5142000    394.82645   -7233.7845    4774.9974   -1460.5036   -3094.2137    13491.391 0.0046781016  0.036168798    1.6752164 
 5144000    378.72116   -7233.9545    1559.9515   -2076.9652   -2202.7159    12473.882 0.0046761003  0.036174872    1.6751896 
 5146000    400.68927   -7232.5906    5463.0722    -1909.923   -2658.7821    12092.961 0.0046873698   0.03617895    1.6752406 
 5148000    437.14446   -7234.2125    7254.5149   -322.67092   -2260.4565    11362.789 0.0046953567  0.036171138    1.6752983 
 5150000    438.38866   -7232.5738    2262.4087    2457.3454   -2605.6617    11987.222 0.0046937027  0.036183485    1.6752326 
 5152000    390.71153    -7233.074     4960.474   -55.484885   -847.48699    13123.131 0.0046922814  0.036192094    1.6752109 
 5154000    418.29076   -7231.9456    2750.3251    1095.1858   -1764.0975    13259.717 0.0046937146  0.036183179    1.6752735 
 5156000     408.2296    -7234.282     3621.501     260.7554   -1838.9058    12342.349 0.0046942014  0.036178918    1.6752699 
 5158000    386.17325   -7232.6108    3741.2095    741.89302   -3344.6981    12183.779 0.0046936444  0.036174827    1.6751895 
 5160000    412.13827   -7235.1014    2267.5385   -383.59959   -1318.8176    12747.123 0.0046932376  0.036173862    1.6751922 
 5162000    398.82952   -7235.2821    3860.9107    437.61808   -4274.5146    13414.756 0.0046939138  0.036168654    1.6751771 
 5164000    392.97579   -7234.3734    4964.3141   -342.05486   -1096.8934    13499.553 0.0046940939  0.036169269    1.6751647 
 5166000     409.1408   -7233.9133    4648.8979   -2361.8761   -909.24858    13884.773 0.0046938777  0.036173025    1.6752372 
 5168000    400.15926   -7234.0669    1719.8445   -570.58927   -2009.3638    12505.142 0.0047020095  0.036168546    1.6752591 
 5170000    403.52773   -7234.3918    4712.1709   -675.99388   -871.65942    11043.065 0.0047003927  0.036165895    1.6751641 
 5172000    408.11047   -7235.7377    2468.1124    1072.8833   -841.47387    12267.568 0.0047029461   0.03616263    1.6752627 
 5174000    380.94651   -7233.3705    2848.9115   -3956.4062   -1246.2979    11271.448 0.0046988525  0.036153837    1.6752619 
 5176000    425.90984   -7231.5312    6938.2368   -1603.6405   -4281.8983    10294.424  0.004697846  0.036161815    1.6752347 
 5178000     410.0536   -7232.5652    81.265126   -3045.0789   -3826.4336    10574.023 0.0046986269  0.036172317    1.6751872 
 5180000    386.27835   -7233.8674    5859.0937   -2119.4725    428.48427    12176.933 0.0046986658  0.036163642    1.6751794 
 5182000    393.72753   -7232.4638    1933.6998   -2792.5996   -3266.4735    9559.3224 0.0047011902   0.03615602    1.6752747 
 5184000    440.52122   -7234.7525    4822.8608    695.66791   -1117.3936    15213.797 0.0047030142  0.036165765     1.675225 
 5186000    406.09088   -7235.0242    2973.3467   -1672.5009   -2355.3957    11914.241 0.0047021727  0.036162673    1.6752825 
 5188000    360.16004   -7234.6765     2848.299    502.73885   -2004.5186    14793.136 0.0047018519  0.036151596    1.6752586 
 5190000    398.26301   -7232.3896    2000.1695   -1042.6197   -5080.4193    9998.5577 0.0047018473  0.036157737    1.6752325 
 5192000    368.47763   -7234.2814    2366.4605     -437.982     -1880.77    12979.623 0.0047009587  0.036175013    1.6751885 
 5194000    412.20335   -7233.9262    2946.8414   -959.00058   -1998.3958    10398.373 0.0047001235  0.036169714    1.6752111 
 5196000    390.46727   -7234.0912    724.52407   -1539.2171   -1774.2934    12565.675 0.0046999115  0.036170583    1.6752295 
 5198000    406.99884   -7235.0087    -128.2942   -883.52029   -3188.7786    11583.634 0.0047072408  0.036172728    1.6752618 
 5200000    368.70617   -7233.9168    2402.9725   -529.91673   -3194.9873    10915.635  0.004703978   0.03616761    1.6752372 
 5202000    378.69243   -7232.5804    1660.7185    126.59004   -4786.0996    11030.047 0.0047033757  0.036173304    1.6752228 
 5204000      403.858   -7233.7086    5106.6599    517.49895   -2656.1939    11562.194 0.0047024468  0.036171764    1.6752856 
 5206000    408.51764   -7233.9025    1446.8626    -2771.567   -1678.3328    11166.401   0.00470374  0.036167522    1.6752727 
 5208000    383.19491   -7232.3894    838.54592    -1175.289   -3687.6983    12031.805 0.0047013112  0.036173573    1.6752376 
 5210000     378.9662   -7234.8361      4013.97    1629.8486   -2197.4628      11506.4 0.0046997138  0.036183045    1.6751974 
 5212000    404.87856   -7232.9949    1618.4056   -2401.5283   -368.78185    12722.588 0.0047018551  0.036179287    1.6752158 
 5214000    393.43575   -7233.7513    3928.3627   -774.10767    -2550.336    14508.792 0.0047092062  0.036169719    1.6752715 
 5216000    385.16894    -7235.082    2275.1538    1623.5919    413.31994    11804.929 0.0047092418  0.036167386      1.67536 
 5218000    423.28647   -7234.7537    4630.1714   -808.68515    1476.7006    11944.825 0.0047072683  0.036172723    1.6753661 
 5220000    416.73674   -7234.9823    4328.7279   -605.22228   -1228.6595     11752.22 0.0047116358  0.036177952    1.6752684 
 5222000    371.29487    -7234.043    3716.8153   -218.38367    871.59246    12343.471 0.0047101939  0.036181936    1.6753244 
 5224000    448.87338   -7234.8091    3341.4884    394.47433    -2999.196    13335.061 0.0047087095   0.03618628    1.6753556 
 5226000    404.85594   -7235.4408     4079.628    594.38204   -2809.0306    11054.156 0.0047134737  0.036180886    1.6753553 
 5228000    387.38796   -7234.3003    4999.8623   -1019.9825   -2235.5872    12270.483 0.0047197202  0.036176164    1.6753593 
 5230000    382.54152   -7232.0377    3148.1779    460.27632   -3644.8994    10952.356  0.004722966  0.036177928    1.6753695 
 5232000    390.75259   -7234.3328    6188.6373     3044.761    1356.0179    12055.806 0.0047216056  0.036173676    1.6753311 
 5234000    389.31015    -7234.963    3950.7037   -1436.5988   -1655.0806    11223.137 0.0047196839   0.03617156    1.6753853 
 5236000    373.22738    -7235.264    4524.8397   -489.75847   -1571.3502    12822.355 0.0047247625  0.036167162    1.6754366 
 5238000    416.42241   -7234.2968    2209.0373   -650.53899    352.12364    13029.525 0.0047242891  0.036164946    1.6753879 
 5240000    394.79368   -7233.9061    2823.7723   -1091.0105   -3543.4058    14578.961 0.0047256989  0.036162052    1.6754038 
 5242000    401.12708   -7232.4319    3752.1245    493.66028    165.02124    10357.403 0.0047276143    0.0361642    1.6753892 
 5244000    396.07605   -7232.8419   -155.13716   -2299.4112    -1660.757    13213.601 0.0047266019  0.036165525    1.6753456 
 5246000     407.3405   -7233.9045    2043.9459   -382.30464   -1889.3342    12085.254 0.0047252466  0.036157746     1.675395 
 5248000    370.70971   -7233.3638   -1996.4162    -1245.543    -242.3114    10995.623 0.0047237468  0.036160885    1.6753782 
 5250000    393.24602   -7233.6107    1033.4944    2644.7255   -249.89558    15435.632 0.0047229058  0.036148555    1.6753515 
 5252000    384.71499   -7233.4432     560.3459   -686.50971   -702.50195    13952.586  0.004721325  0.036136807    1.6753838 
 5254000    423.78229    -7234.376   -632.77781   -1072.0355   -2395.9269    12287.801  0.004721235  0.036140326    1.6754026 
 5256000    411.15219   -7234.2734    1493.1826   -2362.4229   -1434.9236    11811.801 0.0047236504  0.036136134     1.675401 
 5258000    407.42408   -7234.2366     1648.729   -1098.1338   -1510.4633    12952.404 0.0047323194  0.036130725    1.6753207 
 5260000    400.77128   -7234.6573    2430.4476   -1133.8442   -2542.6838    11634.704 0.0047308921   0.03613968    1.6753594 
 5262000    413.75849   -7234.6945    2732.9872    -826.7922   -108.34451    11170.881 0.0047294393  0.036142528    1.6754077 
 5264000    401.65147   -7233.6094    1041.6239   -2778.2431   -2157.6131    10790.857 0.0047272495  0.036148289    1.6753803 
 5266000    438.27139   -7232.4768    2803.6813   -755.97186    -1141.378    11576.547 0.0047398035  0.036136795    1.6753974 
 5268000    386.51643   -7233.7166    2564.5483    1160.2175   -4399.9981    10995.501 0.0047382345  0.036130591    1.6753749 
 5270000     391.7232   -7233.1512     3496.902   -689.97592   -1104.6984     13280.28 0.0047355039  0.036128939    1.6754022 
 5272000    398.53387   -7233.4477    3776.9075   -1970.2902   -2465.0795    12709.218 0.0047363691  0.036120488    1.6754588 
 5274000    404.76487    -7233.272    3584.1379    752.14515    -534.3038    11748.967  0.004738799  0.036115529    1.6754344 
 5276000     417.1243   -7233.6467    2911.6594    1680.3629   -1443.3721    11902.401 0.0047380589  0.036110776    1.6754619 
 5278000    388.30344   -7235.3142    4434.5945    127.04323   -1224.5597     12045.69   0.00473687  0.036111568     1.675398 
 5280000    385.75921   -7233.3519    3688.2775   -1129.3061   -1693.6091    13537.738 0.0047350822  0.036113185      1.67542 
 5282000    397.45585   -7234.4131     2213.502   -1511.8525   -1769.7519    12970.114 0.0047336741  0.036113393    1.6754468 
 5284000    418.53436   -7233.9304    1753.7691   -31.971279   -708.23982    13580.334 0.0047391511  0.036117065    1.6754565 
 5286000    410.82991   -7233.2832    2502.5566    79.252986   -1908.7767    12362.533 0.0047410151  0.036113489    1.6754782 
 5288000    387.32864   -7233.7548     4870.005    -1964.495   -2169.6605     14330.23 0.0047420522  0.036115305    1.6754699 
 5290000    395.19361   -7234.0406    5682.7588   -620.57787   -340.55676    14386.644  0.004742231  0.036113252    1.6755406 
 5292000    396.22967   -7234.7499    2366.9036   -3991.1236   -3406.7638    10529.713 0.0047439541  0.036100956    1.6755061 
 5294000    398.12484   -7232.3464     2871.292   -2373.9577   -2790.1756    11421.197 0.0047435421  0.036118082     1.675413 
 5296000    384.41825   -7234.0994    3517.6487   -3220.4524   -1623.7846    10267.031 0.0047438003  0.036124668    1.6753843 
 5298000    387.39074   -7233.8269    4783.6125   -1144.6451   -1282.3885    13238.825  0.004744176  0.036121289    1.6754605 
 5300000    421.22507   -7233.8604    4577.9757   -84.697859   -1215.0227    10368.215  0.004743127  0.036119955    1.6755718 
 5302000    389.55762   -7233.9925    2135.2822   -1683.8632   -2949.7583    11040.342 0.0047418148  0.036109735     1.675531 
 5304000    430.82629   -7234.3365    2731.8601   -1144.2984   -2576.2709    12278.681 0.0047453953  0.036114149    1.6754987 
 5306000    405.68128    -7232.634    4561.4576    -2940.677   -2304.0685    12221.377 0.0047464259  0.036121101    1.6755777 
 5308000    404.66913    -7233.069    5659.3166   -1462.1066    77.954328    14027.918 0.0047448108  0.036112923     1.675638 
 5310000    404.57764   -7234.0878    6453.3358   -3572.6793   -1998.7941    11961.201 0.0047427699  0.036111739    1.6756143 
 5312000    391.88525   -7233.5723    5717.6247   -1490.9805   -2031.7802    16179.103 0.0047410682  0.036120727    1.6755276 
 5314000    379.04593     -7233.09    4254.4854   -1134.3601    505.68652    10505.935 0.0047491519  0.036127085    1.6755037 
 5316000    385.73802   -7234.6211    3631.2885   -1984.3492    829.32582     13503.27  0.004751122  0.036122823     1.675503 
 5318000    431.45175    -7234.623    3853.3454    1321.7026   -2173.9253    10079.896 0.0047524255  0.036117446    1.6755506 
 5320000    404.74908   -7233.4521    1638.4677   -2635.2237    408.32834    12169.592   0.00475084  0.036126894    1.6755723 
 5322000    404.35371   -7234.9205     3116.473   -1246.0904    117.43888    10649.509 0.0047519913   0.03612073    1.6754546 
 5324000    408.53241   -7234.8982    3153.5902    2100.7346    594.29716    10044.876  0.004754062  0.036119045    1.6754206 
 5326000    371.16828   -7233.0721    4017.5958   -1362.1689   -2955.9969    10690.634 0.0047515869  0.036120573    1.6753954 
 5328000    424.06126   -7234.1862    4303.7643    906.31328   -1542.4493    13041.874 0.0047512723  0.036126294    1.6754844 
 5330000    412.98254   -7232.7894    4771.7416   -3047.4115    -2913.096    12087.117 0.0047500689  0.036132688    1.6755371 
 5332000    407.11667   -7234.9539    3532.7161   -677.94258   -812.22622    13972.937  0.004759179  0.036121043    1.6754836 
 5334000    379.17055   -7234.5706    2142.3189    -1051.144   -946.41599    13671.467 0.0047623105  0.036117534    1.6754721 
 5336000    389.15036   -7232.6456    3633.6571    92.024418   -690.40791    15219.379 0.0047608026  0.036118893    1.6755336 
 5338000    413.09363   -7233.4398    1373.5057   -1208.0864    2203.1527    13736.408 0.0047613068  0.036118869    1.6756039 
 5340000    389.42973   -7234.0445    3826.1926   -197.77175   -3182.8184      12200.5 0.0047635134  0.036110853    1.6756517 
 5342000    397.99811   -7234.5509     1947.843   -4092.5547   -1581.2152    13432.163 0.0047695438  0.036116396    1.6755662 
 5344000    395.82732   -7233.6869    3868.7056    159.53133   -2414.1666    13736.148 0.0047789049  0.036115365    1.6755459 
 5346000    388.33363   -7234.9288    4266.0702   -4131.0848   -2219.7922    13675.385 0.0047782289  0.036114628    1.6756031 
 5348000    438.38445   -7233.2527    3935.9386   -1000.2541    -2661.337    12559.042 0.0047778131  0.036113902    1.6756858 
 5350000    410.37275   -7233.7185    1975.1029   -362.72556   -4372.9055    11336.189 0.0047761283  0.036120379    1.6756584 
 5352000    405.88271   -7235.1865    2448.7208   -5489.2225   -1014.9408    15021.205 0.0047752701  0.036127122    1.6756071 
 5354000    374.09893   -7234.4732    3795.3746    348.04404    -1571.635    12309.395 0.0047743086  0.036125758    1.6756536 
 5356000    423.07507   -7234.0813    4704.7934    -1953.004   -1649.6166    13197.364 0.0047721606  0.036123797    1.6757055 
 5358000    383.88852   -7233.7174    4086.4831   -1957.5102   -1849.6533    12022.088 0.0047774817  0.036122911    1.6757465 
 5360000    412.78491   -7232.7803    2723.6976   -281.10724   -1338.0968    15465.959 0.0047769714  0.036124658    1.6757478 
 5362000    405.68188   -7233.8612    3333.7923   -1835.1941   -2040.9626     13540.51 0.0047762122  0.036124298    1.6757233 
 5364000    400.38775   -7233.9715    4546.1493    262.44294   -976.61522    14002.762 0.0047811184  0.036124451    1.6756921 
 5366000    413.95631   -7232.4221    3976.5826    803.60379    449.44649    15270.917 0.0047798468  0.036124299     1.675745 
 5368000    372.58538    -7232.772    1931.7244    1326.6138   -959.68259    14874.004 0.0047779814  0.036126558    1.6758763 
 5370000    356.26816   -7234.3087    4049.2395   -433.99019    1349.3289    11503.827 0.0047798983  0.036120405      1.67585 
 5372000    408.93056   -7233.3454    3782.2122    -1343.371   -4025.0445    11517.873 0.0047824482  0.036115001    1.6757939 
 5374000    397.73554   -7234.1535    3871.3528    1460.1288   -814.01875    12254.672 0.0047930065  0.036118148    1.6758465 
 5376000    406.75928   -7232.9885    4077.2112    274.57127   -2305.6626    14167.306 0.0047906957  0.036115476    1.6759145 
 5378000    409.85168   -7234.3661    3899.9521    761.26719   -1284.8082    12004.642 0.0047907194  0.036110749    1.6759279 
 5380000    401.25904   -7231.5643    5276.5124    1972.0271    122.38224    13749.174 0.0047886083   0.03611434    1.6758925 
 5382000    401.95339   -7234.0566    5055.0821   -543.75761   -1420.8558    12789.378 0.0047870286  0.036115984    1.6758919 
 5384000    376.54584   -7235.0747    3101.0267    848.21645   -1579.2322    11957.363 0.0047895679  0.036119782    1.6758799 
 5386000    390.11447   -7232.9221    2321.3254     436.8359   -1955.1459    13807.459 0.0047948619  0.036110438      1.67595 
 5388000    384.69324   -7233.1203    1992.4313    -2240.241   -3921.0772      9194.29 0.0047938755  0.036105745    1.6759875 
 5390000    406.32524   -7234.1394    123.98192   -521.99276   -275.68637    9890.9097 0.0047974307  0.036108656    1.6759646 
 5392000    388.84804   -7235.8758    1434.9396    1420.9529   -2672.5042    11581.772 0.0047960269  0.036110551     1.675942 
 5394000     388.0664    -7233.754    -152.1941   -3523.0046   -718.04816     9093.354 0.0047944023  0.036117312    1.6759046 
 5396000     404.2677   -7233.3765    3595.0945   -1021.4937    226.02894    12087.277 0.0047980196  0.036110587     1.675913 
 5398000    412.97039   -7233.7415    463.46842   -36.771529   -1831.6155    10626.226 0.0047960327  0.036105377    1.6759452 
 5400000    417.37399   -7232.2821    2832.6887    -2798.146   -1040.3115    10665.919 0.0047960427  0.036106977    1.6759867 
 5402000     400.5299   -7233.8397     3118.012   -72.203804   -1560.1813    11407.065 0.0047967841  0.036102391    1.6760355 
 5404000    389.69754   -7233.3186    2738.5192   -2711.4803   -939.03071    12007.962 0.0047987122  0.036099298    1.6760193 
 5406000    382.66401   -7232.9328    5949.1944    126.14683    169.05569    11731.103 0.0048027514  0.036100493    1.6760067 
 5408000    390.07506   -7233.0269    4695.7182    522.65601   -4431.8494    13176.312 0.0048003795  0.036114387    1.6759929 
 5410000    416.14092   -7234.7318    744.73609   -2659.4893   -2498.1907    13799.643 0.0048016205  0.036113986    1.6760395 
 5412000    405.83743   -7232.6445    4075.2823   -122.60979   -4302.5462    13467.384  0.004805406  0.036112088     1.676021 
 5414000    387.39102    -7234.251    1836.0349   -4911.1356   -1937.8002    12835.805 0.0048046822  0.036115296    1.6760036 
 5416000     418.7481   -7234.0304    5241.8707   -783.63532   -2725.5942    12591.808   0.00480917  0.036107902    1.6760418 
 5418000    424.21407   -7233.3413    2690.5681   -1772.1592   -3151.4087    9621.5004 0.0048076722  0.036098552      1.67606 
 5420000    411.67784   -7234.4142    3268.1582   -2578.4765     -1385.29    11413.394 0.0048061089  0.036099717    1.6760056 
 5422000    388.90405   -7234.3487    3765.1977   -3693.8494   -3186.8836    8510.8084 0.0048122396  0.036094017    1.6760369 
 5424000    423.31688   -7233.9259    957.29892   -2847.0484   -2516.3796    12430.338 0.0048114161  0.036101874    1.6759878 
 5426000    389.49306    -7233.993    3338.9953   -3336.2292   -2710.8867    12603.921 0.0048143165  0.036099352    1.6760133 
 5428000    396.71209   -7234.8841    3328.6211   -1621.0971   -2284.3348    10509.694 0.0048152758  0.036102982    1.6759926 
 5430000    396.35977   -7235.7047    1441.3583   -1624.1352   -1867.2646    14953.727 0.0048137385  0.036109299     1.675987 
 5432000    391.41102   -7234.2526    3772.4962   -598.05827   -3363.2815    10941.601 0.0048148357  0.036113229    1.6760764 
 5434000    390.18451   -7232.9092    1056.6955   -2615.2259    -848.2515    11106.568 0.0048122878  0.036109816    1.6760532 
 5436000    394.05403   -7233.7925    1032.0561   -1410.7685   -3396.5261    11204.551 0.0048140891  0.036104267    1.6760855 
 5438000    394.53504   -7234.0765     1925.869    398.49345   -325.49995    11920.167 0.0048216165  0.036098487    1.6760745 
 5440000    367.75799    -7234.449    865.49745   -1070.8839   -3184.5341    11275.964 0.0048195646  0.036101883    1.6761032 
 5442000    390.45255   -7235.7343    4387.3324    3404.1863    -2694.252    11193.672 0.0048223884  0.036103926    1.6761741 
 5444000    398.73227   -7233.5194    2109.8591   -311.52672    335.86018    10780.584 0.0048197788  0.036107121    1.6761088 
 5446000    396.52303   -7232.5345    5260.5176    1240.8987   -2944.2437    12161.249 0.0048181853  0.036109502    1.6760631 
 5448000    439.35357   -7232.0167    3061.6582   -93.377791   -503.10232     11455.36 0.0048179977  0.036104915    1.6761024 
 5450000    377.40187   -7235.6388    867.47005     323.8246   -1290.6529        11993 0.0048159688  0.036100606    1.6761309 
 5452000    408.33771   -7233.9661    3484.5931   -1794.7235   -1856.1542    12401.874 0.0048165263  0.036094901    1.6761885 
 5454000    398.60167   -7233.7278    4384.7511   -1040.4115     -1329.92    10073.455 0.0048214102  0.036097548    1.6761715 
 5456000     412.1411   -7234.2945    3764.7308   -1970.8494   -3819.6383     11962.54 0.0048211803  0.036097781    1.6761126 
 5458000    403.51634   -7233.2217    4426.7852   -744.55058   -2221.7069    11672.169 0.0048199259  0.036097874    1.6761405 
 5460000     371.9526   -7234.7645    1136.8322   -3567.0201   -2204.6548    12299.495 0.0048177449   0.03610416    1.6760887 
 5462000    357.09977   -7234.3268    1820.1277   -4473.9484   -972.26461    12779.047 0.0048237852  0.036110859    1.6760979 
 5464000    411.13822   -7234.9314    2437.9014   -641.75325   -2988.3384    12849.917 0.0048346254  0.036104047     1.676146 
 5466000    393.72668   -7235.2036    2614.5282   -112.33625    664.75179     11677.03 0.0048330444   0.03610167     1.676135 
 5468000    413.20699   -7233.2643    4151.7965   -691.53263    124.54317    13174.778  0.004831829  0.036094631    1.6761349 
 5470000    388.66658   -7234.1273    4162.7873    -548.8388    -2819.012     11899.66 0.0048328611  0.036093513    1.6761121 
 5472000    400.20175   -7233.7058    3887.1862   -856.74673   -1684.5665    15209.835 0.0048314556  0.036096578    1.6762016 
 5474000    404.38793   -7234.6364    1430.7276   -2475.4502   -340.90219    12643.699  0.004832606   0.03610033    1.6761707 
 5476000    418.82613   -7233.7077    3801.0982   -275.17591   -1942.7355    11021.128 0.0048349486  0.036099729    1.6760685 
 5478000    389.48387   -7233.2056    2226.0856   -822.92384   -1231.8583    15117.233 0.0048363078  0.036103984    1.6760867 
 5480000    402.83755   -7233.0531    3200.5675   -2088.0149   -1592.4325    12775.945 0.0048421263  0.036104834    1.6761549 
 5482000     373.6385   -7233.8197    3034.9726    -1075.058   -608.88588    15086.888 0.0048433944  0.036097315    1.6761815 
 5484000    421.10989   -7233.8591    4780.4135   -131.15646   -3401.2393    10650.612 0.0048454124   0.03609519    1.6762239 
 5486000    418.51016    -7234.754    4062.3697   -2047.8052    -2215.675    10958.541 0.0048420621  0.036112199     1.676216 
 5488000    399.76075   -7232.3913     3475.047   -981.08617   -1802.8803    15918.442 0.0048401099  0.036111965     1.676195 
 5490000    434.64845   -7235.3722      3539.16     104.1416   -3285.5841    8526.5815 0.0048407604  0.036099459    1.6762197 
 5492000    397.58475   -7234.3064    566.29365   -961.69629   -2340.2138    12088.323 0.0048377228  0.036104649    1.6761315 
 5494000    414.17675   -7235.1158    1972.2322   -1097.3193   -2124.0426    14012.731 0.0048398744  0.036108679    1.6762052 
 5496000    375.71261   -7233.3724    3021.5467   -1944.3085    76.230713    11071.702 0.0048393148  0.036099122    1.6762531 
 5498000    400.48361   -7234.0934    1634.6296    159.70538   -3630.9079    13670.384  0.004839709  0.036097875    1.6762091 
 5500000      400.748   -7233.1383     4011.272   -2378.9704   -2606.7481      13441.4 0.0048417297  0.036105038    1.6762669 
 5502000    402.76979   -7234.2828    4466.3479    -1668.933   -122.36205    13764.145 0.0048445309  0.036103418    1.6763107 
 5504000    411.52905   -7233.7427    567.29115    1007.3483   -2655.4637    15024.268 0.0048510989  0.036101709    1.6763467 
 5506000    408.68623   -7234.4166    6904.9828    75.742451    -549.2704    7775.2236  0.004849321  0.036098819    1.6763088 
 5508000    413.05135   -7233.8459    3511.3614    1118.3098   -2646.5108    12639.086 0.0048478375   0.03609675    1.6762602 
 5510000    400.57207   -7234.6054    5007.0573    151.49157   -3087.3571    7868.1795 0.0048474546  0.036098846    1.6762832 
 5512000     410.6557   -7233.6274    886.37048    665.03347   -218.68904    11901.811 0.0048474041  0.036092605    1.6762709 
 5514000    411.37056   -7234.2654    613.69457   -1661.7355   -761.45736     12978.39 0.0048470493  0.036084219    1.6763331 
 5516000     403.1773   -7234.8388    1979.7362    62.666127   -5183.3141    13214.061 0.0048466387  0.036093555    1.6763527 
 5518000    418.60639    -7235.177    1904.0389    248.56723   -243.23556    12817.521 0.0048447275  0.036096231    1.6763782 
 5520000    382.55939    -7234.454    2577.1141   -2746.5743   -152.06597    13213.595 0.0048473043  0.036087559    1.6763324 
 5522000    395.24919   -7233.3391    4055.7659   -966.27511    -1808.416    15953.571 0.0048579141  0.036079691    1.6763427 
 5524000    420.63052   -7234.0247    3060.7341   -116.23218    -4437.117    10427.358 0.0048564229  0.036093515    1.6763956 
 5526000     386.3868   -7233.9179    6227.0135   -1168.1834   -58.448842    15797.054 0.0048551528  0.036108186    1.6763518 
 5528000    389.81155   -7233.3502    4353.6427   -1449.6579   -1391.9925    10241.076 0.0048535783   0.03610719    1.6763734 
 5530000    364.58425   -7232.8398    3294.9884    1090.6916  -0.22708082    10461.266 0.0048556017  0.036102164    1.6762778 
 5532000    389.58062   -7234.0711    5693.0193   -1462.4262    1112.5444    12360.336 0.0048525338  0.036097075    1.6762667 
 5534000    380.05447   -7233.6498    2429.4321    1669.7171    568.17669    13012.187  0.004852702  0.036088321    1.6763592 
 5536000    368.85603    -7232.741    4048.6372    2122.9847   -1992.9509    12333.957 0.0048518017  0.036079382    1.6763912 
 5538000    391.32889   -7234.1774    4047.7363   -353.01914   -1626.1009    11907.823 0.0048515961  0.036081623    1.6763746 
 5540000    378.96711   -7233.4604    2737.2027   -1924.7718   -2490.2599    14492.599 0.0048529422   0.03609149    1.6763081 
 5542000    395.15942    -7233.839    3109.5868   -1658.2774   -842.65992    14655.732 0.0048530117   0.03609713    1.6762836 
 5544000    409.68837   -7233.2598    5225.9981   -1275.0674   -2330.0936    14646.524 0.0048540952  0.036094579    1.6763378 
 5546000     393.5074   -7234.1408    3677.9519    107.59339    2202.7592    13006.264 0.0048518103  0.036097252     1.676337 
 5548000     389.6217   -7235.9936    4085.8171    -834.8058    -2011.477    14051.458 0.0048503729  0.036087611    1.6763898 
 5550000    401.68469   -7233.8553    3687.8221   -1379.2635   -1590.5697    10204.272 0.0048535402  0.036079447    1.6763369 
 5552000    403.81009   -7233.9605    732.95314    -751.3262   -2092.9386    13931.367  0.004857394  0.036080277    1.6763067 
 5554000    373.13931   -7234.3203    853.12121    845.74648   -838.09162    11732.569 0.0048581007  0.036076917    1.6764352 
 5556000    420.20267   -7233.8524    1175.4437    1068.0078   -2987.2416    13676.336 0.0048564717  0.036081717    1.6764079 
 5558000    387.69504   -7233.9763    945.77951   -1842.4906   -348.92347    12052.348  0.004856837  0.036090389     1.676406 
 5560000    404.30274   -7233.2656     2402.999   -2651.0005   -1480.7668    13258.801 0.0048572395  0.036087377    1.6763346 
 5562000     387.6086   -7233.9254     2041.379    27.555374   -1680.2602    12393.974 0.0048567807  0.036081971    1.6763696 
 5564000    391.57317   -7233.9583    3475.1353   -2165.2448   -3992.5044    14081.169 0.0048586048  0.036078741    1.6763882 
 5566000    404.46576   -7234.8424    6401.6376   -911.04322   -2664.2927    12147.535 0.0048572636  0.036076481    1.6764295 
 5568000    408.78762   -7232.7097    2577.2505   -1223.9727   -3531.0787    12883.466  0.004857139  0.036074959     1.676517 
 5570000    401.39197   -7234.2134    5969.7511   -561.15967   -2023.6344    11707.597 0.0048609012  0.036077982    1.6764599 
 5572000    391.88829   -7232.3882    6267.2837    1017.4211   -2041.7416    14621.415 0.0048648166  0.036075248    1.6764541 
 5574000    390.07018   -7233.2118    3173.2938   -776.64339   -2689.1331    11740.016 0.0048637152  0.036073011    1.6764755 
 5576000     368.9035   -7233.4306    4017.4666    2064.1001   -3030.0112    14619.111 0.0048615398  0.036069965    1.6765058 
 5578000    393.47035   -7233.1351    3673.0706   -2815.2904   -4180.7136    12283.869 0.0048594631  0.036076493    1.6765078 
 5580000    400.68738    -7234.376    4372.4384   -2995.0506    62.843252    12763.987 0.0048642067   0.03607397     1.676526 
 5582000    393.07755   -7234.3172    3281.3446    1555.8018   -3707.1562    10218.012 0.0048667443  0.036072232    1.6765693 
 5584000    421.12932   -7235.1132    5800.5375   -3072.5916   -1104.3417    12000.782 0.0048644625  0.036072481     1.676547 
 5586000    404.60138    -7234.802    5971.9549    220.75504   -755.71906    12248.818 0.0048653239  0.036068341    1.6766039 
 5588000    402.97153   -7234.9856     3931.833    673.30843   -1549.6697    10637.436 0.0048687711  0.036068784    1.6765928 
 5590000    380.66454   -7234.2736    6462.7681   -1708.1188   -2542.7565    12820.276 0.0048659654  0.036070157     1.676584 
 5592000    407.25591   -7234.3691    3539.1098    713.76933   -2593.4023    11431.828 0.0048664834  0.036074511    1.6765445 
 5594000    396.82601   -7234.3307    3689.9236    81.610477   -2028.4904    12364.244 0.0048672435   0.03607592    1.6765207 
 5596000    398.50925   -7233.7445    4801.3109   -2102.4794   -2335.1859    14491.528 0.0048668389  0.036081173    1.6765793 
 5598000    419.85819   -7233.7418    1225.9609    -165.7936    71.801546    13270.942  0.004869658  0.036078531    1.6766286 
 5600000     403.9065   -7234.1527    2758.5792   -1365.8669   -1821.6608    13134.929 0.0048678943  0.036070712    1.6766121 
 5602000    412.78311   -7234.2431    1911.9607    98.516916    719.85965    12852.006 0.0048693986  0.036061964     1.676647 
 5604000    395.74683   -7234.9072   -919.33276    554.45446   -2123.6613    13427.256   0.00486673  0.036067985    1.6766431 
 5606000    403.90486   -7232.4074    3018.2618   -2352.1637    340.03557    12310.591 0.0048706384   0.03607422    1.6766528 
 5608000    383.72591   -7233.9779     2673.245     935.6093   -2476.4863    13738.434 0.0048733607  0.036078796    1.6765808 
 5610000    445.77801    -7234.642    1531.8985   -732.90033   -1566.4072     12852.13 0.0048742126  0.036085554    1.6765719 
 5612000    401.44705   -7232.7971     1380.748   -1178.9782   -1404.3282    12661.123 0.0048779426  0.036083695    1.6766565 
 5614000    417.00586   -7234.2806    4475.5015   -992.40777   -931.92394    13897.036 0.0048762178  0.036076698    1.6766613 
 5616000    365.12403   -7234.1491    5248.8175   -1034.3642    -4566.456     9747.515 0.0048809938  0.036068663    1.6766159 
 5618000    400.22018   -7234.5295    4866.9587    573.79431   -1310.4099    13895.181 0.0048806505  0.036076391    1.6765068 
 5620000    387.01625   -7233.6774    4857.2602    -174.2691    -1990.341     11253.78 0.0048815731  0.036077059    1.6765901 
 5622000    395.70173   -7232.6853    3209.9419   -1805.4285   -3659.3133    11095.333 0.0048800056  0.036077993    1.6766414 
 5624000    402.42309   -7234.4131    5258.7991   -1922.3315   -3566.1998    9744.9566 0.0048812255  0.036078369    1.6765656 
 5626000    422.84293   -7234.4457    2995.3886    679.63292   -3111.5248    13010.793  0.004880851  0.036081709    1.6765591 
 5628000    394.77317   -7232.8701    1836.7517   -3610.9092   -2074.6208     12208.16 0.0048828812   0.03607466     1.676539 
 5630000    411.32473   -7233.2128    2006.9221   -533.61869   -3712.9715    11276.335 0.0048848759  0.036068949    1.6765827 
 5632000    420.90097   -7233.8868    93.196089   -1251.4339   -2387.5199    12071.036 0.0048824577  0.036078675    1.6766157 
 5634000    419.51833   -7232.7712    3263.2995   -3619.9098   -3443.1322    9408.9974 0.0048811466  0.036085517    1.6766607 
 5636000    423.94209   -7232.9372    4563.5862    945.74434    433.95426    12315.883 0.0048837061  0.036087077    1.6766213 
 5638000    402.40569   -7233.1264    5217.6028   -3651.7975   -1176.7096    14565.653 0.0048831755  0.036082904    1.6765957 
 5640000    384.98767   -7231.7925    848.27872    -155.0408   -4951.1621     10644.28 0.0048829544  0.036083907    1.6766553 
 5642000    398.88615   -7232.9743    2542.1191   -3188.9331   -1039.0957    11335.505 0.0048821716  0.036085403    1.6766594 
 5644000    430.49011   -7234.2786    2310.5666    240.37014   -3038.9702     11950.61 0.0048841931  0.036085629    1.6766297 
 5646000    429.69921   -7234.2996    2237.4458    2176.0149   -546.44702    13724.492 0.0048841724  0.036078743    1.6766784 
 5648000    404.54446   -7233.2216    4472.7983    2035.9312   -1960.0127    13936.105 0.0048833055  0.036081379    1.6767249 
 5650000    412.27423   -7233.3252    3060.9042   -1058.6456   -1735.5696    12806.635 0.0048837802   0.03608677    1.6767117 
 5652000     426.0158   -7233.7695    4557.8538    -1651.598   -1505.4477    12303.349 0.0048812918  0.036091256    1.6767248 
 5654000    416.27079   -7233.4871    2245.8148    -1228.112   -532.52701      9161.41 0.0048831275  0.036086817    1.6767351 
 5656000    400.89999   -7232.9642    4438.6453    282.43283   -5043.0257    11261.309 0.0048820686  0.036086677     1.676683 
 5658000    397.67568   -7236.3936    2284.9764   -1814.5697   -3249.0822    12227.038 0.0048840843  0.036083621     1.676652 
 5660000    410.33925   -7234.9204    3573.5171    568.01008   -2890.2379    12789.996 0.0048826808  0.036079615    1.6767214 
 5662000    409.77429   -7233.4676    1516.7954   -1117.8786   -2985.7788    14659.295 0.0048828106  0.036080698      1.67674 
 5664000    415.51143   -7233.7645    3961.6447    2711.8566   -3277.2281    13166.127 0.0048834998  0.036088105    1.6767418 
 5666000    396.51193   -7233.2588    220.32995   -1634.2043   -2184.4148    12367.641  0.004885981  0.036094135    1.6767615 
 5668000    403.72192   -7232.9975     1335.624     729.5312   -1563.8574    13795.768 0.0048914087  0.036094601    1.6767662 
 5670000    420.23376   -7232.8997     1769.556    2818.0321   -2802.2176    11755.808 0.0048899565  0.036096352    1.6767824 
 5672000    390.75322   -7233.9859    1736.9343    380.45023   -1406.7372    13233.497  0.004890189  0.036095966    1.6767669 
 5674000    414.05945    -7232.367    4556.2834    782.20921   -3200.3176    14098.526 0.0048884658  0.036093942    1.6767365 
 5676000    386.93478   -7234.4528    1814.5023   -850.08092   -1417.9654    14982.727 0.0048920147  0.036092058     1.676804 
 5678000    432.33312   -7234.5171    3761.5103   -1101.0445   -1574.3239    15525.937  0.004896947  0.036094979     1.676809 
 5680000    366.82728   -7235.6379      4267.08    519.80718    -484.1913    13271.219 0.0048949382  0.036093269    1.6767965 
 5682000    402.56331   -7234.0344    1790.5523    -243.3899   -1217.5658    15496.181 0.0048932366  0.036089826    1.6768468 
 5684000     401.5088   -7233.9174    333.72752    1166.0837   -2420.5172    13024.954 0.0048925814  0.036080648    1.6768806 
 5686000    395.88836   -7232.8343    3369.8563   -620.03532   -3100.2413    12618.565 0.0048897161  0.036082791    1.6768813 
 5688000    396.70045   -7235.0088     2039.508   -1582.3007   -975.01898    15237.671 0.0048981219  0.036085173    1.6768816 
 5690000    397.09515   -7233.0249    3990.5477   -504.97957    470.36445    12885.193 0.0049025795  0.036095194    1.6769258 
 5692000    387.58444   -7233.3378    6190.4721   -4399.0593   -256.58417     15020.68 0.0049002236  0.036088219    1.6769226 
 5694000    425.00761   -7233.9029    1759.7552   -4615.8524   -578.33181    15200.265 0.0049019519  0.036092276    1.6769388 
 5696000    392.25648   -7232.9803    6371.2768   -219.41975   -1934.7032    11855.645 0.0049085489  0.036099835     1.676887 
 5698000    403.82883   -7234.7932    3017.6058   -3110.6691   -1593.6187    13282.543  0.004905419  0.036095463    1.6768815 
 5700000    385.40846    -7234.195    3160.5331    -252.2533    926.51027    11812.517 0.0049049838  0.036085753    1.6768872 
 5702000    424.38513   -7234.8747     3893.495   -1759.8479    -2196.459    11467.865 0.0049035019  0.036081967    1.6769363 
 5704000    388.70689    -7234.098      1242.32    969.29871   -2737.8743    11324.484 0.0049031274   0.03609633    1.6769239 
 5706000    400.52297   -7233.7537    4515.0758   -1790.7575     794.6504    11560.231 0.0049041259  0.036096637    1.6769204 
 5708000    398.07772   -7233.7312    3361.6039   -4284.1887   -1846.4204    12214.088 0.0049112255  0.036093695    1.6769095 
 5710000    421.28268   -7233.6672    4623.2834    -712.6763   -1522.4984    12139.376 0.0049151053  0.036089116    1.6769244 
 5712000    397.35945   -7234.3929    4662.7408   -2807.3739   -3159.0619    12803.568 0.0049141123  0.036092311    1.6768889 
 5714000    383.85569   -7234.3711    2778.6558   -2090.9456   -578.31083    11871.161 0.0049165822  0.036088424    1.6769738 
 5716000    400.47873   -7233.9504    4829.1185    554.89101   -3243.8234    10137.398 0.0049167833  0.036093198    1.6769717 
 5718000    415.07203   -7235.4009    4827.1101   -2487.1791   -3203.9368    12662.018 0.0049144342  0.036097414    1.6768915 
 5720000    404.11098   -7234.6666    3592.3341    747.84495   -1791.5446    14474.827 0.0049184457  0.036095947     1.676959 
 5722000    387.82926   -7234.4003    3916.6837   -957.72451   -3731.2566    11828.527 0.0049148237  0.036088485    1.6770207 
 5724000    388.19954   -7232.5524    3956.7998   -2338.5738   -1296.9756    12397.766  0.004922158  0.036086517     1.676969 
 5726000    382.06675   -7234.5035    2227.1851   -1491.3592   -2462.6218    10415.772 0.0049280215  0.036083809    1.6770036 
 5728000    373.73588   -7233.6181      5319.98    2739.7203   -1923.1483    8940.5713 0.0049303433  0.036087075    1.6769435 
 5730000    379.50352   -7233.0997    4021.1353   -543.64693   -1669.1528    11836.915 0.0049285379  0.036094697    1.6769754 
 5732000    436.22464   -7233.2932    5154.3641    1962.1384     1210.842    11970.498 0.0049271336  0.036096442    1.6769616 
 5734000    384.20373   -7232.1755    2692.0152   -1013.3631   -2031.2248    13481.375 0.0049253434    0.0360941    1.6769748 
 5736000    424.64257    -7231.979    4468.2371   -3889.5751   -1243.0688    13662.004 0.0049336589  0.036092859     1.676994 
 5738000    400.66794   -7233.9587     4764.654   -2601.3677    194.71654    11690.378 0.0049440125   0.03608839    1.6769714 
 5740000    396.17917   -7234.1184    5032.9338   -304.73519    1103.9557    15110.419  0.004946023  0.036082868    1.6770207 
 5742000    397.39559   -7232.9416    4277.6302     2328.583   -1365.3101    12471.221 0.0049446591  0.036087324    1.6770379 
 5744000    418.43279   -7233.2201    6199.2467    2353.2586   -233.80704    13167.786 0.0049433227  0.036090504    1.6770441 
 5746000    392.67274   -7233.4016    5150.8686   -2668.9078    137.96986     9477.643 0.0049438509  0.036083433    1.6769786 
 5748000    393.18432   -7233.1207    3330.4274    1333.2233   -1840.1984    12661.567 0.0049450344  0.036090566    1.6769434 
 5750000    394.22082   -7234.4867    2005.5507    53.118399    449.49269    11738.921 0.0049431932  0.036091429    1.6770299 
 5752000    385.58217    -7234.346    2457.6685   -2555.6625    970.29124    12710.096 0.0049418945  0.036081649    1.6770761 
 5754000    418.63539   -7233.7665    5290.6644    5013.2404   -571.38112    11237.743 0.0049467244  0.036074101    1.6771056 
 5756000    433.39788   -7233.7116    3557.8085   -788.06729   -1107.5812    12673.909 0.0049420216  0.036078851    1.6770366 
 5758000    394.19882   -7233.3123    1688.4666    2776.2199   -392.70335    10513.471 0.0049418913  0.036079904    1.6770272 
 5760000    413.48468   -7233.0382    3698.7461    -1375.019   -1143.2987    15096.499 0.0049397882  0.036084592    1.6770069 
 5762000    402.25063   -7233.5531    2353.3905    231.63314    -318.8431    11753.842 0.0049390253  0.036084265    1.6770133 
 5764000     429.0972   -7233.0286    3358.1156   -832.64497    -1088.926     14230.99 0.0049426428  0.036081447    1.6770582 
 5766000    419.25984   -7233.3949    3153.9233   -789.28259   -1560.6593    14403.192 0.0049520864   0.03607544    1.6771146 
 5768000    404.89807   -7233.7098    4398.6257   -1324.2622   -2905.6041    11201.721  0.004956396   0.03607024    1.6771253 
 5770000     419.1548   -7233.3149    2663.3314    1030.9552   -1619.4194    13288.272 0.0049546832  0.036075705    1.6771191 
 5772000    397.16118   -7233.2676   -83.949936   -1203.3538   -2610.9514    11485.848  0.004952674  0.036075063    1.6771201 
 5774000    377.32058   -7233.4387      1890.75   -2829.2358   -2031.7051    11603.518 0.0049510486  0.036076126    1.6771364 
 5776000    369.79353    -7234.173   -158.34604    731.83142   -2248.8647    12097.126 0.0049535853  0.036078879    1.6771536 
 5778000    424.24643   -7234.4114    417.48235   -2357.9641   -1008.4824    9108.0591 0.0049539522   0.03607261    1.6771765 
 5780000    399.49049   -7234.3199   -103.44224    869.79049   -1954.5375    11716.906 0.0049533529  0.036075701    1.6771977 
 5782000    377.33397   -7234.0186    1055.4617   -1119.0193   -4078.9237     13089.58 0.0049533683  0.036078225    1.6772333 
 5784000    382.92588   -7233.9921    3779.4592   -2862.6567    664.13122    13344.215 0.0049530467  0.036071027     1.677256 
 5786000    400.17941   -7233.1827     2579.862    716.95007   -5574.0325    9914.4431 0.0049559196  0.036064343    1.6772798 
 5788000    419.70913   -7235.0056    2919.0628   -1806.4077   -5657.1636    11933.275 0.0049546854  0.036081352    1.6772023 
 5790000    399.63553    -7233.221    4046.9886   -1700.2421   -1166.5765    10894.624 0.0049526256  0.036088737    1.6771936 
 5792000    405.26623   -7234.0512    4076.7591    2150.1536   -4348.1317    10303.951 0.0049518917  0.036080484    1.6772414 
 5794000    394.04193   -7234.9887    3392.2542   -2573.8938   -872.05483    10086.926  0.004949428   0.03609046    1.6772559 
 5796000    403.73578   -7233.7989    2643.6582   -2451.4149   -879.48447    14529.455 0.0049514741  0.036093953    1.6772137 
 5798000    377.52525   -7234.6392    2243.5148   -508.09782   -1851.6705    11586.851 0.0049555012  0.036086878    1.6772566 
 5800000    401.32412   -7233.3152     2383.138   -281.26769    -69.39293    13896.626 0.0049588138  0.036082574    1.6772483 
 5802000    396.24937   -7231.1727    2448.8705    267.44286   -2516.4213    15664.378 0.0049571838  0.036089025    1.6772317 
 5804000    397.67433   -7233.1026    3369.2049    1605.6316    656.27921    13337.517 0.0049552309  0.036090654    1.6772023 
 5806000    389.12577   -7235.4331    4462.0133    917.19553   -13.572658    14961.006 0.0049548505  0.036097476    1.6772297 
 5808000    390.05947   -7233.3326    2460.6863   -1532.5088   -583.60878    11376.691 0.0049546967  0.036090796    1.6772144 
 5810000    395.09524   -7234.4599    488.22172    -138.6975    1983.2996    15043.458 0.0049656225  0.036084844    1.6772344 
 5812000    398.84559   -7233.1809   -1345.0293   -634.07175   -169.94262    12751.576 0.0049636975  0.036079829    1.6773078 
 5814000    422.69783    -7232.757    2929.1365   -1921.7543   -553.49596    12798.206 0.0049633581  0.036077668     1.677332 
 5816000    393.91248   -7233.3099    2961.9804   -1994.9448    -1624.618     11701.92 0.0049638929  0.036076164    1.6773183 
 5818000    418.40569   -7233.7329    4442.8112   -1370.8977   -1084.8004    10236.069 0.0049631372  0.036075373    1.6773039 
 5820000    401.23667    -7234.389    4903.3374   -730.31025   -3457.7788    12378.438 0.0049613668  0.036083667    1.6772118 
 5822000    420.37457   -7234.5533    2157.7064    350.23197   -2936.9675    13125.835  0.004960166  0.036086051    1.6771933 
 5824000    428.39863   -7233.7747    4342.1222   -2029.2089    608.41427    13573.118 0.0049625097  0.036081606    1.6772873 
 5826000    390.28778   -7232.4167    2657.9666    817.49437   -2763.0864    13464.195 0.0049711099  0.036071901    1.6773493 
 5828000    379.76838   -7233.3474    3451.9524    576.11768   -2396.8406    11806.984 0.0049713843  0.036070944    1.6773031 
 5830000    419.75409   -7233.5021    3919.2494    1149.8853   -923.41353    15389.805 0.0049717559  0.036062547    1.6773568 
 5832000    406.96783   -7233.2541    3244.1476    106.16943    -4859.697    12060.994 0.0049697158  0.036060045    1.6774007 
 5834000    391.01366   -7233.7363    4597.6861   -410.18564   -1019.4352    12505.264 0.0049682236  0.036081298    1.6773213 
 5836000    396.22903   -7235.4585    7040.9427   -1912.6971   -3862.1731    10612.008 0.0049670669  0.036083325    1.6773314 
 5838000    379.82489   -7232.8979    2599.3429   -3887.4755   -423.27031    13905.413 0.0049761775  0.036086165    1.6773109 
 5840000    404.55543   -7234.2187    5043.6007    1363.6624   -1773.1945    15518.387 0.0049868499   0.03607895    1.6773665 
 5842000    368.26068   -7232.4038    1760.7709   -1411.9225   -429.82158    13904.912 0.0049877098  0.036075023    1.6773928 
 5844000    401.88573   -7233.4694    5495.3015   -1989.6617    1921.1134    11875.603 0.0049860263  0.036072733    1.6774651 
 5846000    382.69381    -7233.712    4240.4013   -2056.2882   -4342.8037    10324.731 0.0049859795  0.036072907    1.6773568 
 5848000    410.04728   -7234.1458    2515.1424   -1844.9747   -946.57274    12039.037   0.00498409  0.036079947    1.6773383 
 5850000    417.84784   -7235.4182    2259.8337   -1716.6504   -2463.9453    13383.765    0.0049866  0.036082414    1.6774616 
 5852000    403.02979   -7234.7295    2484.0498   -2287.1712   -3066.7012     11737.45 0.0049846684  0.036083343    1.6774522 
 5854000    404.87804   -7233.2597    2790.7627   -5631.2437    -811.6001    11052.503 0.0049862033  0.036087428    1.6774374 
 5856000    386.54783   -7233.3323    5338.2585   -1578.0427   -1449.2306    12289.899 0.0049893584  0.036077019    1.6774609 
 5858000    358.41575   -7234.5596    3340.1466   -3656.7442   -3389.6716    11296.911 0.0049917999  0.036071051    1.6774302 
 5860000    390.98358   -7232.4097    6586.8733   -1741.0632   -1615.1741    14228.251 0.0049905322  0.036073237    1.6774765 
 5862000    400.76258   -7234.1295    7148.4015   -2064.1767   -3106.1161    10000.524 0.0049894103  0.036071726     1.677505 
 5864000    428.49492   -7232.8093    4092.6625   -1505.3537   -2946.8689     11723.55 0.0049920352  0.036068715    1.6774736 
 5866000    417.78902    -7234.648    5592.3666   -1703.0077   -4426.0713      9834.69 0.0049911761  0.036077818    1.6774268 
 5868000    404.98824   -7233.3442    4070.6065   -2354.8235   -1171.8641    11752.022 0.0049929864  0.036083896    1.6774187 
 5870000    398.48333   -7234.4685    2377.6306   -2551.1653   -802.00398    12849.366 0.0049992584  0.036075286    1.6774391 
 5872000    387.96788   -7232.9052     5257.454   -553.78323    -2626.178    12365.027 0.0049981363   0.03606798    1.6774732 
 5874000     401.7233   -7233.2801    1310.8826    164.86792   -2317.8193    13003.323 0.0049962198   0.03606548    1.6774581 
 5876000    373.27717   -7232.9569    3151.6384   -1227.0286   -3995.4493    11569.399 0.0049941273  0.036071036    1.6774497 
 5878000    390.55397   -7233.2115    3104.3168   -2640.9865   -2951.7407    10620.767  0.004992964   0.03607158    1.6774182 
 5880000    390.07858   -7234.1186    1507.1418   -2028.9976   -62.048901    14246.943 0.0049918032  0.036069699    1.6774761 
 5882000    376.28221   -7234.1709    2521.9524   -1643.4854    871.34996    12312.535 0.0049918667  0.036061041    1.6774911 
 5884000     405.2295   -7233.5556    3402.6086   -1494.9861    781.84984    11040.065 0.0049902917  0.036052168    1.6774963 
 5886000    382.65335   -7234.1695    4447.7982   -1577.8756     600.4628    14446.206  0.004991858  0.036048292    1.6774756 
 5888000    414.20633   -7233.6861    7072.1273   -2277.2304   -192.40242    13569.425 0.0049938674  0.036052787    1.6774648 
 5890000    391.52093   -7233.0038    4613.4807   -214.85648   -963.55669    14032.281 0.0049950479  0.036053324    1.6774579 
 5892000    378.85151   -7235.4014    4964.4552    361.94476   -2294.0291    13456.793 0.0049933211  0.036055203    1.6774472 
 5894000    396.77438   -7234.0672    3117.4707   -1929.5137    902.93956    15146.352 0.0049932748  0.036050832    1.6775269 
 5896000    406.53182   -7233.4028    2213.0058   -1502.0215    1081.6124    13601.231 0.0049931078  0.036045484     1.677504 
 5898000     391.6736   -7233.8903     1459.948    -2436.379    34.819251     11871.46 0.0049937199  0.036043324    1.6774786 
 5900000    391.29023   -7234.9172    2737.7715   -2706.4151    517.33411    13861.256 0.0049955406  0.036039635    1.6774824 
 5902000    415.01826   -7232.5927    3689.6395    111.73932   -2357.9787    10911.913 0.0049955594  0.036041032    1.6775715 
 5904000    392.31967    -7233.648    1998.0131    1508.5957   -1082.0253    12094.253 0.0049935592  0.036045236    1.6776139 
 5906000      450.214   -7234.5151    4553.6802   -1382.1009   -356.69377    10840.057 0.0049926761  0.036043411    1.6775563 
 5908000    393.40114   -7232.4215    958.15277   -411.87233    292.52075    13480.202 0.0049975236  0.036037742    1.6775521 
 5910000    407.71118   -7232.8311    4918.7683   -510.74392   -841.62166    14416.136 0.0049958359  0.036033226    1.6776124 
 5912000     406.0641    -7235.399    2922.5214   -1381.7265    126.13097    11395.954 0.0049958288  0.036036649    1.6776134 
 5914000    381.86838   -7233.2365    4253.8105     -753.393   -1391.1521    14305.304 0.0049960902  0.036034302     1.677589 
 5916000    395.49549   -7233.4973    3667.4402   -3113.2033   -3047.4003    12135.384 0.0049991065  0.036037901    1.6775691 
 5918000    384.20927   -7234.0472    4162.3333  -0.78758877   -2587.1592    11975.476 0.0049977437  0.036041991     1.677561 
 5920000    401.29281   -7234.6717    4098.5128    1180.3411   -1771.2443    11493.521 0.0049966958  0.036051975    1.6775636 
 5922000    385.91505   -7235.1797    4032.4052    3428.0104     -3454.53    11283.713 0.0049956882  0.036044169    1.6776023 
 5924000    384.99305   -7233.0607    4685.9842   -1007.5445   -2844.1491    14673.104 0.0049962015  0.036041951    1.6776763 
 5926000    400.08435   -7233.2664    3821.5292    2091.2238   -2070.4573    10068.406 0.0049986752  0.036033557    1.6777151 
 5928000    414.96455   -7234.3698     3152.224    2169.2741   -3668.4521    11112.331 0.0050004073  0.036031326    1.6776515 
 5930000    405.58955   -7234.7133    2730.7561     1568.961   -2696.9376    13632.095 0.0049971563  0.036036363    1.6776881 
 5932000    426.03302   -7234.0217    4267.6997    1280.5121   -1519.7343    12606.295 0.0049953712  0.036039241    1.6776527 
 5934000    385.02474   -7233.8539    1179.8133   -683.70051   -1641.5815    14469.681 0.0049938299   0.03603581    1.6776625 
 5936000    412.95304   -7233.0517    2652.7439   -624.60824   -1583.2012    9907.0856 0.0049973068  0.036030953    1.6777196 
 5938000    411.74573   -7233.6034    294.60344   -133.26853   -873.46197    14067.866 0.0049989979  0.036029584    1.6776902 
 5940000    368.31075   -7234.9751    1804.9415   -2230.9798   -1449.4678    13594.484 0.0050012538  0.036032128    1.6777438 
 5942000    409.55254   -7233.3948    2969.6769     -3193.65   -2934.5486    13973.459 0.0050005917  0.036032338    1.6778052 
 5944000    372.77953   -7233.3603    3298.6854    570.35748   -2480.8583    13600.778  0.005000552  0.036034187    1.6777963 
 5946000    402.38587   -7233.4525    3595.8994    880.72682   -4666.0753    12718.338 0.0049988259  0.036032253    1.6777808 
 5948000    384.53699   -7234.6171    2721.9937   -1257.2582   -4716.7688      12480.9 0.0049967439  0.036043704    1.6777627 
 5950000     417.6712   -7232.3335    2760.3956   -3150.6097   -1566.5827    11576.114 0.0049963046  0.036041061     1.677747 
 5952000    383.55579   -7233.1536    2744.7518   -447.45821   -970.76331    11194.218 0.0050002183   0.03602888    1.6777935 
 5954000    416.67823   -7233.8572    1152.5406   -1803.6993   -1807.3913    14167.331 0.0049981734  0.036026826    1.6778337 
 5956000    387.48509   -7233.4246    4805.3157   -1039.4417   -904.63722    12248.485 0.0049988522  0.036031911    1.6779011 
 5958000     415.0762   -7233.6847    6037.1498   -1945.6529   -1440.6483    11296.268 0.0050036987  0.036032465    1.6778786 
 5960000     400.3719   -7233.5998    3594.8319   -1656.2027   -2276.5794    14723.977 0.0050020018  0.036031737    1.6778487 
 5962000     404.2549   -7235.2984    4627.0048   -188.83425   -2471.8976    14354.185 0.0050020805  0.036034978    1.6779201 
 5964000    388.74957    -7233.611     1721.824    2070.7139   -1182.9533    13590.452 0.0050009162  0.036046112     1.677937 
 5966000    411.03881   -7233.9667    4692.5446    -2635.034   -2104.2822    12787.531 0.0050001289  0.036043546     1.677908 
 5968000    393.24924   -7233.7975    5720.5959     164.7503    1887.7848    14772.119 0.0050046775  0.036034177    1.6779701 
 5970000    373.94677   -7235.1284     2016.371   -20.221683   -3164.0117    14648.419 0.0050065736  0.036028913    1.6780281 
 5972000    367.21794   -7234.8286     4995.996   -121.41241    -2372.579    12384.912 0.0050065661    0.0360345    1.6780516 
 5974000    389.13005   -7233.9854    1102.9079    927.67249   -565.37591    14076.501 0.0050068608  0.036044423    1.6780363 
 5976000    390.33383   -7233.3029    2624.5636    -96.82516   -2976.1557    13162.836 0.0050058858  0.036043128    1.6780376 
 5978000    394.35336   -7233.1553    4270.0389    273.75797   -493.12889    11559.431 0.0050081294  0.036045466    1.6780406 
 5980000    399.65917   -7233.4967    2543.3385    233.58085   -901.06701    15059.303 0.0050045481  0.036043198    1.6780803 
 5982000    367.23922   -7232.0628    3908.4517   -1943.4004   -2122.4552    11655.841 0.0050061622  0.036038274    1.6780837 
 5984000      401.485   -7233.3981    1494.6549   -3762.8952   -2145.3059    10838.086  0.005005891  0.036044824    1.6780997 
 5986000    406.43647   -7235.5559    1244.1539    452.28892    13.092427    13386.135 0.0050120305  0.036050407    1.6780488 
 5988000     405.4658   -7234.1121    4155.9063   -1319.7221   -863.98067    11317.898 0.0050128062  0.036045049    1.6780983 
 5990000    400.40254   -7233.2176    3467.4347    2364.8738   -1133.8489    11310.863 0.0050112141  0.036047565    1.6780679 
 5992000    411.10733   -7232.7224    4038.8724   -1392.4357   -1313.2788    11639.332 0.0050096231  0.036051258    1.6780583 
 5994000    386.91295   -7233.0086    3863.1946    1289.5908    291.68032    10396.628 0.0050093462  0.036048269    1.6780173 
 5996000    395.21941   -7233.8959    3969.2131    1378.0315   -2078.1303    14313.361  0.005008518   0.03604472    1.6780067 
 5998000     382.9563   -7235.2752    3291.2831   -323.61887   -1122.1019    9311.6893 0.0050092865  0.036045277    1.6780647 
 6000000    401.85212   -7234.6737    7619.4079   -414.19826   -2690.3976     12305.33  0.005009489  0.036048437    1.6781147 
 6002000    407.04614   -7234.9992    4052.5799    13.359513   -1047.1565    10072.198 0.0050108759  0.036041996    1.6781371 
 6004000    413.17096   -7234.1192    4116.3055   -38.449056    -1916.295    11881.978 0.0050133537   0.03605082    1.6781065 
 6006000    392.24969   -7235.0342    6430.7799    194.62685    -1532.747    14193.396 0.0050116194  0.036048302    1.6780656 
 6008000    406.70516   -7233.0364    3092.9031   -97.418564   -1327.6328    9972.9263 0.0050110475  0.036041054    1.6781066 
 6010000    382.41264    -7234.883    3111.0582   -2638.8276   -2741.3626    12861.635  0.005009332   0.03604364    1.6781421 
 6012000    424.53212   -7233.2621    1159.2227   -916.63091   -770.00318    11411.932 0.0050170291  0.036039912    1.6781987 
 6014000    431.87662   -7233.6486    1096.2406   -5020.6841   -1349.8663     14056.41 0.0050185414  0.036033377    1.6781572 
 6016000    408.23231   -7234.2154    5067.2365   -813.03357   -1036.4953    11550.455 0.0050180238  0.036034255    1.6781456 
 6018000    395.21046   -7233.7709    3307.1086   -1364.7163    -1743.184    14054.835 0.0050179717  0.036045441    1.6782156 
 6020000    396.49892   -7235.1994    4203.8064   -806.73572    1954.7935    15076.616 0.0050162128  0.036051212    1.6782396 
 6022000    415.79289   -7233.6386    4120.9206    1847.3143   -3148.3152    13036.246 0.0050155874  0.036041469    1.6781776 
 6024000    394.24183   -7232.9138    3014.0994   -577.04192   -3479.2036    14709.101 0.0050215156  0.036043739    1.6781726 
 6026000    393.88377   -7233.1721    1591.9698    323.05506   -1874.4851    14161.833 0.0050223822  0.036044469    1.6782574 
 6028000     413.9111   -7234.9136    1444.9721   -779.05415   -1023.7589     14230.24 0.0050206895  0.036048417    1.6783869 
 6030000    389.32296   -7233.9847    5142.1062   -585.01468   -1672.4714    10281.958 0.0050201174   0.03604316    1.6783842 
 6032000    403.74896   -7233.9735    3111.9931    1095.5535   -1093.6281    16296.415 0.0050189052  0.036034529    1.6782965 
 6034000    401.36641   -7235.0651    5288.7165   -1487.3746   -928.61142    10649.419 0.0050169303  0.036037165    1.6782427 
 6036000    404.41407   -7234.2767     4927.356    843.02254   -1652.2546    14746.779 0.0050160307  0.036039432    1.6782526 
 6038000     403.6934   -7233.2474     6217.138   -1822.0262   -1490.3108    13274.157 0.0050144659  0.036036061    1.6783044 
 6040000    405.64375   -7234.8504    2589.2577   -3111.7975    -654.1905     12330.46 0.0050148622  0.036026728    1.6783091 
 6042000    416.31005   -7232.9533     3367.256    1222.9957    -3096.565     13080.95 0.0050168591  0.036027359    1.6783153 
 6044000    395.65846   -7234.9103     3095.637    599.03808   -2727.5599    12284.407 0.0050149656  0.036044696    1.6782927 
 6046000    392.35519   -7234.3181    5061.8114   -373.33034   -2616.0187    12642.309 0.0050190169  0.036034671    1.6783322 
 6048000    416.21536   -7233.8818    4359.1849   -1757.4899   -3358.5773    15026.868 0.0050216277  0.036025005    1.6783905 
 6050000    388.71166    -7232.614    5432.2341    661.08225   -1673.6831    14524.739   0.00502052  0.036037379    1.6783772 
 6052000    371.00236   -7233.0743    2159.7926   -2750.8381   -2163.1868    13376.617 0.0050198292   0.03605685    1.6782711 
 6054000    390.31631    -7234.875     5089.831   -1600.6784   -1937.2004    12286.193 0.0050253818  0.036052186    1.6783074 
 6056000     430.3724   -7233.4162    4103.3268    1660.7003   -2910.4254    14561.708 0.0050305496  0.036047775    1.6783655 
 6058000    394.28966   -7233.6505    5051.4053   -2507.0442   -2842.2683    12274.794 0.0050256395  0.036051478    1.6783738 
 6060000    401.28726   -7233.1171    5029.0498    -1870.663    2137.7665    11538.113 0.0050302627   0.03603934     1.678456 
 6062000    397.73182   -7234.1056    3534.0744   -1686.9707   -2454.4659    12189.262  0.005052141  0.036027521    1.6784744 
 6064000    391.04585   -7236.1728    6534.0124    -4109.693    1577.2083    13477.715 0.0050563835  0.036016158     1.678556 
 6066000    406.05096   -7236.1101    3419.9148   -1737.6368    1307.9353    15063.098 0.0050617861  0.036005894    1.6786886 
 6068000     379.8245   -7236.6438    5403.5252   -2533.1805    -1942.513    15436.643 0.0050635841   0.03599959    1.6787474 
 6070000    401.71921   -7235.0581    5961.3434   -1913.8522   -36.467472    11485.291  0.005063168  0.035986145    1.6788571 
 6072000    410.87113   -7235.3271    1228.8418   -914.49051   -1562.6021    14287.057 0.0050652068  0.035974106    1.6788518 
 6074000    397.85361   -7236.5423    4916.4207   -1083.5802   -4156.6422    13371.199 0.0050750825  0.035962016    1.6788872 
 6076000    395.93271   -7236.6761    4904.3156   -4182.0509   -1032.2451    12965.714 0.0050839028  0.035954841    1.6789583 
 6078000    422.91047   -7236.4481    6560.5944   -1611.3799   -3687.2575    12800.143 0.0051001777  0.035960102    1.6789754 
 6080000    398.57417   -7239.5281    8056.6392   -5032.0832   -1606.5627    16440.629 0.0051371703  0.035978809      1.67902 
 6082000    427.49524   -7242.5643    9447.2368    1889.2823   -5782.0815    16507.587 0.0051491199  0.036022301    1.6792739 
 6084000    382.86094   -7243.9169    10835.937   -1489.6883   -4512.9045    15741.401 0.0051474929  0.036072958    1.6795749 
 6086000    419.54387   -7243.7305    8402.1175   -1250.0427   -2334.9081    15828.724  0.005147762   0.03608638    1.6799493 
 6088000    402.06879   -7243.4202      7814.46   -1794.6916   -3095.9984    17968.242 0.0051512198  0.036087101    1.6803129 
 6090000    378.72892   -7245.4691    4308.5833   -2145.7175    -3684.619    17020.134 0.0051646925  0.036090849    1.6807779 
 6092000    386.87913   -7245.4784    7231.2031   -105.76073   -1757.0537    19236.789 0.0051630831  0.036109206    1.6812395 
 6094000    412.48094   -7246.5528    6580.6767    523.03432   -6074.9836    17466.658 0.0051622362  0.036130214     1.681797 
 6096000    380.01515   -7246.1819    5949.9288    757.15448   -1560.4563    16055.553  0.005160559  0.036134201    1.6821575 
 6098000    399.02403   -7245.6898    5098.6661    2175.2888    -5293.151    16584.527 0.0051595474   0.03612785    1.6825119 
 6100000    427.63188   -7246.3303    4518.5937    2917.5292   -6237.5098    17260.567 0.0051646986  0.036167855    1.6831387 
 6102000    399.22612   -7246.7755    6355.0016    811.47897   -1970.7089    16134.332 0.0051801334  0.036209438    1.6837062 
 6104000    411.55767   -7246.1232    6723.5698   -2377.2241   -4431.6962    15597.827 0.0051820094  0.036224271    1.6841332 
 6106000    392.45215   -7244.0408    6245.1884    3377.6623   -3299.8483    16837.883 0.0051800202  0.036244107    1.6844803 
 6108000    399.93661   -7246.8153    5191.8179   -555.65564   -4263.5343    17776.828 0.0051808387  0.036285791    1.6849066 
 6110000    415.34236   -7247.5801    3581.1759    1300.6052   -1514.9933    15918.682 0.0051848526  0.036317566    1.6853488 
 6112000    394.05615   -7246.0403    2752.6907   -136.68349    2342.9107    19091.337   0.00518831  0.036316229    1.6858183 
 6114000    380.56039   -7245.6533    5309.2047    2096.9838    -3738.354    19212.418 0.0051857035  0.036313589    1.6864029 
 6116000    392.18846   -7245.5745    3876.7434    2202.3728   -1532.4083    16925.118 0.0051923981  0.036334949    1.6869855 
 6118000    415.00747   -7247.5682    4852.4455   -1295.9927    -1806.354    16108.425 0.0051910742  0.036347736    1.6873802 
 6120000    410.13532   -7246.9893    7027.3498    -1762.068   -3007.0194    18077.983 0.0051888703  0.036359718    1.6877785 
 6122000    384.89162   -7246.4537    4167.0337    3129.4993   -777.70724    18218.123 0.0051871453  0.036369421     1.688211 
 6124000    401.29433   -7247.6551    4124.1657    77.086449   -3424.9057    18338.933 0.0051863454  0.036394647    1.6886129 
 6126000    403.01366    -7246.531    5574.6503    668.41865   -3764.3581    18279.428 0.0051852505  0.036424545    1.6890974 
 6128000    414.95687   -7246.9271    5210.1525    1971.8601   -2689.4926    16222.398 0.0051846892   0.03642878    1.6895722 
 6130000     404.7873   -7246.0548    3083.4246    2670.2336   -4897.9178    19688.243 0.0051869527  0.036443315    1.6900445 
 6132000    409.46793   -7246.5461    6270.8709    3111.6548   -4240.3461    16812.455 0.0052020436  0.036469997    1.6906553 
 6134000    405.81415   -7245.6658     4979.933    824.97583    -761.6145    18002.337 0.0052063956  0.036490498    1.6910705 
 6136000     406.0239   -7247.7853    6095.0927    169.36126   -4577.6081    17583.044 0.0052050665  0.036492364    1.6915157 
 6138000    379.35557     -7247.79    5505.4561    223.61345   -3777.1316    16436.412 0.0052060073  0.036528677    1.6919747 
 6140000    408.97478   -7244.6117    8476.9548   -83.089812   -2841.2445    16388.738 0.0052122657  0.036570649    1.6923849 
 6142000    413.79591   -7244.9695    7954.2446    2135.1754   -4720.5282    15657.926 0.0052160187  0.036595233     1.692836 
 6144000    413.15819   -7248.2537    5912.6648    109.90158    744.61859    14275.088 0.0052221188  0.036620406    1.6932839 
 6146000    396.58105   -7247.0767    7744.1099     210.8869   -1725.4548    17691.894 0.0052209224  0.036619629    1.6937308 
 6148000    426.22417   -7246.2827     6964.041    543.82538   -1658.1271    13633.565 0.0052190974  0.036630097    1.6941188 
 6150000    421.87501   -7246.6602    11296.972    2528.0344    -2986.861    17021.125 0.0052229234   0.03664271    1.6944576 
 6152000    404.17571   -7247.3356    7465.4393   -174.83758   -980.77542    17619.257 0.0052269017  0.036649987    1.6949193 
 6154000    426.53386   -7246.0957    7339.7025   -1155.6386   -1542.5765    16485.969 0.0052270906  0.036659536    1.6953404 
 6156000    396.98104   -7246.8605    3338.0825    1177.1272    -826.2863    18576.252 0.0052246054  0.036671309    1.6956837 
 6158000    381.19876   -7245.1925    6034.6076    2032.5682   -2320.0919    13688.387 0.0052236809  0.036704044    1.6961075 
 6160000    396.77447   -7246.9094    4804.3358    1244.1525   -1566.7552    21134.583 0.0052276743  0.036736269    1.6966173 
 6162000     410.2179   -7244.6018    6848.2474    2422.4596   -2925.3674    16925.166  0.005227759  0.036756003    1.6972297 
 6164000     366.8981   -7246.6073     5471.783    848.39425   -4453.4131    15018.322 0.0052291692  0.036781703    1.6976826 
 6166000    388.70418   -7247.7507    7456.4024    3535.0584    -2372.402    17353.987  0.005227203  0.036803823     1.698151 
 6168000    419.41638   -7247.4187    7797.7808    581.45095   -3348.4326    17449.335 0.0052312341  0.036822366    1.6986035 
 6170000    400.91428   -7247.0168    8244.6896   -19.841748    -1107.636    16272.546 0.0052298237  0.036849172    1.6989389 
 6172000    388.62686   -7247.8524    6800.0803   -290.27187   -2391.0334    16705.727 0.0052279745   0.03686297    1.6993664 
 6174000    421.85719   -7247.5274    7928.1422   -33.704558   -3659.6299    15227.977 0.0052275351  0.036868555    1.6997423 
 6176000    400.55248   -7248.5797    6246.3293    488.13856   -4850.4976    17234.608 0.0052272863  0.036883242    1.7000966 
 6178000    414.77506   -7248.4746    5919.9751   -1293.3655   -2128.8837    15369.128 0.0052273211  0.036892708    1.7005153 
 6180000    375.34489   -7246.8221    4114.8771    514.98222    -4699.031    15044.718 0.0052251819  0.036897667    1.7009071 
 6182000    388.57168   -7248.6232    5853.3203    584.30664   -2980.3712    17344.329 0.0052251052  0.036909423     1.701256 
 6184000    393.67205   -7248.4243    6614.1716    894.86235   -3328.7242    15035.126 0.0052236154  0.036915276    1.7016957 
 6186000     383.9116   -7248.6793    6252.9902    1722.3502   -4274.4761    18210.374 0.0052235202  0.036942358    1.7021137 
 6188000    413.05812    -7247.944    4750.6074    2379.1008   -3933.5304     15300.81  0.005229022  0.036985617    1.7025582 
 6190000    431.39271   -7247.7901    5083.6967    343.19773   -4164.9569    18843.314 0.0052308774  0.037010299    1.7029873 
 6192000    405.85053   -7247.9178    5506.1509    1155.3043   -3347.8221    17449.083 0.0052292135  0.037020456    1.7035634 
 6194000    398.85356   -7247.3861    6286.3683    2061.3737   -3762.4915    16392.924 0.0052315817  0.037041656    1.7040584 
 6196000    411.29136   -7248.1036    5501.3571    553.10553   -5086.3113      17674.5 0.0052377448  0.037084972    1.7045332 
 6198000    411.19088   -7247.6063     6325.896    1224.2041   -2161.1344      15596.8 0.0052360191  0.037096622    1.7050354 
 6200000    397.03515   -7247.9187    5944.5516    2097.4202   -4074.6741    21163.673 0.0052362809  0.037124785    1.7055728 
 6202000    405.86633    -7247.605    8063.1833   -179.45507   -1675.1453     16139.49 0.0052455512  0.037163501    1.7060261 
 6204000    415.51359   -7247.7021     6832.655    899.52078   -3157.5611    16240.474 0.0052432273  0.037177525    1.7063992 
 6206000    390.10903   -7248.3818     7783.143    -412.9076   -1349.3372    16911.563  0.005241526  0.037191973     1.706872 
 6208000    402.20435   -7247.5937    8821.8772   -713.66853   -1627.1616    13799.747 0.0052398436  0.037198744    1.7072041 
 6210000    374.37878   -7246.9415    11384.364   -1085.0651   -2680.5803    15460.103 0.0052381485  0.037203989    1.7074974 
 6212000    394.20069   -7248.5894    9300.9895   -804.40986   -1976.4966     16717.21 0.0052362228  0.037222148    1.7079426 
 6214000    409.80782   -7247.9982    10108.915   -696.03995    -4544.847    15438.816 0.0052348538  0.037223065    1.7083153 
 6216000    407.00059   -7247.0159    9099.8573     1050.372   -3861.2065    15410.676 0.0052360076  0.037226343    1.7086927 
 6218000    427.14609   -7247.2937    8511.6552    596.38288   -2463.5468    16697.206  0.005236791  0.037240693    1.7089822 
 6220000    385.59554   -7247.3008    7719.2061    920.66893   -3704.1798     16779.14 0.0052353431  0.037249586    1.7094646 
 6222000    397.13913   -7248.3216     6259.557    287.74854   -4462.1461    16441.703 0.0052335705  0.037271898    1.7099359 
 6224000    413.64913    -7247.866     7074.556    1251.1347   -3405.6746    16990.479 0.0052324691  0.037306245    1.7103028 
 6226000    394.77581   -7249.0923    7110.5746     2435.467   -1413.9499    16964.867 0.0052316462  0.037316068    1.7107701 
 6228000    392.64114   -7247.8608    5430.8494    4256.7851   -2599.7264      16977.8 0.0052304052   0.03732085     1.711155 
 6230000    394.73062   -7247.9311    5383.0376    4633.0475   -5966.7805    16666.996 0.0052418297  0.037335983    1.7115637 
 6232000    393.78548   -7246.2092    6588.7713    1222.6231   -2571.2185     20553.04 0.0052403388  0.037356331    1.7119895 
 6234000    364.34623   -7247.4251    5134.4133    502.61417   -3543.4887    21170.289 0.0052388952  0.037377668    1.7125096 
 6236000    393.97985   -7247.7099    5099.2218    519.50043   -4400.5401    19144.045 0.0052376046   0.03740152    1.7130086 
 6238000     416.8571   -7247.2364    6001.1319    689.74722   -4030.6721    19251.442 0.0052403373  0.037423408    1.7134532 
 6240000    401.52975   -7245.4873    6730.8555    2139.9026   -1510.8984    18244.798 0.0052421075   0.03746801    1.7139334 
 6242000    409.91001   -7247.6017    2696.2477    718.07748   -2364.7414    17946.863   0.00524344  0.037488815    1.7143689 
 6244000    424.81171   -7248.5842     7090.575     2583.001   -3672.6793    19663.113 0.0052433544  0.037524255    1.7148146 
 6246000    391.43058   -7246.4521    5681.5148    1117.2843   -3826.1533    18071.778 0.0052537991  0.037549166    1.7153245 
 6248000    414.89763   -7247.0901    3907.1699      1733.43   -2356.9743    15856.822 0.0052541762  0.037569437    1.7157462 
 6250000    414.80871   -7246.7072    11273.507    1852.6788   -2195.5502    18154.172 0.0052527177  0.037580317    1.7161012 
 6252000    391.69316    -7249.078    5550.2855     1701.347   -4900.0234    19025.215 0.0052552264  0.037591622    1.7166818 
 6254000    433.76741   -7248.1275    8129.6474    1065.8628   -2040.3912    15506.548 0.0052642657  0.037653977    1.7171632 
 6256000     394.3404   -7246.2238    3996.2433   -1784.5402   -3985.6224     16809.51 0.0052617586  0.037672624    1.7174622 
 6258000    393.10985   -7248.0312    6190.1565    3426.9864   -2121.8609    17083.717 0.0052601099   0.03770063    1.7178219 
 6260000    399.83544   -7248.0666    8528.9129   -1947.7558   -2210.8751    16091.087  0.005260906  0.037712089    1.7182739 
 6262000    382.50547   -7247.4385    7979.9843    2127.6422   -3602.5613    15282.601 0.0052594635  0.037739653    1.7186765 
 6264000     412.7554   -7247.1878    6723.2391    1896.7768   -2760.7042    16313.323 0.0052634423  0.037762198    1.7190966 
 6266000    385.61879    -7247.927    5714.4222     1270.215    -5198.913    18606.225 0.0052635246  0.037761985    1.7194973 
 6268000    388.45897   -7247.4485    5506.6269    -391.8196   -4220.9846    17780.482 0.0052621387  0.037780194    1.7198705 
 6270000    406.77531   -7247.4529    6815.0523    3415.6005   -1920.1215    17408.072 0.0052610305  0.037786503    1.7202876 
 6272000    404.62823   -7248.2487     6806.733    1351.6542   -1976.7852    17846.081 0.0052619385  0.037792799    1.7207337 
 6274000      372.325   -7248.2256    7325.7631    617.53493   -1438.6626     15260.06 0.0052612668  0.037797172    1.7209948 
 6276000     372.7648   -7247.8465    6035.4632      941.045    -1254.215    16812.464 0.0052594206  0.037815829    1.7213041 
 6278000    393.01233   -7246.2632    7630.8829   -186.13051   -1229.2748    15949.911 0.0052603053  0.037824974     1.721646 
 6280000    374.50591   -7248.7849    6552.4373    1108.7679   -988.75069     15079.99  0.005258342  0.037826156    1.7219186 
 6282000    415.26799   -7245.9144    6537.4778     1937.695   -1719.1679    17201.135 0.0052590813  0.037838835    1.7223359 
 6284000    384.69607   -7249.0312    6627.8484    1623.6864   -1513.5716    15954.473 0.0052711117  0.037859465     1.722759 
 6286000    401.46173   -7245.4159    9441.3187   -1994.4599   -3346.8673    13123.888 0.0052739173  0.037876142    1.7232003 
 6288000    415.60982   -7248.2824    5079.9854    713.05962   -3353.9457    16729.452 0.0052720607  0.037904128    1.7235108 
 6290000     413.1635   -7246.6758    6773.3695   -448.57161   -1589.0593     16312.16 0.0052738797  0.037916235    1.7238923 
 6292000    388.35141   -7248.0593    5691.9084   -470.86308    -3320.884    16967.447 0.0052763016  0.037929336    1.7242542 
 6294000    382.40716   -7248.2203    7056.4225   -98.207347   -2476.4182    16340.699 0.0052757941  0.037951124    1.7245883 
 6296000    425.64407   -7248.3301    5432.7205    26.459496   -3081.4249    19576.997 0.0052808549  0.037984123    1.7250164 
 6298000    374.10501   -7248.5668     7656.217    650.64106   -3141.6362    15574.144 0.0052829727  0.038006297     1.725448 
 6300000     420.8124   -7246.7813     4519.037   -1869.9944   -2711.4099    18088.557 0.0052841189  0.038036136    1.7258537 
 6302000    400.53711   -7248.0139    6338.0151    3892.8244   -2261.7266    16080.648 0.0052885465  0.038043341    1.7263237 
 6304000    412.87574   -7247.7992      4977.54    3221.6924   -2573.5184      17641.1 0.0052982139  0.038064987    1.7266456 
 6306000     408.6615   -7246.0053    6955.0313    2159.4099    -3010.743    15926.105 0.0053003563  0.038099554    1.7270844 
 6308000     415.0483   -7249.7937    4809.9674    1903.2445   -442.29475    18219.141 0.0053007124  0.038114495    1.7274377 
 6310000     404.2842   -7248.6334    5541.4775    1326.9774   -4306.7925    16345.562 0.0053003765  0.038136941    1.7278601 
 6312000    392.83632   -7247.7653    5044.2025    3010.1714   -2478.7193    16926.079 0.0053006921  0.038162783    1.7281435 
 6314000    377.73029   -7248.5841    5704.6396    2647.1633   -3623.5911    17176.213 0.0053036583  0.038192239    1.7285612 
 6316000    431.78987   -7247.1451    4366.5043    944.80711   -1645.4735    17444.806 0.0053090075  0.038208606    1.7290606 
 6318000    399.28844   -7247.9331    5293.5284     242.9787   -3006.7525    14562.363  0.005311548  0.038247713    1.7295098 
 6320000    377.31827   -7247.7792    5531.0967   -2096.7847   -2264.1976    14021.512 0.0053182303  0.038283955    1.7299477 
 6322000    376.01701   -7247.3123    6704.2365     1803.185     -2601.36    15469.582 0.0053193121  0.038301084    1.7303941 
 6324000    415.60093   -7247.8656    7670.0454    3152.9789   -4432.3594    14888.335 0.0053295563  0.038326682     1.730788 
 6326000      389.699   -7247.9282    8198.1636     470.7128    20.257307    15157.451 0.0053315847  0.038348386     1.731298 
 6328000     408.6108   -7247.6298    7391.1792    2663.6654   -2531.7122    13841.993 0.0053350172   0.03837741    1.7316622 
 6330000    433.25247   -7248.1648    6242.4723    3165.9932   -900.88465    15498.837 0.0053344109  0.038401516    1.7320259 
 6332000    412.17147   -7249.0789    2695.8295   -71.323986     -3092.96    21474.953 0.0053394706  0.038422189    1.7324167 
 6334000    427.89612   -7247.5176    5921.9153    3733.4979   -1588.7631     16234.93 0.0053456942  0.038451718    1.7329195 
 6336000    381.13866   -7249.3578    3296.5767    1841.6645   -450.62354    17812.956 0.0053513735  0.038471457    1.7333457 
 6338000    422.81389   -7248.2086    6932.5486    2053.4269    -3520.789    16888.109 0.0053561507   0.03850408    1.7338008 
 6340000    387.04121   -7248.1578     6862.408   -819.34638    -1132.628    19050.327 0.0053613913  0.038530735    1.7342235 
 6342000    394.19341   -7248.6671    8328.6636    1172.1961   -1523.6898    20321.207 0.0053605976  0.038553254     1.734682 
 6344000    410.64633    -7247.201    6641.3473    1911.9216   -4443.3434    19374.005 0.0053688014  0.038596837    1.7351481 
 6346000    403.18981   -7246.4751    7402.7303    2251.9738      745.935    17209.043 0.0053763302  0.038624767     1.735627 
 6348000    439.72979   -7248.9193    5123.7442    68.788682   -3860.7234    16198.308 0.0053760132  0.038631405    1.7361415 
 6350000    382.46743   -7247.9734    5825.9069    978.39443   -6208.0193     13628.51 0.0053799218  0.038658111    1.7365258 
 6352000    420.91047   -7249.0271    6082.7778   -735.43632   -4508.5258    14235.713 0.0053848453  0.038678179    1.7369179 
 6354000     391.2478   -7247.2055    8289.1938     1266.037   -6725.4563    16580.943  0.005384721  0.038699902     1.737329 
 6356000      412.841    -7248.607    7621.4152    104.63898   -3789.6171    15467.501 0.0053918507  0.038722377    1.7378087 
 6358000    383.02283   -7248.2346    5694.8474    46.144647   -4949.5975    16957.141 0.0053949366  0.038758226    1.7382479 
 6360000    379.40853   -7246.6814    6040.3965    3132.2527   -3185.6559    16834.239 0.0053983031  0.038786497    1.7386732 
 6362000    395.18969   -7249.6413    5140.8204    1642.4236   -3595.0999    17572.539 0.0054033787  0.038813457    1.7391594 
 6364000    408.54293   -7246.7874    4653.2018    4178.2908   -4636.4056    19180.565 0.0054109361  0.038846579    1.7396693 
 6366000    387.71277   -7248.5399    3655.1259    1126.0436    -3904.514    15538.618 0.0054178213  0.038881868    1.7400195 
 6368000    407.13906   -7247.8965    4352.9711    4865.1531   -4276.6689    18913.337 0.0054198548  0.038917758    1.7405075 
 6370000    365.72255   -7246.1763    3904.3549    956.36395   -1693.1778    14764.962 0.0054269436  0.038947905    1.7410047 
 6372000    391.81729   -7249.0618    5090.1592    2596.9316   -3688.0466    18195.706 0.0054247718  0.038972022    1.7412699 
 6374000    415.05187   -7248.9439    5352.3961   -439.21679   -1399.0842    16804.762 0.0054289406  0.038985602    1.7416313 
 6376000    419.73125   -7245.5124    5770.5322    1491.8518   -3645.1859    17393.116 0.0054268821  0.038992893    1.7420679 
 6378000    404.50086   -7248.5815    7304.7258    622.59975   -1251.3715    16929.006 0.0054304726  0.039017448    1.7424017 
 6380000    407.31864   -7247.0633    5877.8026   -2376.4199   -2825.8113    17317.779 0.0054336195  0.039017583    1.7428486 
 6382000    428.80547   -7249.2237      5384.83   -1543.0575   -3194.1009    15275.746 0.0054349622  0.039023864    1.7432596 
 6384000     413.8764   -7247.5157    6022.6416    2458.0613   -3022.6961    17215.284 0.0054357421  0.039032085    1.7436232 
 6386000    419.16121   -7248.5285    6007.1965     1779.501   -3529.1972    18248.206 0.0054448681  0.039043016    1.7440198 
 6388000    420.24297   -7249.2122    4190.6302   -1111.8277   -2882.2489    16351.158 0.0054515417  0.039080337    1.7444726 
 6390000     386.0889   -7247.8279    5560.9453   -138.57942   -3500.6979    16824.431 0.0054501224  0.039104255     1.744827 
 6392000    369.07576   -7247.2319    8064.6926     1566.009   -3961.1727    16786.881 0.0054511165    0.0391292     1.745234 
 6394000    398.82397   -7248.7705    6440.6086    375.94847   -2113.6485     18626.42 0.0054626126  0.039157058    1.7456648 
 6396000    429.79086    -7249.914    6513.1441    2426.4063    -940.5725    19626.836  0.005467523  0.039176631    1.7461837 
 6398000    367.60452   -7248.3667    5724.0432    2671.6774   -4338.1216    16616.111 0.0054732924  0.039203616    1.7466612 
 6400000    412.19695   -7247.7824    7250.1078    2346.1788   -3216.1344    16293.314 0.0054747169  0.039215851    1.7470784 
 6402000    405.35392   -7247.7787    6250.9648   -661.12424    -3325.159    16848.151 0.0054760902  0.039237038    1.7474481 
 6404000    391.53358    -7247.651    4506.3651    3232.3629   -2041.4696    16618.031 0.0054770082  0.039261817    1.7477729 
 6406000    413.32135    -7248.976    7516.9732    1202.5083   -3601.0671    17013.681 0.0054803596  0.039271849    1.7482254 
 6408000    401.19005   -7247.8739    4477.0522   -1786.7758   -1496.5437    15996.998 0.0054796756  0.039291055    1.7485372 
 6410000    383.47353   -7248.9689    6121.8321   -80.450791   -2370.8189    15736.878 0.0054779132  0.039301935    1.7488704 
 6412000     396.9407   -7248.3783    7015.7044    1584.4992   -1700.3063    16946.043 0.0054770579  0.039308556     1.749257 
 6414000    409.20649   -7247.3724    7441.1139    646.53211    1219.7797     16856.87 0.0054749019  0.039310671    1.7495624 
 6416000    405.63432   -7248.4894    7340.9155    175.96819   -1909.5824    14492.552 0.0054772836  0.039316711    1.7498611 
 6418000    360.42545   -7248.0631    4180.2297    993.65265   -2627.3007      16336.3 0.0054771018  0.039317637    1.7501847 
 6420000    414.33019   -7246.8758     4701.903    552.98633   -3538.4889    18069.539 0.0054767095  0.039326166    1.7505481 
 6422000    405.47541   -7248.3423    6801.8109    2068.1303   -1880.1618      17719.8 0.0054771613  0.039345729    1.7508638 
 6424000    411.34558   -7247.1996    2885.4959    1769.3763   -3448.3113    17534.382  0.005481014  0.039357328    1.7512899 
 6426000    397.17017   -7248.7875    6653.6199    3565.3434   -2650.6039    17299.871 0.0054895788  0.039375871    1.7517571 
 6428000    383.26432   -7246.9609     5577.981    1506.2107   -5058.6869    16883.598 0.0054931874  0.039402525    1.7522084 
 6430000    409.66134   -7247.9765    6850.8227    1070.5231   -6010.3464    15817.531 0.0054947646  0.039438552    1.7526215 
 6432000    408.13154   -7247.5007    4432.9943   -1303.1443   -3212.2938    18280.634 0.0054988265  0.039456557    1.7529774 
 6434000    447.60678   -7248.2687    5178.1674    1077.2237   -4402.5345    15094.935  0.005499104  0.039467788    1.7536039 
 6436000    388.25138   -7247.8094     4525.986    645.13542   -5567.1079    15513.416 0.0055022112   0.03949623    1.7540151 
 6438000    376.55435    -7248.415    2838.1496   -922.67895   -2368.9989    17177.402 0.0055148509  0.039522897    1.7543439 
 6440000    389.86412   -7247.0961    6544.7448   -1710.0091   -4324.7234     17568.32 0.0055152508  0.039529648    1.7547738 
 6442000    414.47369   -7247.9719    6592.8565    426.71558   -3052.1082    16206.167 0.0055189735  0.039562764    1.7552815 
 6444000    397.27893   -7245.7249    3878.1904    1421.2438   -1258.3577    15981.253 0.0055223489  0.039584097     1.755636 
 6446000    388.93684   -7247.3575    5749.9186    530.80543     -3574.42    16184.361 0.0055257919  0.039594412    1.7559988 
 6448000    377.22154   -7249.0001    4719.0186    480.01589   -1508.8281    15201.379  0.005524688  0.039609707    1.7563844 
 6450000    395.86715   -7247.8396    5692.5094    1642.7636   -2608.4183    17513.716 0.0055233463  0.039618608    1.7567868 
 6452000     422.6302   -7246.9059    3576.6023    1390.2552   -3353.3234     16317.43 0.0055315618  0.039630849    1.7571581 
 6454000    409.18196   -7248.0493    5646.1175    533.68653   -849.12452    17485.094 0.0055371036  0.039643657    1.7575229 
 6456000    419.28341   -7248.2432    2521.9837    235.09303    -1220.925     14740.45 0.0055367253  0.039644942    1.7578665 
 6458000    381.91633   -7248.1097    5669.8895    1686.4328   -1416.5141    15724.781 0.0055389139  0.039647058    1.7582433 
 6460000    408.00331   -7249.1642    5667.7802    516.62334   -4552.2507    16306.807 0.0055417117  0.039657011    1.7585154 
 6462000    402.54181   -7246.1796    7074.4954    1395.7014   -1559.3355    18560.822 0.0055399924  0.039664412    1.7589468 
 6464000    389.52585   -7247.7301    6066.9468    1859.5219   -3524.8365     15295.61 0.0055423601  0.039668912    1.7593885 
 6466000    378.99153    -7248.483    8139.5664    1125.8836   -1272.6516    14113.144 0.0055421206   0.03967851    1.7597474 
 6468000    424.64524   -7247.3049    5025.6988    2482.9575   -2619.7874    15760.018 0.0055412908  0.039694219    1.7600952 
 6470000    378.75056   -7244.1539    4239.7341    1124.7161   -2432.7375    19336.197 0.0055490698  0.039696286    1.7604084 
 6472000     386.0983   -7248.8848    4884.8041    1456.4572   -3999.1525    16879.639 0.0055502122  0.039716726    1.7608548 
 6474000    391.32095   -7247.6919    7445.8489   -692.80412   -3794.4094    18413.843 0.0055517972  0.039759086    1.7612333 
 6476000    410.22048   -7247.1109    5207.7037    2487.8609   -4082.1562     16351.43 0.0055515321  0.039797853    1.7616023 
 6478000    399.99736   -7247.4218    3041.1628   -638.90762   -1248.2238    16431.828 0.0055522357  0.039809957     1.761989 
 6480000    411.78412   -7247.6512    3903.1267    3261.0374   -5925.3888    14615.365 0.0055543645  0.039814419    1.7623178 
 6482000    377.19529   -7246.9738     5398.854    3868.6789   -1837.5744    16303.817 0.0055667197  0.039865964    1.7627376 
 6484000    365.34545   -7248.5198    5491.5889    3826.7457   -3213.3974    16454.122 0.0055754808  0.039884495    1.7632225 
 6486000    403.33077    -7247.876    4646.7625    -1593.675   -2829.1635    15021.789 0.0055780752  0.039909071    1.7636552 
 6488000    428.58538   -7247.7795    6818.2427    1497.0707   -3618.8342    15178.646 0.0055768342  0.039903587    1.7640058 
 6490000    391.21232   -7248.4762    7153.5161    2621.9577   -2647.8854    17076.879 0.0055790774   0.03990857    1.7643566 
 6492000    428.18398   -7247.7825    4682.0474    61.059299   -2140.9646    18002.781  0.005577632  0.039914819    1.7647236 
 6494000     405.3998   -7247.9606    5477.9768    530.69742   -2202.5337    17138.455 0.0055761024  0.039918642    1.7650297 
 6496000     398.8158   -7247.5035    4466.3296     2229.323   -3601.1116    17996.017 0.0055764617  0.039928709    1.7654012 
 6498000    395.98805   -7246.7448    5158.3919    339.37276   -2726.0144    17966.166 0.0055769365  0.039940527    1.7656864 
 6500000    407.83125   -7249.0706    5390.6294    2558.6589   -2740.2399    17171.703 0.0055764624  0.039956141    1.7660927 
 6502000    380.39628    -7247.387    4634.1145    2960.5334   -4350.5427     17064.07  0.005584635  0.039990005    1.7664359 
 6504000    388.37762   -7245.8002    4410.7964    167.45795   -3493.1554    18493.176 0.0055906989  0.040017103    1.7669543 
 6506000    402.30659   -7248.3628    7511.1137    3084.1055   -2218.6156    16858.636 0.0055994189  0.040047797    1.7675509 
 6508000    429.39813   -7248.5861    8428.6498   -805.62277   -3857.9361    16870.689 0.0056023539   0.04007374    1.7679263 
 6510000    382.72398   -7249.1436    5203.1486    1029.6428    -2686.241     18267.81 0.0056089527  0.040110857    1.7682945 
 6512000    424.35839    -7247.009    5648.1862   -921.72951   -3447.6389    15313.788 0.0056147171  0.040137702    1.7686482 
 6514000    386.60605   -7246.0897    4536.7878   -1877.3638   -265.86339    15704.434 0.0056151835   0.04014548    1.7690635 
 6516000    431.53017   -7246.8354    8225.1202     2329.005   -6281.9831    15821.902   0.00561723  0.040159176    1.7694635 
 6518000    405.97939    -7246.254    3822.4198    1323.5676   -5633.4295    16726.203 0.0056188697  0.040184707    1.7698027 
 6520000     392.1682   -7248.0152    5784.2974     1695.463   -2426.0261    17943.502 0.0056260938  0.040198653    1.7702932 
 6522000    388.49729   -7247.9367    7617.1371    4348.6879   -4882.3073    12302.186 0.0056258161  0.040219657    1.7706718 
 6524000    422.74962   -7248.5351    6127.4709    2070.9773    -6948.099    18368.531 0.0056385745  0.040258168    1.7710451 
 6526000    383.94675    -7247.687    7847.1183    3271.7121   -2973.2629    17029.535 0.0056440032  0.040285923    1.7715031 
 6528000    383.85077   -7247.6141    3532.9434    1487.7677   -3393.7379    18616.367 0.0056467759   0.04031826    1.7719062 
 6530000    415.33775    -7246.408    8212.0649    2220.2689   -1941.7601     16264.04 0.0056470891  0.040352245    1.7724173 
 6532000    408.33708   -7248.9726    3374.1302    917.00237   -3446.5642    19893.631 0.0056491623  0.040356343    1.7728013 
 6534000    416.98136   -7246.9759    6159.8288     2480.105   -4852.9261    16507.159 0.0056563514  0.040382775    1.7732826 
 6536000    413.08864   -7248.5182    4811.7196    187.34118   -4262.7916    17052.775 0.0056698113  0.040410413    1.7736292 
 6538000      413.237   -7249.4228    4179.7194   -1758.4445   -4400.7836    17437.039 0.0056704483  0.040435775    1.7740357 
 6540000    424.31642   -7249.3582    6446.7569    1905.7454   -3362.2448    15389.295 0.0056686938  0.040456087    1.7744502 
 6542000    398.48192   -7246.6244    3908.3476    1625.1691   -4632.1722    17896.627 0.0056717211   0.04048753    1.7748368 
 6544000    429.52322    -7248.688    7211.8073    529.98166   -2631.9667    14227.973 0.0056808241  0.040513244    1.7753141 
 6546000     396.1105   -7248.0708    4832.4528   -1889.2732   -1880.4406    16211.297 0.0056853683  0.040523962    1.7756963 
 6548000    387.12636   -7248.8801    5380.7966   -1817.4836   -3947.3506     15658.98 0.0056848726  0.040547276      1.77608 
 6550000    407.05161   -7247.6402    5040.7965    129.66923   -1767.6908    16265.413 0.0056830126  0.040563181    1.7764938 
 6552000    417.48972   -7246.3502    4639.8112    2867.7251   -2558.1976    14463.805 0.0056843408  0.040571916    1.7767784 
 6554000    400.39329   -7247.5442     5001.726   -260.19473    -1426.797    15336.225 0.0056845267  0.040581519    1.7770845 
 6556000    401.45486   -7247.4708    6582.9833    3091.1857   -431.39431    18110.163 0.0056849035  0.040582392     1.777442 
 6558000    394.33726   -7247.4725    5193.1562    2709.3598   -3838.1202    15177.762 0.0056882196  0.040584518    1.7778781 
 6560000    408.82501   -7247.8296    6516.0222     1899.249    -930.1697    16558.159 0.0056876831  0.040583529    1.7781364 
 6562000    414.26505    -7247.601    3888.2348    2113.7354   -1724.0389    18904.982 0.0056895596  0.040604263    1.7785481 
 6564000    395.19964   -7246.4012    3414.6104    2681.1688    -1735.548     18990.46  0.005700599  0.040615663    1.7790455 
 6566000    393.50695   -7246.5988    5272.5471   -567.25507   -1400.8419    18711.945 0.0057100779  0.040638488    1.7794435 
 6568000    402.09941   -7248.1201    3821.8369   -694.92895   -3923.8386    17450.296 0.0057069121  0.040671121    1.7798396 
 6570000    394.85754   -7248.2597    4673.4563    252.88395   -1449.1871    16084.748 0.0057061038  0.040704622    1.7801656 
 6572000    450.63778   -7247.0397    6040.9727    2564.2276   -3965.4616    18855.716 0.0057108609  0.040737566    1.7805948 
 6574000    394.93625   -7248.3117    5153.4506    719.53926    -2526.326    17084.587 0.0057216836  0.040780021    1.7810148 
 6576000    382.01168   -7245.9982    3600.1262    1135.8291   -4275.9824    18220.547 0.0057272873   0.04079679    1.7814424 
 6578000    416.90576   -7247.9665    8175.5896    951.20226   -2426.2565    16357.275 0.0057300426  0.040816174    1.7818964 
 6580000    417.74406   -7247.6694    5586.4255    999.83093    -4318.197    15508.508 0.0057315386  0.040844832    1.7821747 
 6582000    418.87794   -7247.9996    8319.0256    1756.1963   -4149.2177    20049.933 0.0057352267   0.04088274    1.7826453 
 6584000    384.44463    -7248.313    5491.6933    500.74206   -1449.6885    16232.711 0.0057411528  0.040897643    1.7830674 
 6586000    392.55681   -7247.0439    7095.7316    805.34018   -3665.3438    16218.705 0.0057455141  0.040926523    1.7833853 
 6588000    442.25135   -7247.9906    6624.3019    30.672882   -2176.2347    16124.834 0.0057456087  0.040967451    1.7837284 
 6590000     371.5171   -7247.4389    4878.4177    1514.5765   -3795.3019    18234.481 0.0057455919  0.040975075    1.7841618 
 6592000    395.46142   -7247.5731    4582.0145    1715.2417   -4335.0099    18321.335 0.0057488929  0.041005249    1.7845914 
 6594000    400.63131   -7247.8699    4550.0844    1301.2691   -2491.8616    15196.886 0.0057539948   0.04103371    1.7849353 
 6596000    411.52167   -7249.2332    3745.9367    619.56089   -4868.4843    18938.053 0.0057591859  0.041061419    1.7852826 
 6598000    390.07207   -7248.7788    4072.9491    353.06448   -869.95273    17676.927 0.0057618665  0.041078327    1.7856942 
 6600000    407.86235   -7248.0665    5422.0844   -2565.1258   -3156.0316    18175.941 0.0057663368  0.041094451     1.786103 
 6602000    416.85002   -7246.1539    6774.5589   -1021.7666   -2736.5999    14906.306 0.0057641159  0.041130629    1.7864608 
 6604000    400.28658    -7247.309    4489.5899    195.01594    -4483.255     18186.79  0.005763443  0.041150071    1.7867509 
 6606000    405.28896   -7246.7204    3080.4581     109.3452   -3899.6988    16750.413 0.0057658563   0.04117987    1.7870614 
 6608000     411.9917   -7249.4316    4515.9511    3381.6127   -3196.8813    16565.781 0.0057650249  0.041199893    1.7873458 
 6610000     402.9233   -7247.7379    2276.0311    3312.7342   -2468.4462    20701.057 0.0057661093  0.041211688    1.7877932 
 6612000    395.82788    -7248.096     4692.618    1913.2112   -2889.6433    17019.331 0.0057709581  0.041224708    1.7882964 
 6614000    422.97155   -7248.5486    4897.4585     2967.603   -4865.9989    17671.838 0.0057730987  0.041255705    1.7886315 
 6616000    403.79235   -7247.8692    4670.1757    2966.6027   -1369.9367    15955.571 0.0057744506  0.041269917    1.7889925 
 6618000    417.85573   -7247.2548    6134.8734    4769.6566   -4355.3805    17381.994 0.0057750784  0.041280968    1.7892931 
 6620000     417.8751   -7247.4442    8312.8734     337.0501   -1225.0006    16452.353 0.0057823378   0.04130344     1.789639 
 6622000    395.13966   -7248.4371    6640.1889    5462.4559   -5203.7699    17478.072  0.005777458  0.041300629    1.7899444 
 6624000    395.38845   -7247.1807    6790.6389    2.2371206   -2854.3164    14451.613  0.005781696   0.04132106    1.7903783 
 6626000    415.75222   -7247.9142    4810.3753    1653.6443   -2208.6842     16368.53 0.0057800303  0.041324806    1.7906792 
 6628000    423.22852     -7246.69    3744.1451   -792.57806   -1027.2493    15497.918 0.0057785663  0.041322201    1.7910535 
 6630000    395.53635   -7249.1688    3752.1166    286.10491   -3475.9319    15967.002 0.0057776285  0.041320463    1.7913745 
 6632000    417.59916    -7247.208    4851.2946   -81.549283    -1820.053    17621.939 0.0057753254  0.041331167    1.7916895 
 6634000    427.39915   -7248.6469    5288.6287   -353.00014   -4398.3848    14666.387 0.0057753114  0.041347184    1.7919738 
 6636000    411.78193   -7247.2565    4218.1888    727.29439   -2091.9367    17982.714 0.0057768113   0.04135271    1.7922325 
 6638000    397.26736   -7247.4008    4233.1316     377.3361   -799.44017      16887.9 0.0057833937  0.041372579    1.7926736 
 6640000    385.11834   -7248.3735    6455.7397   -1217.4285   -4743.5817    14303.672 0.0057929265  0.041401935    1.7931634 
 6642000    379.05938   -7246.9654    5415.7383    2208.0861   -2193.8059    18681.108 0.0057972985  0.041419616    1.7935272 
 6644000     387.7336   -7247.4891    7066.4314    3777.8863   -2385.2428    16351.323 0.0057989093  0.041439881    1.7939985 
 6646000     395.7816   -7249.0635     6093.033     3026.462   -2624.8562    19600.478 0.0058033064  0.041465507    1.7944252 
 6648000    408.26844   -7247.7947     5726.934    2589.2285   -4923.8327    14811.679 0.0058085176  0.041505437    1.7948835 
 6650000    424.86418   -7250.2298    4302.0811    2156.0443   -3030.5804    17914.058 0.0058118795  0.041537908    1.7951744 
 6652000    415.54561   -7248.3047    5531.1092    3679.1373   -3784.2551    16893.365 0.0058118489  0.041554179     1.795559 
 6654000    415.73303   -7249.1378    5079.6229    325.04918   -3152.6878    14847.318 0.0058112997    0.0415688    1.7959224 
 6656000    398.91741   -7246.9565    5371.8527    360.86843   -3717.5509    16008.969 0.0058103787  0.041574392    1.7961693 
 6658000    381.15916   -7248.7126    6032.6906    963.98971   -917.99443    16600.281 0.0058094823  0.041577681    1.7965058 
 6660000    386.39719   -7247.9737     6858.909   -1392.8981   -4461.1966    15171.447 0.0058095734   0.04159365    1.7969021 
 6662000    394.26219   -7246.5845    6882.1962    2549.4271   -1559.9771    17454.352 0.0058105085  0.041619451    1.7972853 
 6664000    377.28853   -7246.5678    8221.1632   -936.30393   -769.70299    16079.777 0.0058116091  0.041623497    1.7975158 
 6666000      377.116   -7247.2232    2849.1126   -2133.5567   -3573.3478    18898.061 0.0058103509  0.041633295    1.7978053 
 6668000    375.86166   -7248.1516    6814.4462    1915.5494   -1743.1007    15625.062 0.0058094226   0.04165095    1.7981936 
 6670000    377.50953   -7248.2179     3328.656    2211.8075    235.44774    13916.055 0.0058145377  0.041670961    1.7985446 
 6672000    390.87732   -7248.6951    5231.8728    1856.3509   -3223.5366    14736.463 0.0058219666  0.041687672     1.799014 
 6674000    376.51882   -7247.1372    5386.9853    1003.9263    -907.4615    15054.988 0.0058232466  0.041690623    1.7993435 
 6676000     402.8308   -7246.6469     4218.907      1520.58   -3740.5651    15767.331 0.0058250185  0.041694941    1.7997096 
 6678000    414.57361   -7248.6877    6323.5973    1676.1388    -4063.539    13522.519 0.0058286381   0.04172295    1.8000613 
 6680000    389.82568   -7247.5349     7720.581    866.64096   -2255.1268    16773.228 0.0058272786  0.041727124    1.8004361 
 6682000    380.98728   -7248.8402     4889.257    1005.0592   -3978.9205     15767.75 0.0058284281  0.041732733    1.8008403 
 6684000      423.346    -7249.355     3738.978    795.93881   -1966.5585    16632.396 0.0058291525  0.041744472    1.8010991 
 6686000    393.68833   -7247.1414    5325.8119    1247.2117   -4172.0875    16723.576 0.0058308441  0.041766268    1.8013882 
 6688000    415.46778   -7247.3727     6260.759   -90.106995     -1407.49    18954.141 0.0058303626  0.041776872    1.8017581 
 6690000    396.84422   -7247.8278    2864.4175    745.81284   -1922.7352    16252.465 0.0058358052  0.041787452    1.8022309 
 6692000    397.19716    -7247.425    5017.1909    1600.8097   -1974.0976     14600.39 0.0058368919  0.041801416    1.8026656 
 6694000    396.57308   -7248.9637    3645.8206   -1302.0409   -1781.8741    15593.136 0.0058370383  0.041804728    1.8029176 
 6696000    428.40176   -7247.8907    5532.3958    2048.5706   -3302.2647    15957.871 0.0058386713  0.041815559    1.8032698 
 6698000    370.18524   -7246.3835    4825.1803    615.70231   -5518.9271    17293.133 0.0058389806  0.041829712    1.8035987 
 6700000    399.26729   -7246.9055    2635.6725     2371.524   -5630.6205    16459.978 0.0058449487  0.041840673    1.8039347 
 6702000     366.2222    -7248.422    4429.9426    2340.5851   -2424.1774    14737.841 0.0058455745   0.04186806    1.8042636 
 6704000    397.38129   -7246.7818    4584.4991    1303.9354   -1117.6954     16390.12 0.0058464803   0.04189582    1.8045302 
 6706000    394.25263   -7249.1803    6142.0596    422.58422   -3259.8299    16788.704 0.0058462529  0.041923397     1.804937 
 6708000    426.48248   -7248.2966      5315.85    664.22028   -3215.5165    16054.465 0.0058479275  0.041956071    1.8053533 
 6710000    404.64128   -7247.2665    4938.9069    917.07397   -4286.1327    17737.512 0.0058524464  0.041986456    1.8057348 
 6712000    399.40983   -7248.7668     10372.04    1432.0899   -3621.7848    15541.771  0.005866089  0.042003927     1.806201 
 6714000    365.51027   -7246.1073    8223.2071    807.70097   -4304.8177    16391.122 0.0058658577  0.042025889    1.8065651 
 6716000     427.9826   -7246.0993    6056.4175    540.53113   -1289.1623    13845.093 0.0058648964  0.042038339     1.806854 
 6718000    400.47962   -7247.3109    5435.1182    4540.3368   -1656.5392    16666.508 0.0058687299  0.042048406    1.8071951 
 6720000    382.31009   -7246.8653    2889.9267   -59.096166   -1853.9157    14716.106 0.0058750569  0.042072598    1.8076275 
 6722000    385.49072   -7248.1883    3569.4086    3071.2948   -3595.7415    17360.093 0.0058830425  0.042084156    1.8080785 
 6724000    431.89303   -7247.5809    4142.9256    2942.5937   -3408.5792    15584.695 0.0058909738  0.042113112    1.8084706 
 6726000     402.8244   -7248.8651    7888.3904    2479.3322   -2149.8441    20363.566 0.0058955921  0.042143475    1.8087908 
 6728000    396.00228   -7248.9043    8153.5062    700.01778   -2228.2722    18036.987   0.00589475  0.042168462    1.8092801 
 6730000    409.61344   -7246.8556    8838.0716    3101.5747   -3528.7874    18592.178 0.0058948055  0.042184392    1.8097092 
 6732000    403.76067   -7247.9746    7301.9996   -89.127448   -2685.6468    17717.266 0.0058959131  0.042223136    1.8100096 
 6734000    379.75841   -7249.3754     5742.362    3856.3611   -2767.8741    18576.181 0.0058944935  0.042244678    1.8102531 
 6736000    409.94624   -7246.9584    6529.2806    541.45095   -809.54098    18806.834 0.0059041211  0.042243459    1.8106564 
 6738000    412.61969   -7247.9918    5445.6529    2402.7995   -3301.1373    16583.676 0.0059086697  0.042246633    1.8110325 
 6740000    408.20483   -7248.5241    4870.2019    1783.3395   -2205.4172    18003.961 0.0059080079  0.042259772    1.8113095 
 6742000    410.91198   -7248.1966    4062.4968    585.22193   -2161.6294    18615.129 0.0059061463  0.042264694    1.8116945 
 6744000    414.49778   -7247.1588    7267.4664    1231.7557   -3057.8219    16864.756 0.0059088669   0.04227006    1.8120246 
 6746000     416.9891   -7249.4799    5916.5941    2075.6798   -1962.2868    15983.403 0.0059069399  0.042272847    1.8123209 
 6748000    426.48895   -7247.3149    5538.8104    3848.4384   -3658.4836    16169.594 0.0059106917  0.042276552    1.8126178 
 6750000    431.52184   -7247.8811    6883.3303    2291.5599    -3300.046    14751.005 0.0059126194  0.042306141    1.8129791 
 6752000    404.21653   -7247.8106    5399.0138     646.0135   -1795.3388    18587.203 0.0059135108  0.042311812    1.8132727 
 6754000    394.15386   -7247.4709    6607.6072    2468.8625   -3442.8248    15192.037 0.0059157855  0.042317352    1.8137086 
 6756000    405.30151   -7248.0252    5669.6923   -644.58715   -3703.0972    16551.098 0.0059243345  0.042321132    1.8140873 
 6758000    386.28214    -7246.341     9147.204    1428.6276   -5433.9496    17414.552 0.0059262489  0.042327499    1.8144435 
 6760000    393.70852   -7248.5082    5545.9131    1760.4779   -1617.8589     16239.23 0.0059250552  0.042342696    1.8148774 
 6762000    363.26303   -7246.9613     4381.536    2208.5773   -4073.0192    17134.189 0.0059326767  0.042368751    1.8151877 
 6764000    371.90258   -7248.0127    6168.4673    1646.4748    533.59774    17142.464 0.0059432086  0.042394464    1.8155792 
 6766000    391.59267   -7248.5129    6955.0509    1899.7139   -3316.7856    15383.067 0.0059424939  0.042413456    1.8159931 
 6768000      402.978   -7247.0338    5381.2178    -600.1501   -2017.1835    16832.457 0.0059436107  0.042429547    1.8163791 
 6770000    406.11365   -7249.3689    6440.4152   -156.54552   -2264.3603    16859.177 0.0059419476  0.042453224    1.8167511 
 6772000     416.2903   -7247.4468    6702.6746   -288.20595   -1862.2507     17378.02 0.0059455886  0.042476094    1.8171874 
 6774000    423.20615   -7248.1639    6153.2907   -389.60474   -2107.0093    16175.053 0.0059513654  0.042492166    1.8176327 
 6776000     405.4659   -7248.0128    7909.6815    3496.0288    -2839.431    16784.578 0.0059548555  0.042511357    1.8179503 
 6778000      414.604   -7248.5038    6135.4511    541.33704   -3789.6258    17623.585 0.0059705444  0.042536613    1.8183191 
 6780000    412.30856   -7246.6795     6303.751   -923.76432   -3780.1368    16474.629 0.0059690356  0.042566921    1.8186727 
 6782000    340.74467   -7247.7298    9068.8081    1258.8208   -1811.4879    18619.875 0.0059681795  0.042599711    1.8190103 
 6784000    403.79311   -7247.9297    6993.0703    5.5172843   -1721.1914    16742.789 0.0059805197  0.042607989    1.8193742 
 6786000    383.01572   -7247.7977    5090.3639    176.93465   -4395.3954    16561.506 0.0059761789  0.042617881    1.8196903 
 6788000    394.63858   -7246.7145    5821.7687    1982.0131    -1590.066    16473.959 0.0059758812  0.042636611    1.8199482 
 6790000    394.07886   -7248.1082    7635.8235    2683.4412   -4747.4996     20423.58 0.0059769946  0.042655115    1.8202793 
 6792000    399.20252   -7249.7751    6550.7396    1418.5533   -3883.5794    17741.778 0.0059823174  0.042680249    1.8207762 
 6794000    401.64044   -7246.3912    5617.0964   -107.45631   -2449.1037    13544.235 0.0059826976  0.042685743     1.821038 
 6796000    409.25644   -7248.6136    6831.7281   -1099.6751   -4644.4665    15339.192 0.0059811852  0.042685299    1.8212398 
 6798000    406.60781   -7247.6401    5503.9085   -158.40673   -1449.5627    17096.761 0.0059790735  0.042686087    1.8215019 
 6800000    385.94489   -7248.6468     7745.891    82.000235    -2276.597    17838.381 0.0059808481  0.042692059    1.8219359 
 6802000    408.60331   -7247.6163    3507.3359   -237.46776   -545.01176    15318.701 0.0059801868    0.0427003    1.8222942 
 6804000    427.32008   -7248.6973    5705.8153   -1515.3935   -3939.4328    16844.792 0.0059783679  0.042709823    1.8225826 
 6806000    393.44204   -7248.6322    2802.4409    1753.3117   -3236.8715     18414.72 0.0059814265  0.042720755    1.8229941 
 6808000    408.50561   -7247.8853    4724.6167   -281.57993   -1825.5919    14760.634 0.0059821963  0.042732069    1.8234022 
 6810000    399.25702   -7247.7488    7315.7798    215.77441   -5253.0267     16446.69 0.0059845863  0.042763085    1.8237818 
 6812000    399.29734   -7247.3665    5182.4416   -129.96834   -3285.7079    14999.584 0.0059815859  0.042779532    1.8240852 
 6814000    381.05188   -7248.2141    4448.3014    1766.0388   -4291.6562    18839.311 0.0059805371  0.042801566    1.8244226 
 6816000    422.19553   -7246.3838    6369.1722    1228.6727   -2881.2095    15069.354 0.0059785169  0.042812444    1.8247383 
 6818000    395.74375   -7246.5007    4878.7338    2466.3678     -2280.04    18426.394 0.0059811507  0.042824898    1.8250135 
 6820000    402.75353   -7246.8041    6960.7811   -637.44571   -2605.4323    19253.245 0.0059888011  0.042841799    1.8254515 
 6822000    387.34019   -7246.1645    4977.5046    335.39428    -2479.196    16409.827 0.0059886302  0.042855036    1.8258702 
 6824000    406.45099    -7247.438    6824.1979    179.62517   -2104.9987     17904.11 0.0059924412   0.04287263    1.8262316 
 6826000    372.60624   -7247.3946    5520.9802    1637.8445   -4793.5631    17113.738 0.0059934793  0.042885775    1.8266938 
 6828000    415.49892   -7248.0353      4547.92    1628.0205   -4757.8795    18082.467 0.0059987783  0.042914286    1.8271386 
 6830000    420.42734   -7247.9215     7009.765     1973.694   -2538.8089    18548.759 0.0059992574  0.042930534     1.827546 
 6832000    405.76961   -7247.5948    6379.5388   -982.33348    -4316.518    17434.138 0.0060015155  0.042960464    1.8278859 
 6834000     402.0717   -7247.5636    5452.6392    951.66156   -4230.0669    17715.689 0.0059993692  0.042993747    1.8282617 
 6836000    397.61399   -7246.7288    4776.2963     21.59939   -57.442379    16244.087 0.0059984321   0.04299866    1.8285637 
 6838000    391.81521   -7248.7922    6212.4096   -340.76344   -271.50542    15302.593 0.0059995231  0.042999084    1.8289426 
 6840000    433.40889   -7248.0688    8074.9836    2499.5868   -2752.8598    16051.398 0.0060001608  0.043008592    1.8293607 
 6842000    391.30777   -7246.3602    6631.7938   -1195.1401    -852.9016    14821.391  0.006001601   0.04301171    1.8297545 
 6844000    364.67634   -7247.7384    9316.3771     1195.649   -3571.3455    16068.063  0.005999881  0.043009688    1.8299563 
 6846000    390.52525   -7247.3624      5438.32   -2590.3301   -1924.8021    19151.708 0.0059980053   0.04301349    1.8303019 
 6848000    387.25273   -7246.5125    7109.0586    103.92966   -2627.2788    15083.917 0.0059980377  0.043021131    1.8306566 
 6850000    399.92366   -7247.2276    7121.9633   -1461.5961   -3206.9572    16459.749 0.0059957721  0.043034818    1.8309561 
 6852000    375.56044   -7246.8328    6541.7358    3161.6963   -2635.7525    15467.691 0.0059962481  0.043039787    1.8313133 
 6854000     381.4192    -7247.191    7556.4489   -9.1200166   -5732.9439    17435.025 0.0059995012  0.043062117    1.8316366 
 6856000    419.94113   -7247.0945    6982.1788   -1460.2481   -2467.7611    14808.501 0.0059982561  0.043079416    1.8320913 
 6858000    432.69486   -7246.2049    4341.1351    4408.9721   -1485.9573    13947.565 0.0059970695  0.043090015    1.8324204 
 6860000    448.03952   -7246.4807    7282.0553    125.92465   -2487.5587     17182.23 0.0059976365  0.043102651     1.832672 
 6862000    390.56752   -7248.5524    7863.0265    1526.4555    625.15335    14759.165 0.0059973372  0.043104779    1.8330315 
 6864000     407.8746   -7247.1899    8249.5535   -540.40008    -905.0493     17986.74 0.0059963222  0.043109751    1.8332579 
 6866000    398.45268   -7245.8452    7086.5085   -1060.7825   -2563.7207    19063.583 0.0059949149  0.043115691    1.8335211 
 6868000    392.03712   -7246.9919    10194.273    2104.6495   -2851.6299      19655.6 0.0059933327  0.043123542     1.833865 
 6870000      369.918    -7246.655    8150.1847   -1144.9793   -1660.9604    15836.553 0.0059924896  0.043139088    1.8341724 
 6872000    392.53312    -7247.575    9202.7446   -1521.1458   -1165.4425    15040.248 0.0059912874  0.043138691     1.834429 
 6874000    370.78639   -7247.5575    6076.2783    3710.2973   -5413.8899    18135.131 0.0059903161  0.043152522    1.8347027 
 6876000    393.83571   -7248.0484    5486.6696    52.919807   -4653.7387    16385.397 0.0059953227  0.043166431    1.8351349 
 6878000    370.61985   -7247.7646    6817.9086    696.46753   -5897.7018    15740.006 0.0059972207  0.043185534     1.835495 
 6880000      373.486   -7247.9299    6216.5225   -160.52801    -3148.117    14028.041 0.0059962607  0.043207645    1.8357732 
 6882000    398.24108   -7246.9439    5095.1376    394.74063   -2011.9698    17551.111 0.0059990954  0.043214953    1.8361613 
 6884000    393.51617   -7246.3186    6333.4553    1023.3157   -2295.4012     18669.57 0.0059975259   0.04322064    1.8366259 
 6886000    412.92632   -7248.8171    8169.1138    659.00159   -4495.8622    18007.082 0.0059967168  0.043231009    1.8371038 
 6888000    400.98483   -7247.3086    7181.1859    690.92162   -3754.6396    16377.143 0.0059967213  0.043240094     1.837555 
 6890000    389.94808   -7247.2351    7302.9921    -467.5118   -2966.7972    16481.472 0.0059957532  0.043272826    1.8379168 
 6892000    414.23072   -7248.2758     8149.996    1570.4955   -4020.7974    18782.338 0.0060006281  0.043312771     1.838346 
 6894000    406.07029   -7248.1059    7593.7201   -1870.3666   -1058.7925    15044.925  0.006004312  0.043343094    1.8387225 
 6896000    404.28748   -7247.3026    6519.2866   -1122.2979   -3576.5007    16294.702 0.0060023813  0.043353199    1.8390291 
 6898000    406.40896    -7247.733    3852.1983   -1613.2233   -1858.3213    16024.316 0.0060011966  0.043372828    1.8393535 
 6900000    392.21932   -7248.5434    5260.6832   -1158.4252   -915.69104     16315.83 0.0060028785  0.043386424    1.8396285 
 6902000    394.82787   -7248.0392    7593.3215   -617.81932    9.5428974    17255.031 0.0060046063  0.043392585     1.839912 
 6904000    396.91521   -7247.8434    5282.3526   -1007.2946   -372.10011    15777.981 0.0060024685  0.043388197    1.8402504 
 6906000    394.55069   -7247.9219    6752.4556   -1367.3121   -4188.0827    17671.088 0.0060047742  0.043392738    1.8405839 
 6908000    399.81213   -7247.1151     8913.628    237.01993   -2511.6748    14706.074 0.0060024247  0.043411309    1.8409351 
 6910000    426.25985   -7247.9992    7202.5911    1647.6935   -1424.5424    16910.799 0.0060026498  0.043419152    1.8413019 
 6912000    388.30361   -7247.4842    8501.4909   -632.00631   -3546.5611    16335.239 0.0060032626  0.043424954    1.8416425 
 6914000    425.39226   -7247.4346    6450.1021    1429.5473   -7096.7903    18120.782 0.0060017196  0.043452636    1.8419607 
 6916000    415.95372   -7247.7525    7165.4363    2157.6646   -3521.2471    15155.762 0.0060034933  0.043465344    1.8423958 
 6918000    404.81848   -7247.1495    8005.8322    1793.2216   -6629.2621    18608.425 0.0060067071  0.043491425    1.8427978 
 6920000    452.89104   -7248.1395    6014.6719   -482.99497   -2944.4341    16683.594 0.0060089946  0.043529175    1.8432031 
 6922000    394.04428   -7247.5665    6081.9228    4687.4847   -5291.1867    16481.449 0.0060085606  0.043542283      1.84363 
 6924000    413.15452   -7248.5722    4417.7666   -209.38866   -2719.7002     18072.12 0.0060121146  0.043571463    1.8440677 
 6926000      417.058   -7248.1707    3147.8489    1620.0095    -4004.068    16632.749 0.0060125787  0.043585739     1.844515 
 6928000    421.46073   -7248.0382    6870.9057     1634.583   -6166.6189    16977.201 0.0060188163   0.04361636    1.8448853 
 6930000    372.45569   -7248.3947    7347.1134    163.42015   -2781.9606    15494.998 0.0060221597  0.043645236    1.8452557 
 6932000    406.97296   -7246.3676    5957.5144   -148.73112   -2346.8589    17711.962 0.0060204142  0.043645718    1.8455607 
 6934000    403.46357   -7248.7709    6096.3358    1135.4129   -3682.5542    16028.553 0.0060212456  0.043656699    1.8458883 
 6936000    405.38626   -7249.2064    7288.8216   -533.15352   -875.24713     17889.69 0.0060227395  0.043676595    1.8461781 
 6938000    387.77689   -7247.0042      2267.59   -1029.1978   -3626.0828    17588.191 0.0060228059  0.043686641    1.8465493 
 6940000    385.28653   -7247.9346    5825.5917    2241.2688   -2688.9677    16524.121 0.0060205329  0.043705652    1.8467894 
 6942000    398.79017     -7247.31    1249.6569   -694.74015   -4080.7285    20419.318 0.0060216021  0.043727464    1.8471257 
 6944000    389.96389   -7247.1051    4304.1557    2189.3078   -2372.7321    17969.959 0.0060329262  0.043769498    1.8476572 
 6946000    410.04587   -7248.2693    4805.3707    1681.1117   -845.24486     18003.01 0.0060387446  0.043799288    1.8480792 
 6948000    416.87391   -7248.0744    4991.1172    798.73554   -537.46714    16029.816 0.0060420407  0.043819628    1.8485035 
 6950000    422.85403   -7246.8872    7214.6909    1578.3517   -3188.6532    18865.596 0.0060404965  0.043831363    1.8488091 
 6952000    394.36866   -7248.3247    5791.7192    483.37198   -957.56442    16664.595 0.0060438432  0.043858802    1.8492057 
 6954000    392.63724   -7247.6329    7995.7415     2477.168   -3048.0177    16840.086 0.0060440666  0.043871451    1.8495295 
 6956000    387.25546   -7248.3284    7580.6337    -146.3103    -1909.024    15793.693 0.0060499895  0.043881906    1.8499205 
 6958000    396.27039   -7246.4515    6141.9929    1824.7548   -2311.5859    18986.559 0.0060559053  0.043910949    1.8502463 
 6960000    389.07506   -7247.4101    8345.1327    74.977615   -3467.2653      16048.4 0.0060582829  0.043939867    1.8506068 
 6962000     382.4436   -7248.9052    8140.5393   -1630.5868   -3257.4685     16944.64 0.0060579935  0.043949965    1.8510315 
 6964000    388.46878   -7248.5529    5844.2078    995.09597   -4965.3105    15328.097 0.0060583927  0.043958055    1.8513737 
 6966000    412.02623   -7248.8524    7198.6532    1116.8784   -1878.9846    15176.554 0.0060573425  0.043977971    1.8516802 
 6968000    428.22559   -7247.7738    5372.5544   -351.44001   -2964.4905    15337.779 0.0060561111  0.043983564    1.8519348 
 6970000    400.93257    -7246.958    9531.6356   -781.46919   -4548.9667    15104.586 0.0060542596  0.043981669    1.8521951 
 6972000    410.78419   -7248.3781    6642.1171     1666.412   -2726.2401    17152.377 0.0060548418  0.043982577    1.8524609 
 6974000    374.41938   -7249.2625    7249.6947    744.25297   -1581.9795     14774.35 0.0060539986  0.043993398    1.8527691 
 6976000    390.49941   -7249.1719    7601.3923    1067.2148   -1544.7636    18686.404 0.0060528729  0.043995566    1.8530859 
 6978000    415.99323   -7249.6695    8400.4397   -463.43801   -3127.1329    18457.123 0.0060515836  0.043990916    1.8535012 
 6980000    429.12759   -7246.8096    7390.3923    4711.4207   -3956.4451    15723.422 0.0060519645   0.04401183    1.8538323 
 6982000    372.67487   -7248.0155    5825.1886    142.81316   -2191.7563     17366.43  0.006049426  0.044022433    1.8540993 
 6984000    385.63483   -7247.8731    8340.8587    3456.7582   -4886.7882    15886.864 0.0060479604  0.044033286    1.8543925 
 6986000    389.64734   -7248.2513    5181.1623    908.16348   -2246.8973    17979.715 0.0060512002  0.044059731    1.8547485 
 6988000    366.72382   -7248.1273    6684.2708    1402.5177   -829.48698    14177.056 0.0060538514  0.044064531    1.8551296 
 6990000     405.5147   -7247.1519    3786.4939    1464.5665    -2631.261    16104.344 0.0060516255  0.044060452    1.8554367 
 6992000    372.62269   -7248.4757    6451.1607    2576.6468   -785.65036     17749.01  0.006051633  0.044059132    1.8557414 
 6994000    390.22175   -7248.3436    4974.9266    288.46902   -3536.8821    18050.185 0.0060561218  0.044076572    1.8561412 
 6996000    384.87643   -7247.9697    7122.7136   -1397.9405   -1247.9561    17831.013 0.0060550028  0.044084988    1.8565859 
 6998000    415.31932   -7249.6982    5699.1315    102.06296   -823.56934    16915.432 0.0060540177  0.044095016    1.8569969 
 7000000    383.08483   -7249.3516    8353.2328    1957.0831   -4890.8689    15161.898 0.0060525089  0.044124464     1.857369 
 7002000    405.04169   -7247.3989    6132.3194   -649.01412   -935.48303    19979.553 0.0060508315  0.044160858     1.857746 
 7004000     365.9612   -7250.2181    6912.8009     585.6119   -4223.7427    17442.748 0.0060489281  0.044159299    1.8583048 
 7006000    404.64667   -7246.5196    5751.0349    2823.4799   -2345.3155    16089.857 0.0060474504  0.044161023    1.8587014 
 7008000    402.60914   -7247.9068     7310.196    520.66713   -4232.1546    17768.229 0.0060485005  0.044170506    1.8590537 
 7010000    416.43153   -7249.0106    6321.2858    1050.1389   -2470.2523    17335.346 0.0060464499  0.044169156    1.8595112 
 7012000    399.05985   -7250.2849    8032.8939    2705.7272   -3239.4771    17466.585 0.0060449645  0.044167098    1.8598376 
 7014000    384.25403   -7248.4887    3611.2124    -494.3716   -2154.8995     15665.76 0.0060436994  0.044177966     1.860267 
 7016000    364.37841   -7248.8046     7693.566    1505.8345   -3808.3572    13818.356 0.0060433605  0.044177205    1.8605131 
 7018000    401.68766   -7248.4799    5395.8807   -185.61799   -4245.6376     16214.81 0.0060437175  0.044172427    1.8608383 
 7020000    412.45408   -7250.4667    5625.3087    653.35464   -3910.1809    17274.121  0.006042719  0.044174465    1.8611744 
 7022000    373.34166   -7249.2853    7116.2908    2564.8467   -2929.7062    19787.956  0.006040741  0.044181414    1.8614962 
 7024000    421.45956   -7249.0228    6233.5029    778.82112   -1622.8488    18698.661 0.0060395384  0.044195944    1.8618785 
 7026000    409.74906   -7250.3548    8522.4619    5165.1978   -2120.0195    20519.678  0.006037858  0.044203503    1.8623434 
 7028000    399.58395   -7248.2907    4622.8501   -972.29655   -3239.5997    18227.179 0.0060439302  0.044216929    1.8628094 
 7030000    417.04164   -7248.6872    5199.9748   -1000.7077   -2172.0374    18325.177 0.0060435576  0.044239473    1.8633452 
 7032000     394.7999   -7247.8469    5576.2517   -563.29967   -6110.2737    16309.829 0.0060424393  0.044267609    1.8637359 
 7034000    395.97024    -7248.912    4162.8311   -1687.5029   -1206.0736    17253.827 0.0060407412  0.044294042    1.8642472 
 7036000    413.90471   -7249.0523    6843.5876   -1247.4581   -6294.0374    17822.482 0.0060403844  0.044312597    1.8648075 
 7038000    387.24686   -7248.9818    3021.0008   -285.05336   -2163.8532     16223.04 0.0060391442  0.044338097      1.86522 
 7040000    376.92849   -7249.1083    5119.0541   -1864.7539   -676.27404    17285.963 0.0060376162  0.044344054    1.8656022 
 7042000    412.45059   -7248.8707     5937.935   -732.94709   -4854.9827     19910.74 0.0060378315  0.044340199    1.8659946 
 7044000     386.8546   -7249.1461    7286.6536   -1257.0257   -1732.4903    16220.696 0.0060361941  0.044348195    1.8664514 
 7046000    400.59711    -7247.933    8161.2194   -1258.7861   -4136.7397    16744.467 0.0060359635  0.044344464    1.8668336 
 7048000    392.66915   -7248.6291    8004.4562   -1206.7587    -3071.464    14209.596 0.0060346141  0.044338276    1.8670876 
 7050000    427.80599   -7248.7131    6657.5527   -828.33451    -4615.759    18536.916 0.0060365145   0.04433956    1.8673702 
 7052000    394.34545   -7248.0354    7895.0843    1525.4809   -4333.4545    16364.259 0.0060363919  0.044338627    1.8678008 
 7054000    414.03479   -7248.0778    6675.8146   -312.79204   -4102.8751    17429.007 0.0060351012  0.044340311    1.8680988 
 7056000    388.17769   -7248.5138    7528.9101   -2058.8005    -1974.793    17254.517 0.0060356824  0.044344955      1.86838 
 7058000    397.18275   -7250.4165    5644.2217    763.79662   -2325.3005    20286.199 0.0060379102  0.044343549    1.8687087 
 7060000    419.32862   -7248.2959    6245.1277    2050.1227   -417.59983    20054.193  0.006037343  0.044359643    1.8691093 
 7062000      421.386   -7247.5031    3380.9254    546.06142   -2283.3458    17634.455   0.00603545  0.044362474    1.8695393 
 7064000    386.15361   -7250.0253    5562.5889    3377.2406   -2218.7213    17927.779 0.0060340762  0.044376709    1.8699666 
 7066000    400.71436   -7249.6411    5897.3414    1325.3011   -1465.9981    17389.215 0.0060323037  0.044384761    1.8703718 
 7068000    425.30727   -7249.8747    7144.8164    1046.3035   -3841.7679     18451.84 0.0060306439  0.044402301    1.8708461 
 7070000    410.14182   -7248.7843    5678.0024    790.86961   -3552.3058     19159.24 0.0060290732  0.044424411     1.871276 
 7072000    388.63321   -7249.4368    5833.2878   -2906.0191   -4444.7749     16091.73 0.0060274753  0.044446491    1.8717105 
 7074000    374.33764   -7249.7609    5709.3336   -3771.8291    -1002.488    21312.242 0.0060264054  0.044462648    1.8721199 
 7076000     364.2735    -7249.411    8307.8242    988.51726   -4292.9514    20409.185 0.0060248063  0.044478612    1.8726387 
 7078000    433.00517   -7247.7922    5624.3264   -798.34974   -2176.9241    20701.496 0.0060239263   0.04450669    1.8731251 
 7080000    378.36452   -7248.4388     6908.138   -1400.0943   -2910.6543    17569.862 0.0060226834  0.044525687    1.8735456 
 7082000    393.54019   -7247.9742    7054.4567   -625.11247   -1894.9616    18717.671 0.0060211092  0.044534454    1.8738695 
 7084000    393.20221   -7248.9315    8178.5063   -1668.6912   -2840.2913    18439.785 0.0060209726  0.044539548    1.8742816 
 7086000    441.40097   -7249.2898    9735.1415    2328.1946   -2157.5959    16251.956 0.0060195587  0.044548436    1.8746808 
 7088000    376.52742   -7248.8531     8859.684    1217.7233   -162.30634     16247.23 0.0060211972  0.044548647    1.8751096 
 7090000    408.21346    -7247.988    10596.556    431.13005    156.89233    18204.159 0.0060192555  0.044552263    1.8755272 
 7092000    377.82285   -7249.1726    8067.0364    576.03795   -734.38972     16474.26  0.006017495  0.044553592    1.8758608 
 7094000    384.70297   -7248.6254    9527.2934   -1109.9371   -734.52509    19062.845 0.0060163977  0.044570106    1.8762914 
 7096000    433.21202   -7248.9775    9927.4451    277.55974   -582.59102    18655.004 0.0060146347  0.044582137    1.8768508 
 7098000    378.79172   -7247.8707    9843.1005   -222.79259   -3762.2896    20258.122 0.0060129972  0.044601447    1.8772947 
 7100000    410.22587   -7249.3186    5446.4013   -1309.0338   -1492.0695    16397.573  0.006011371  0.044635144    1.8777072 
 7102000    377.75119   -7248.5709    8617.4692   -2000.6724   -3828.8734    17017.593 0.0060093617  0.044659492    1.8782727 
 7104000    405.45885   -7247.6634    6555.2456   -658.41305   -2268.8412    17160.408 0.0060076568  0.044667546    1.8787172 
 7106000    430.86509   -7249.3298     5838.926   -804.89249   -5619.3136    14383.286 0.0060077616  0.044667534    1.8790729 
 7108000    383.82458   -7248.8017    7635.2465   -511.56385   -4165.7645    18999.347 0.0060058762  0.044685779    1.8794641 
 7110000    422.11908   -7250.6634    5735.3367   -2235.2619   -2839.5611     18016.87 0.0060041346  0.044700577    1.8798821 
 7112000    411.54107   -7249.3787    6778.0625   -570.39451   -2699.3788    16553.626 0.0060026129  0.044690963    1.8802754 
 7114000    407.17215   -7248.5661    8006.9086    951.66631   -3215.0762    17515.569 0.0060013083  0.044692096    1.8805761 
 7116000    369.69053    -7249.555     6882.926   -1585.0061   -3309.5032    16883.957 0.0059995911  0.044709073    1.8809229 
 7118000    430.18973   -7247.4608    6615.3507   -1131.6658   -3636.5949    17194.923 0.0060002574  0.044712814    1.8812912 
 7120000    392.86442   -7248.7847    5114.9807   -1796.6884   -2683.2561    16930.896 0.0060009981   0.04472026    1.8816102 
 7122000    394.57112   -7249.9864    5997.2851   -1255.8427   -1509.7869    18935.391 0.0060016038  0.044723027     1.881955 
 7124000     418.0686    -7249.003     7874.175   -5.3355165   -1983.6968    14999.728  0.005999445  0.044720095    1.8822843 
 7126000    375.19581    -7249.608    4929.7765    1958.3734   -1611.3576    19547.235 0.0059970731  0.044720996    1.8826181 
 7128000    424.87555   -7249.0231    7075.1455   -937.42863    -1275.598    16547.419 0.0059957265  0.044723083    1.8830003 
 7130000    426.21922   -7248.5865    8695.0656    1558.0018   -1677.6769    18158.481 0.0059955616  0.044721769    1.8833631 
 7132000    410.15165   -7248.0305    7019.5389   -1375.5644   -3348.5168     17862.88  0.005993983  0.044720403    1.8837045 
 7134000    396.09756   -7249.0717    8170.5295   -1263.5128   -3392.0269    19131.181 0.0059928048   0.04472118    1.8840671 
 7136000    414.37741    -7249.436    6983.5611    818.48235   -3154.7054    17093.652 0.0059927399  0.044725901    1.8844926 
 7138000    407.12594   -7249.3417    5593.8313   -2720.7018   -3281.5023    12359.203 0.0059917103  0.044719755    1.8848027 
 7140000    406.14913   -7249.4039     6126.748    1180.3978   -2276.1505    16584.732 0.0059896689   0.04472149     1.885059 
 7142000     392.7462   -7250.0075    4092.0955   -1760.4043   -1228.3582     13257.42 0.0059883807  0.044725248    1.8853706 
 7144000    393.60246   -7248.7186    6600.0288    1352.3851   -3379.8882    17459.538 0.0059865257  0.044723953    1.8857183 
 7146000    366.90403   -7248.0976    6001.0341    920.60807   -3125.1934    15888.296  0.005985334  0.044727124    1.8860831 
 7148000    386.04892    -7247.261    7848.1868   -1157.5459   -5342.9503    18910.273 0.0059842659  0.044732961    1.8863399 
 7150000    419.22566   -7248.7268    5737.0295    2409.3855    -4632.613    19984.164 0.0059829772  0.044745829    1.8867273 
 7152000    401.15897   -7247.0148    5970.3613     937.6288   -3228.1018    17227.109 0.0059813004   0.04474939     1.887144 
 7154000    416.67737   -7248.7962    2803.3373    1040.2058   -577.96355    18569.508 0.0059815535  0.044747369     1.887608 
 7156000    391.69182   -7248.4747    4486.3662    1540.1589   -1667.0678    17205.978 0.0059794756   0.04474684    1.8879794 
 7158000    389.22911   -7247.9138    7508.8406     564.1833    961.00798    19162.094 0.0059779516  0.044743052    1.8883019 
 7160000    397.21797   -7248.7047    4748.8272   -1180.2901   -5346.5833    18919.254  0.005977575  0.044744804    1.8886542 
 7162000     424.7757    -7248.882    6665.3643    -900.8553    187.27577    17047.139 0.0059771626  0.044750219    1.8889563 
 7164000      422.302   -7249.3019    5645.6955   -118.80691   -1666.3651    17506.085 0.0059754251  0.044748771    1.8892903 
 7166000    373.25989   -7248.8388    5797.6734   -875.93649   -2846.5367     14683.06 0.0059755581  0.044746213    1.8896021 
 7168000    391.48949   -7247.6342    5513.6496   -80.553893   -2126.6459    16286.797 0.0059733945  0.044744788     1.889914 
 7170000     410.7557   -7249.2171    8557.2916   -1428.3065   -3586.4431    19080.238 0.0059722661  0.044759426    1.8902921 
 7172000    394.72957   -7249.5052    5708.9683    1398.7793   -4482.0259    14626.914 0.0059710245  0.044762135     1.890702 
 7174000    400.27382   -7249.3133    5979.7575   -2176.6621    -3955.621    17814.575  0.005970723  0.044767369    1.8910391 
 7176000    383.25756   -7248.2067    5098.0515    1257.5343   -3246.0967      16873.1 0.0059687663   0.04477932    1.8914284 
 7178000    393.79931   -7248.7751    7398.3963   -900.99814    -2953.256    16566.917 0.0059673729  0.044794345    1.8919657 
 7180000    398.60561   -7248.4672    8887.4037    2318.2058   -4350.0424    17654.702 0.0059656086  0.044809507    1.8923718 
 7182000     393.7224   -7249.2276    5161.4544    1387.1521   -1632.8291     17244.24 0.0059648727  0.044825537    1.8927867 
 7184000    370.38898   -7248.4412    6723.8467    1377.8963   -5941.0346    17036.066 0.0059633279  0.044842071    1.8932535 
 7186000    379.40012   -7247.4118    5488.3907    2464.0698   -2270.9869    17688.942 0.0059614085  0.044857777    1.8937493 
 7188000    410.77854   -7247.0752    5125.5687    89.392303   -3985.2981    16787.241 0.0059609899  0.044868462    1.8940935 
 7190000    388.94979   -7249.1774    3051.5923     2660.183   -4257.0238    20484.054  0.005959518  0.044896732     1.894462 
 7192000    420.60581   -7248.9963    4626.1562    377.36443   -3371.2303      19766.2 0.0059655453  0.044915073    1.8950174 
 7194000    406.55242   -7248.3032    4736.9563   -520.01896   -1824.8348    17423.524  0.005964387  0.044930146    1.8955274 
 7196000    422.78479   -7248.5929    7110.0395   -494.58343   -3848.0644    16039.317 0.0059629948  0.044948137     1.895886 
 7198000    387.61556   -7249.5273    4872.4458   -2259.8182   -651.66524    18096.031 0.0059619582  0.044950377    1.8962151 
 7200000    391.32404   -7248.4796    7270.9946    3011.0103   -6103.9024    16434.306 0.0059634764  0.044954068    1.8965865 
 7202000     382.0882   -7249.8444    7744.0333    1252.7334     -1396.21    16746.605 0.0059618629  0.044961966    1.8969728 
 7204000    403.02679   -7247.1548    6452.7074     1082.964   -4432.4348    16477.818 0.0059608715  0.044975114    1.8973803 
 7206000    396.87198    -7247.876    6727.6476   -187.51517   -6331.4025    15869.203 0.0059597579  0.045008228    1.8978171 
 7208000    407.63623   -7249.0524    6257.6571   -2174.8089   -940.36812    16423.886 0.0059578731  0.045029159    1.8982072 
 7210000    396.70351   -7249.5054    6886.7306   -444.32376   -4160.3291    17829.241 0.0059574275  0.045042066    1.8986636 
 7212000    392.52509   -7248.2256    6051.2583    289.35508    -3055.812    15938.745 0.0059546079  0.045061352    1.8991237 
 7214000    371.31048   -7250.5348    5881.5698   -460.85174   -3146.6385    20161.596 0.0059529045  0.045080523    1.8995864 
 7216000    403.37806   -7249.4392    5522.7693    1661.0548   -1778.1331    15206.541 0.0059516987  0.045100833    1.9000551 
 7218000     398.4738   -7249.5767    7090.9813   -385.43453   -3668.4128    19291.689 0.0059501049  0.045118221    1.9005226 
 7220000    402.29673    -7249.058    3827.8143    357.22017   -2780.6603     20597.12 0.0059497245  0.045130891    1.9009929 
 7222000    384.48078   -7248.2988    4700.6338    2227.1078   -3141.3969    20588.758 0.0059512746  0.045149635    1.9013837 
 7224000    371.24892    -7247.059    5689.6251   -2509.3117   -1710.0843    20671.203 0.0059503491  0.045151306    1.9017793 
 7226000    401.24187    -7248.398    3927.9951    761.84825   -3137.7668     17658.67 0.0059497327  0.045157809    1.9022202 
 7228000    398.19966   -7249.2209    5702.9525    540.75932   -1824.8572    16220.923 0.0059495669  0.045167646    1.9025454 
 7230000    411.61824    -7248.578    3437.5109   -1968.3498   -323.37686    18410.767 0.0059494391  0.045173601    1.9028851 
 7232000    431.52124   -7249.6559    6703.9885    398.85733   -2413.9156    18719.315 0.0059511926  0.045164394    1.9032704 
 7234000    379.98424   -7249.8022    5486.0654     760.5926   -1418.8153    18445.188 0.0059503614  0.045170219    1.9035922 
 7236000     416.2973   -7248.7184    5584.7452    2503.2386   -843.60306    20566.405 0.0059509239  0.045169045    1.9039335 
 7238000    383.64986   -7249.6154    8635.6814   -2012.2365   -1521.8799    18184.993    0.0059502  0.045168791    1.9043286 
 7240000    386.99072   -7248.3613    8011.0299    817.56354   -790.79907    18133.885 0.0059481022  0.045176001     1.904726 
 7242000    394.59404   -7249.0172    6226.4611     839.0086   -3018.3346    16507.766 0.0059467337  0.045171051    1.9051212 
 7244000    407.13402    -7248.933    11414.591   -1296.8519    -9.147393    15442.196 0.0059468115  0.045173741    1.9053716 
 7246000    385.48572   -7247.1226    4493.1634     507.3581    -2595.271    16665.206 0.0059468948  0.045172687     1.905676 
 7248000    399.50881   -7248.1614    9732.1979   -357.41145   -7.8096304    15391.261 0.0059461771  0.045172715    1.9059164 
 7250000     406.3427   -7248.9214    5928.7206    1214.5832   -2552.3819    19442.626 0.0059443161  0.045170482    1.9062652 
 7252000    406.04692   -7249.4492    9150.8056    -301.9638    978.64922    16477.095 0.0059425415   0.04517185     1.906637 
 7254000    381.86915   -7249.5121      7061.45   -305.15219   -1208.7976    19244.384 0.0059406136  0.045174543    1.9069358 
 7256000    401.04876   -7248.1655    3745.7669     757.8773   -1831.2821    18970.437 0.0059400011  0.045171158    1.9073125 
 7258000    388.78828   -7249.6244    6791.7693    2563.7582   -4075.4932    18675.669 0.0059393949  0.045173799    1.9077584 
 7260000    383.34444   -7248.5114    6861.9967   -1188.9458   -3564.7906    20139.385 0.0059429685  0.045179617    1.9082327 
 7262000    413.95499   -7249.6287    7922.1324     815.4604   -1980.4428    17145.289 0.0059439921  0.045189678     1.908675 
 7264000    417.92975   -7249.8621    4880.0874   -2051.4839   -284.46244    18609.392 0.0059424287  0.045194991    1.9089795 
 7266000    382.72948   -7247.7944    5558.2806    896.13338   -1627.4634    18739.792 0.0059410468  0.045195916    1.9093401 
 7268000    396.54435     -7248.57    7311.8566    10.478393   -1607.5383    17405.908 0.0059398689  0.045201544    1.9097217 
 7270000    398.73431    -7248.342    6325.9397    623.21637   -4110.4073    17107.319 0.0059392238  0.045227167    1.9102021 
 7272000    395.98432   -7247.2451    3949.7193    1442.7917    -2583.628    19351.265 0.0059400922  0.045255383    1.9106693 
 7274000    414.69805   -7248.4587    6044.2234    393.76486   -4547.5309    17612.355 0.0059383352  0.045260527    1.9111284 
 7276000    398.09707   -7248.9529    3279.3439   -1281.8741   -4884.7292    14437.928 0.0059367704  0.045278062    1.9115359 
 7278000    399.81162   -7249.9108    5285.4193    1980.3592   -2480.8653    19076.355 0.0059353469  0.045288351    1.9119845 
 7280000    422.03777   -7248.5676    3764.5192    1859.3539   -4283.6492    18855.149 0.0059363718  0.045306901    1.9125022 
 7282000    398.62118   -7249.8802    7463.9571    1320.1065   -6453.2504    16981.182 0.0059351085  0.045319188     1.912946 
 7284000    415.28242   -7250.7439    8176.5435    228.48479   -3072.4734     18916.98 0.0059337346  0.045335484    1.9132758 
 7286000    427.68783    -7248.995    6967.0922   -907.61522   -5150.1391    18474.547 0.0059326086  0.045352496    1.9136997 
 7288000    384.25493   -7248.9594    8339.5386    1473.5564   -2872.0138    17467.923 0.0059309475  0.045371862    1.9141275 
 7290000    400.70394   -7248.7215    8121.1111   -1837.4599   -3424.9876    17004.997  0.005929527  0.045387138    1.9144774 
 7292000    434.04159   -7247.7426    10897.766   -963.51155   -1714.4003    16291.562 0.0059294127  0.045392449    1.9148822 
 7294000    407.91843   -7249.4337    7956.0888   -133.98204   -1592.4561    15972.144 0.0059272858  0.045395934    1.9151724 
 7296000    401.62426   -7249.0631    7512.0581   -3415.4961   -2530.7833    15484.962 0.0059265109   0.04539216    1.9154586 
 7298000    364.85766    -7248.587    6141.9795   -119.92371   -2177.7923    17306.866 0.0059263039  0.045383934    1.9157268 
 7300000    409.29962   -7248.1829    7512.4073    896.89751   -2512.0636    14067.847 0.0059248097  0.045377667    1.9160557 
 7302000    389.80857   -7249.6745    6149.5112    1644.0787   -2698.5687    21896.155 0.0059238435  0.045377726    1.9163695 
 7304000    398.59192   -7248.3433    7139.8909    2291.9518   -2071.5407    18117.411 0.0059242246  0.045385778    1.9168087 
 7306000    393.08314   -7248.1804    5904.8396   -574.26949   -3218.6139    18808.228 0.0059231036  0.045385682    1.9171648 
 7308000    413.76829   -7248.7922     5231.004    1325.5356     -987.851    17119.557 0.0059221273  0.045392618    1.9174405 
 7310000    390.75955   -7248.0284    6045.2441    1427.4645   -1407.7793    16435.161 0.0059213896  0.045385202    1.9177693 
 7312000    408.88711   -7248.7396    6379.9723    2244.4573   -3966.7998    16756.307  0.005920219  0.045380087    1.9181049 
 7314000    385.76799   -7247.4744    4444.3262    90.948953   -4150.5669    15930.417  0.005919389  0.045398814    1.9183895 
 7316000      403.225   -7248.9606    5711.5323    68.891266   -3948.4441    16901.341 0.0059171687  0.045410828    1.9186601 
 7318000    427.84947     -7248.06    8188.7586   -3228.9537   -3169.7148    18807.572 0.0059153455  0.045414666     1.919114 
 7320000    418.80584   -7248.0182    7525.6049   -568.32378   -2619.3641    14925.972 0.0059142968  0.045433139    1.9194225 
 7322000    406.65889   -7248.8411    4206.5411    -3213.488   -1846.4052    17950.198 0.0059132891  0.045449263     1.919778 
 7324000    416.89279   -7249.4648    5179.9725    -1194.552   -3314.8938    14758.469 0.0059143813  0.045442083    1.9201355 
 7326000    388.11604   -7249.6841    7314.0277   -59.842969   -2937.5661    16666.551 0.0059137311  0.045439263    1.9204464 
 7328000      412.686   -7249.3977    5902.2433    1312.7228   -3031.8979    15931.072 0.0059120918   0.04543859    1.9208163 
 7330000    379.90774    -7248.794     6806.776    498.11353   -1259.9108    16661.651 0.0059108628  0.045430666    1.9211507 
 7332000    401.51898   -7249.1635    6551.4011   -848.26472   -3564.1594    16147.255 0.0059103063   0.04542836    1.9214509 
 7334000    372.23717   -7249.4732    7591.1296    1435.8092   -2467.6971    18294.191 0.0059092342  0.045422464    1.9217391 
 7336000    427.18047    -7249.053    8779.2777    1362.4631   -3795.4707    16462.815 0.0059077635  0.045421649    1.9222117 
 7338000    412.76943   -7247.5291    6203.2605   -1253.6259   -1076.0664    15885.662 0.0059067393  0.045428279    1.9225199 
 7340000    430.62291   -7246.7921     9160.267    241.55982   -1342.9083    19364.418 0.0059061219   0.04542498     1.922745 
 7342000     405.8294   -7247.3302    2756.7654    843.03133   -1234.0271    15232.139 0.0059046677  0.045422511    1.9230678 
 7344000    416.58258   -7250.3551    5136.8375    786.28958   -2045.4933    16778.961 0.0059031593  0.045441532    1.9234635 
 7346000    421.49473   -7247.7342    5982.6435    1197.9506   -1162.6525    19409.018 0.0059018957  0.045453598    1.9238246 
 7348000    407.92258   -7247.8555    6309.2551     1068.647   -2890.0088    16565.773 0.0059007046   0.04546445     1.924227 
 7350000    375.35149   -7248.9344    7795.8633    2269.8601   -2198.1281    18503.622 0.0059000033   0.04548349    1.9246913 
 7352000    408.41198   -7247.8318    7809.0065   -3263.4731   -2533.9809    13519.141 0.0058979742  0.045496726      1.92504 
 7354000    427.42465   -7248.2237    6170.4869    593.01964   -1163.5888     19945.53 0.0059003009  0.045497559    1.9253393 
 7356000    404.87123   -7247.1053    9650.6738   -3309.2457   -1925.1541    17304.017 0.0058976209  0.045493961    1.9258105 
 7358000    424.44059   -7250.1422    7090.5212   -1191.0379   -1395.1735    17051.393 0.0058957832   0.04549616    1.9261628 
 7360000     387.0951   -7249.0008    6594.0058    2648.6945     16.65198    14607.705 0.0058948222  0.045493646    1.9265065 
 7362000    379.59334   -7247.2188    6804.8956   -1428.5659   -1637.7005    14815.506 0.0058936271  0.045492095    1.9267795 
 7364000    403.56556   -7249.3532    4802.2236    259.55272    361.31759    15522.003 0.0058916761  0.045486162    1.9271199 
 7366000    413.82683   -7249.7646    5206.1832   -751.25519   -156.29477    15792.922 0.0058906619  0.045477223    1.9274422 
 7368000    408.48102    -7250.017    6574.9633   -131.60685   -1867.2912    17462.644 0.0058881672  0.045474977    1.9277859 
 7370000    404.03229   -7250.5765    6561.5812   -2371.1934   -1450.0388    17522.426 0.0058890542  0.045478986    1.9281946 
 7372000    387.41823   -7249.2352    7187.9725    948.21434   -1350.0965    17146.745 0.0058907632  0.045482491    1.9285677 
 7374000    406.95545   -7249.6721    5590.0699    61.888302    -4934.055    19477.987 0.0058931258  0.045483744    1.9288976 
 7376000    385.86098   -7251.0918    7071.0545   -1422.4517   -3276.0955    18842.539 0.0058932403  0.045493594    1.9293077 
 7378000     405.0841   -7247.5852    6592.5154   -3118.9035   -2408.8411    17247.053 0.0058928278  0.045496245    1.9295838 
 7380000    419.31702   -7248.8196    5311.0489   -820.65809   -2986.6232    17623.265 0.0058970037  0.045491542    1.9298746 
 7382000    421.62762   -7249.6531    6287.5919   -421.45338   -1211.1665    16379.102 0.0058975396  0.045486695    1.9302407 
 7384000    421.81763   -7248.5256    3764.9407   -1546.4933   -4834.2536    17957.723  0.005896727  0.045487752    1.9306333 
 7386000     430.0154   -7247.8124    6292.4471   -1578.8177     -1445.95      16117.9 0.0058951767  0.045487745    1.9309426 
 7388000    390.30125   -7249.6793    6787.3232    1798.4768   -4159.3518    17234.249 0.0058933627  0.045488198    1.9312563 
 7390000    382.70043   -7249.2937    7734.4976    275.29213   -1451.3655    17433.033 0.0058917798  0.045492251     1.931622 
 7392000    434.93958   -7248.9066    9846.3791    742.93942    -1089.184    18075.692 0.0058912822  0.045486306    1.9319608 
 7394000    436.97746   -7249.4907    8284.2563   -876.68523   -1056.3062    14772.401 0.0058896493  0.045478132    1.9322413 
 7396000    422.00081     -7248.17    8788.3179    3497.0162   -947.89076    16120.058 0.0058889281  0.045474947    1.9325365 
 7398000    397.30957   -7248.6379    6970.4031   -2315.6371   -1069.3592    17381.642 0.0058888073  0.045468952    1.9329334 
 7400000    412.45043   -7250.0023    8130.0861   -68.845335    -3644.928    16267.551 0.0058867954  0.045464657    1.9332416 
 7402000    395.07007   -7248.5401    7722.7163   -2337.7244   -2684.2048    17471.695 0.0058851182   0.04546949    1.9335657 
 7404000    413.65407   -7249.3136    6133.3216   -1003.2928   -1065.6178    14562.537 0.0058839599  0.045472274    1.9338695 
 7406000    379.20588   -7249.1889    4932.1322    1775.2999   -1966.0521    16911.149 0.0058829483   0.04547294    1.9341152 
 7408000    410.00234   -7249.1743    7277.7756    2905.9255   -5286.2123    15757.591 0.0058817907  0.045486609    1.9345084 
 7410000    379.58479   -7248.6449    6669.9511    990.06635   -3248.9643    18137.856  0.005881929  0.045505111     1.934792 
 7412000    392.51404   -7249.1402    7216.7911   -251.99502   -2822.1604    18254.928 0.0058798989  0.045512447    1.9351151 
 7414000    390.56115   -7250.6348     8391.158   -1974.2854   -2095.3657    14981.756 0.0058791195  0.045513153    1.9353947 
 7416000     410.6891   -7250.5012    5929.8052    366.88842    -2870.067     15517.43 0.0058777443  0.045523681    1.9356914 
 7418000    395.79399   -7248.2108    5689.8241    137.73792   -2300.4078     15023.43 0.0058776713  0.045538323    1.9360264 
 7420000    445.64679   -7249.2203    6439.1057    1203.2982   -2313.1166    19057.729 0.0058769809  0.045544457    1.9363388 
 7422000    391.43631   -7250.1428    2882.9146    1814.0242   -3049.1364    15691.017 0.0058767301  0.045553348    1.9367183 
 7424000    405.79259   -7248.9375    5456.9245    1971.7542   -3167.4379    18340.537 0.0058753016  0.045555094    1.9369965 
 7426000    418.81884   -7248.7096    2852.7455    3310.2609   -3660.0719      18327.6 0.0058736688  0.045578585    1.9373676 
 7428000    409.01124   -7250.3443    3915.8749    1275.1564   -2327.4224    16111.961 0.0058721187  0.045593335     1.937757 
 7430000     422.7261   -7247.0864    5965.5952   -909.22706   -3609.6111     16734.31 0.0058704157  0.045605852    1.9380881 
 7432000    397.79091   -7248.3887    5073.1055    92.818164   -3413.6627    18998.499 0.0058708422   0.04561475    1.9383435 
 7434000    420.33661   -7250.0788    4550.9468    153.07178   -2160.7678    19004.132 0.0058684254   0.04564147    1.9387847 
 7436000    402.31897   -7248.7016     3003.066     1206.186   -2662.6256     18049.12 0.0058672821  0.045646045    1.9391659 
 7438000    422.49228   -7248.6474    2306.2546   -402.91961   -625.41744    19851.607 0.0058665288  0.045661002    1.9394553 
 7440000    384.54588   -7248.0856    3477.8687    690.62475   -2002.2858    19292.315 0.0058646159  0.045664695    1.9397834 
 7442000    388.44053   -7248.8672    4474.4638   -759.74881   -2473.9691    19315.017 0.0058640961  0.045667172    1.9401619 
 7444000    378.97007   -7249.0835    6320.0602   -384.41198   -1223.2608    18343.614 0.0058644404  0.045675966    1.9405514 
 7446000    412.38123   -7249.5574    7387.7573    902.11785   -3958.3371    18191.026 0.0058619445  0.045698889    1.9408661 
 7448000    400.38767   -7249.2187    8191.1718   -2745.7672   -721.49371    16380.298   0.00586072  0.045708838    1.9411834 
 7450000    403.89604   -7248.9098    7712.5597    1645.4603   -5005.0544    16583.771 0.0058597009  0.045704102    1.9414248 
 7452000    378.80647   -7250.3687    7593.8793   -1136.7767    -3271.128    15114.259 0.0058583381  0.045717297    1.9417303 
 7454000    386.08076   -7249.5984    6670.4128    1451.3532   -146.69642    16563.546 0.0058567979  0.045715745    1.9420765 
 7456000    405.91148   -7249.9112     7444.763   -668.16512   -3699.3467    15871.088 0.0058552626  0.045714917    1.9423568 
 7458000    420.47407   -7249.6107    8464.0224     2199.182   -3073.9212    16372.281 0.0058534607   0.04571194    1.9426426 
 7460000    364.35005   -7247.9006    6975.2645    1065.0037   -3140.2468    17327.532 0.0058547394  0.045709399    1.9430114 
 7462000    402.92883   -7248.4072    5631.9028    105.28075   -2400.4892    15980.674 0.0058534001  0.045703019    1.9432813 
 7464000    409.17771   -7249.1843    7299.6894     1792.114   -3730.2917    16712.663 0.0058527161  0.045696598    1.9435955 
 7466000    402.82532   -7249.0378    5577.3097   -2154.7073   -2654.5414    16826.179 0.0058519977  0.045704787    1.9439429 
 7468000    370.44204   -7247.8258    2992.3641    -774.3679   -1820.6231    15384.206  0.005850196  0.045703058    1.9443025 
 7470000    395.02259   -7248.9892    5774.6852   -1688.3439    -1891.429    17530.796 0.0058504964  0.045699297     1.944523 
 7472000    425.92986   -7247.7272    3401.0116    3580.6444   -415.27729    16177.707 0.0058489894  0.045707207    1.9448027 
 7474000    415.67759   -7249.1007    3665.5936    22.445706   -1699.7386    17395.963 0.0058485104  0.045705882    1.9450996 
 7476000     397.7451   -7250.2601    5570.6753    232.94591   -1672.8701    18632.938 0.0058470527  0.045708842    1.9454147 
 7478000    395.15032   -7247.8524    7286.4003   -1294.8747   -3444.9359    17276.276 0.0058454863  0.045704393    1.9457143 
 7480000    421.18842   -7248.7392    8199.3378    998.18991   -2582.2341    17145.829 0.0058443598  0.045700151    1.9460496 
 7482000    408.74107   -7248.7168    7869.1775     15.33424    -672.8995    17053.448 0.0058433323  0.045696464    1.9464327 
 7484000    406.83239   -7250.3844    5782.9538   -2588.7635   -2754.4685    16379.543 0.0058419358  0.045698741    1.9468128 
 7486000    391.58828   -7249.0396    8600.4435    1775.5657   -1251.0749    13861.686 0.0058405056  0.045696761    1.9471055 
 7488000    426.66884   -7249.0237    5501.3022   -507.71646   -4596.7882    16532.997  0.005838286  0.045689817    1.9473634 
 7490000    390.33594   -7248.7063    7670.5562   -1236.4456    -2819.181     14990.22 0.0058373984  0.045688256    1.9475876 
 7492000    384.89929   -7249.2624    6285.0885    744.30012     -3369.09     15707.46 0.0058378486  0.045698343    1.9479347 
 7494000    401.97742    -7249.189    5612.3856   -1245.6116   -2145.3518    16263.133 0.0058362505   0.04569948    1.9482081 
 7496000    394.09541   -7250.5314    5624.3088    1377.1796    234.48426    18276.111 0.0058363752   0.04569945    1.9484534 
 7498000    382.98754   -7249.0653     7620.578   -737.18649   -2852.5222    16119.302 0.0058340662  0.045699912    1.9488186 
 7500000    409.62731   -7249.5533    6638.8137    2525.4794   -3581.1451    17765.939 0.0058327378  0.045708773    1.9491407 
 7502000    379.26149   -7247.6589    6838.3485    1653.8008   -3214.6418    16989.746 0.0058325968   0.04572886    1.9494927 
 7504000    381.70904   -7250.1057    3677.2689    1024.5242   -2856.7824    19804.744 0.0058312988   0.04574257     1.949926 
 7506000     421.4518   -7248.2839    7196.5572   -127.18296   -3083.5507    16333.674 0.0058301496  0.045749551     1.950359 
 7508000    393.67353   -7248.5106     5717.876    1451.6529   -1272.1922    17454.861 0.0058284537  0.045760885     1.950658 
 7510000    400.74005   -7247.6725    4725.1827    479.60991    885.00464    16118.878  0.005829402  0.045756109    1.9509846 
 7512000    421.04062   -7248.5465    7320.8793    2907.4152   -4827.1355    18245.225 0.0058272992  0.045760174    1.9512649 
 7514000    423.46797   -7249.0597    5783.2716   -1878.4195   -1603.5196     17758.86 0.0058264901  0.045776192     1.951553 
 7516000     397.2641   -7249.8032    6686.4702   -795.63011   -1472.0361    16168.201  0.005824935  0.045778318    1.9518862 
 7518000    413.96412   -7248.5501    6204.0998   -937.57507   -1948.5804    15901.275 0.0058245632  0.045775018    1.9521086 
 7520000    391.27038   -7245.6868    6994.6766   -2168.8092   -721.75472    15099.181 0.0058220277  0.045771663    1.9523814 
 7522000    419.41118   -7248.9805    8224.7783    872.17192   -2481.3402    16512.519 0.0058202573  0.045770154    1.9527952 
 7524000     413.9019   -7248.7706    7174.8847   -1871.1975   -425.26647    16531.142 0.0058191163  0.045772954    1.9530987 
 7526000     391.1654   -7248.2018    7041.0156     244.8715   -1708.8849    17187.941 0.0058175739  0.045773465    1.9534287 
 7528000    407.23935   -7247.9225    6984.6263   -997.63954   -1314.3478    16024.645 0.0058161675  0.045768657    1.9537046 
 7530000    391.18921    -7248.942    4620.2751    143.19766    260.99896    20202.758  0.005814553  0.045768236    1.9540134 
 7532000    383.97772   -7248.3143    7305.9087    1188.3043   -4355.5371    19358.071 0.0058128156  0.045774787     1.954375 
 7534000    427.55915   -7248.7224    7184.0451    334.03438    371.32108    19409.491 0.0058130973  0.045780281    1.9547293 
 7536000    376.62458   -7248.1531    7127.1327    933.53745   -2311.0437    18617.703 0.0058126705  0.045778593    1.9550615 
 7538000    407.07953   -7248.3289     6639.186   -84.787976    272.96347    17527.926 0.0058119443  0.045772857    1.9553884 
 7540000    396.87122   -7247.7737    7570.1703    45.919369   -2948.6414    17761.731 0.0058103546  0.045772635    1.9556959 
 7542000    413.80541   -7248.7126    8072.5067    615.15422   -3690.3973    14466.071 0.0058089582  0.045768619    1.9560706 
 7544000    412.24638   -7248.9955    8810.5355    563.89962   -2189.9873    17998.917 0.0058088784  0.045762749     1.956417 
 7546000    401.76531   -7249.6048    8110.5653    24.829855   -2887.7002    16202.905 0.0058083374    0.0457582    1.9567698 
 7548000    419.36434   -7249.8757    6389.4013   -227.44472   -3762.7092     19080.19 0.0058063579  0.045765659    1.9570447 
 7550000    402.27851   -7248.8087    7310.7361    1400.4823   -680.32141    16786.867  0.005804758  0.045766048    1.9573545 
 7552000    384.23575   -7248.4348    5776.7243    204.30764   -2371.4616    18337.617 0.0058050718  0.045765087    1.9577188 
 7554000    399.55428   -7248.6458    6281.3265   -1884.8414   -2135.8221    17395.895 0.0058035199  0.045764059    1.9580552 
 7556000    387.84018   -7249.1949    3444.8331    385.60851   -1340.9122    17662.798 0.0058023273  0.045765524    1.9582866 
 7558000    413.66116   -7248.8496    6799.6719   -2441.4051   -150.57414    18396.513 0.0058004034  0.045757988    1.9585188 
 7560000    415.66112   -7249.3457    4124.2523    715.49655     545.7128    20777.414 0.0057990757  0.045748024    1.9588198 
 7562000    398.16435   -7248.1251    6359.9369    517.62786   -1171.3867     16536.51 0.0058031765   0.04574617    1.9591549 
 7564000     384.1001   -7249.8557    3381.9972    3483.5898    366.88032    19533.966 0.0058067718  0.045746547    1.9595658 
 7566000    403.73236   -7248.0222    5606.9908   -1509.1004   -567.06266    13614.021 0.0058061436  0.045737071    1.9599562 
 7568000    396.03261   -7248.5415    7443.2019    358.53848     572.9995    14320.098 0.0058049999   0.04572755    1.9601489 
 7570000    413.49932   -7249.2247    4260.0064    1434.9466   -3002.2429     19119.78 0.0058034518  0.045732803    1.9603443 
 7572000    382.04941   -7248.9689    7007.1632    876.23111   -2024.1615     18848.03  0.005801976  0.045734831    1.9607331 
 7574000    392.59936   -7246.6847    7290.5161   -131.85957   -3212.4762    17869.379 0.0058005529  0.045737155    1.9610705 
 7576000    418.06048   -7248.9435    9996.2605    -2127.333   -1569.5157    15843.895 0.0058010913  0.045740908    1.9614084 
 7578000    396.13757   -7249.3095    9108.1319   -1040.2785   -1824.4921    17203.428 0.0057996985  0.045743862    1.9616112 
 7580000    423.92938   -7249.3615    10168.969   -1719.1358   -3338.4462    17180.141 0.0057984366  0.045752662     1.961926 
 7582000    411.80164   -7248.4086    9813.1767    -93.14555   -1752.5891    18294.848 0.0057963375  0.045757644    1.9622994 
 7584000    394.33798   -7250.8493    8525.7069    -3172.185   -3382.3027    15710.779 0.0057949569  0.045774757    1.9627279 
 7586000    400.02455   -7250.0894     7732.376   -644.78323   -2879.5388     15259.71  0.005794213  0.045794586    1.9630295 
 7588000    413.26575   -7248.1619    9647.8618   -1184.4507   -871.92555    17818.673 0.0057927399  0.045793803    1.9633815 
 7590000     416.5182   -7249.4775    7168.2472    435.05661   -5670.4739    17908.849 0.0057916126  0.045800459    1.9638048 
 7592000    410.60703   -7247.7555     6292.554   -457.23837    -2263.472    16503.842 0.0057906394  0.045817932    1.9642168 
 7594000    401.52764   -7248.0682    7494.4444   -587.92587   -1055.1221    17711.469 0.0057904465  0.045837013    1.9646115 
 7596000    402.65431   -7248.4098    7593.1026   -2238.3728   -4188.3469    19013.798 0.0057882179  0.045848474    1.9649468 
 7598000    402.82735   -7249.4656    5866.4073    132.25272   -1434.0125    20780.398 0.0057883007  0.045852936    1.9652892 
 7600000     383.8638   -7248.8623    8521.4239   -794.87123   -2959.7853    18318.433 0.0057870726  0.045867935    1.9656732 
 7602000    410.49395   -7249.8271    5190.3319    1206.3564   -5081.2007    20758.743 0.0057856393  0.045891016    1.9660298 
 7604000    407.01721   -7248.4962     8923.915   -401.01973   -2222.6376    18610.739 0.0057850901  0.045902216    1.9665382 
 7606000    382.34276   -7250.0646    5860.5621       2426.7   -5710.5265    19183.583 0.0057829416  0.045909884    1.9669107 
 7608000    381.14656   -7248.7263    7489.9765    1604.0447   -4079.8152     16849.48 0.0057813893  0.045925594    1.9672646 
 7610000    428.44896   -7248.6768    6292.8563   -537.40828   -3458.3191    16987.233 0.0057810254   0.04593339    1.9676049 
 7612000    422.17657   -7251.5403    7075.4088   -427.24214   -4469.0157    17999.114  0.005780419  0.045948078    1.9679747 
 7614000    422.28948   -7249.0333    3968.7344   -884.09821   -1630.3548    18127.259 0.0057782102  0.045949443    1.9683234 
 7616000    417.91513   -7249.1166    3895.9527   -337.47695     865.5281    16116.363  0.005779042  0.045961642    1.9686544 
 7618000    404.94561   -7248.0285    5152.0339    428.85289   -3123.6877    18801.765  0.005777587  0.045968591    1.9689991 
 7620000    398.60516   -7250.2874    5614.3106   -251.46152   -2188.8344     20151.22 0.0057785762  0.045980057    1.9694425 
 7622000    401.53843   -7248.9515    4712.7465    2305.5676   -1142.9007    19573.089 0.0057799829  0.045998417    1.9698785 
 7624000    387.68145   -7248.2917    6157.0806   -671.62392   -1970.5852    17204.727 0.0057795818  0.046002698    1.9702589 
 7626000     424.3856   -7249.0209     4765.101    -286.1975   -1470.7259    20342.574 0.0057781497  0.046003065    1.9705503 
 7628000     386.1881   -7249.2139    6019.2399    1757.7681   -4078.4367    18141.421 0.0057776623  0.046016619      1.97092 
 7630000    414.08316   -7247.4189    6071.7708    1757.8983   -3454.8372    20854.948 0.0057764172  0.046046979    1.9713457 
 7632000    409.71148   -7248.8226    4027.3105    2021.3411   -2795.2294     19251.49 0.0057743875  0.046076754    1.9719259 
 7634000    417.50484   -7249.7193    6845.7617    1025.0375   -4001.2957    18664.248 0.0057733766  0.046097202    1.9723962 
 7636000    425.37487     -7248.71    5061.2245    4187.2128   -2590.0741    19157.035 0.0057737738  0.046105663     1.972789 
 7638000    394.01605   -7250.2304    6201.7822    1556.6283   -3197.9427    19451.974 0.0057730977  0.046117866    1.9730819 
 7640000    393.69118   -7247.3432    9280.5253     474.9489   -4407.1726    19083.487 0.0057715863  0.046126471    1.9734955 
 7642000    397.05269   -7249.6313    7948.5906    739.00397   -4601.4716    15936.607 0.0057700033  0.046135713    1.9738211 
 7644000    391.41621   -7249.5202    7600.0835    273.35878   -683.43676    14854.695 0.0057704642  0.046138435     1.974004 
 7646000    398.82011   -7249.3698    8146.9824    -1983.462   -5103.1818    17189.168 0.0057684514  0.046137767    1.9742119 
 7648000    430.33706   -7248.9302    7928.5356   -63.065561   -2776.1827     17402.82 0.0057665077  0.046135958    1.9745326 
 7650000    435.21823   -7249.0747    7842.4092   -768.12223   -3184.1998    15946.887 0.0057664871  0.046146264    1.9748236 
 7652000    408.37972   -7249.3436    5752.6729    -1140.458   -530.39432    16682.109 0.0057640772  0.046150452    1.9751505 
 7654000     390.1044   -7249.5843    7197.4802   -188.79965    1519.3857    18080.264 0.0057627328  0.046141717    1.9754478 
 7656000     368.2746   -7247.6975    8865.1939    1109.3067   -2866.0414    17269.004 0.0057617031  0.046139134    1.9758163 
 7658000    378.86035    -7249.387    3891.7615    1886.2699    -880.4736    17015.142 0.0057618017  0.046138837    1.9760815 
 7660000    391.68169    -7248.499    6977.0774   -1303.3128   -3989.1531    16596.854 0.0057615348  0.046132887    1.9763821 
 7662000    382.27462   -7248.0216    5673.2603   -2140.5122   -2158.7347    16751.612 0.0057609282  0.046128065    1.9766484 
 7664000    366.88611   -7247.7622    3831.1305    2913.7125   -3885.6829    18022.256 0.0057612413  0.046126352    1.9769834 
 7666000    381.46331   -7248.9841     5927.117     557.8444   -2547.3806    15951.894 0.0057604534  0.046131179    1.9773763 
 7668000    391.91919   -7247.3592    7305.7143   -1533.9442   -2791.0508     16112.73 0.0057601125  0.046127205    1.9776544 
 7670000    395.85075   -7249.4883    6003.0913     -1534.49     525.3648    17678.022 0.0057595663  0.046122942    1.9779481 
 7672000    407.81443   -7247.7194    5629.5981   -2346.1792   -3724.2729    17373.479 0.0057578395  0.046129537    1.9783161 
 7674000    409.09481   -7249.5465    7268.1717    2163.7173   -574.41506    18074.267 0.0057567032  0.046141395    1.9786868 
 7676000    382.16509   -7248.7093    5157.4206   -2795.0203   -1615.5843    16735.607 0.0057553663  0.046151055    1.9791229 
 7678000    428.43838   -7248.8628    5805.3327    2765.0754   -6370.6767    15054.117  0.005754202  0.046160634    1.9795567 
 7680000    399.00556   -7250.2665    5569.5077    1088.7296   -2971.4617    18641.843 0.0057532761  0.046192946    1.9800366 
 7682000    404.33509   -7247.4852    8670.7587     142.8577   -5551.0364    19005.635 0.0057519524  0.046230546    1.9805111 
 7684000    401.99282   -7249.1013      8839.95    653.33686   -2744.3769    18140.607 0.0057503732  0.046247886     1.980981 
 7686000    417.79824   -7249.0092    5080.6539    519.05769   -4729.6558    17837.378 0.0057491828  0.046254506    1.9813387 
 7688000    405.95154   -7249.7794    6780.2409    3034.1681   -3249.9301    17710.884 0.0057478178  0.046274836    1.9816258 
 7690000    397.76105   -7248.9776    8483.9521   -880.34131   -2622.5061    19762.913 0.0057511498   0.04627998     1.982067 
 7692000    396.04203    -7247.965     6276.894    991.72259   -1912.4006    15244.645 0.0057497566  0.046285105    1.9823656 
 7694000    383.28729   -7247.6755    3893.0166   -5029.9639   -882.95271    15290.504 0.0057508158  0.046282445    1.9826271 
 7696000    408.85392   -7250.4829    6635.1934   -641.82072    295.48179    17863.471 0.0057532725  0.046278219    1.9828618 
 7698000    416.39621   -7250.6233    4901.0817    1074.2963   -2329.6328    16881.593 0.0057515507  0.046282485    1.9831553 
 7700000    382.87182   -7248.1623    2656.2504   -1608.7842   -1507.1855    18993.465 0.0057501956  0.046286354     1.983515 
 7702000    410.73899   -7247.3821    5952.1363    623.61965   -512.06019    15124.342 0.0057508365  0.046282104    1.9838158 
 7704000     402.0752   -7249.8835    5662.9591    237.01238   -2723.4562    18627.671 0.0057489081  0.046281766     1.984028 
 7706000    409.93603   -7250.1613    8934.1202    1853.7688   -3054.8777    15768.543 0.0057475738  0.046279029    1.9843863 
 7708000    421.37822   -7249.5731    5550.2666    1665.7473   -2619.3055    17570.476 0.0057461563  0.046286048    1.9846945 
 7710000     402.6193   -7250.2932     7159.431   -1419.6177   -677.31004    15586.289 0.0057445232  0.046283597    1.9850141 
 7712000    399.26245   -7248.1545    4068.8018   -20.875372    -3636.353    16163.783 0.0057441658   0.04628056     1.985325 
 7714000    392.40982   -7249.8906    5938.2801    129.74308   -2136.7002    19483.957 0.0057426558  0.046293481     1.985684 
 7716000    372.53565   -7249.2702    5463.1951    410.20178   -1972.5055    17962.638 0.0057412221    0.0463089    1.9861137 
 7718000    412.14274    -7249.339    5628.7118    761.87623   -209.62283    16807.202 0.0057394752  0.046308531    1.9865104 
 7720000    415.20017   -7249.1849    7589.7682   -432.19549   -2428.8236    18702.723 0.0057393768  0.046304987    1.9867422 
 7722000     410.2502    -7248.782    6802.1095   -49.464503   -1590.5627    18750.067 0.0057378486  0.046301195    1.9869918 
 7724000    426.50785   -7247.4586    5448.8652    60.977613   -545.04271    20943.439 0.0057365991  0.046299787    1.9873323 
 7726000     393.1198   -7249.7954    5115.3033    -832.7078   -2914.1147    18243.314 0.0057385564  0.046304588    1.9876264 
 7728000    383.51994   -7249.7133    5199.4917    1197.6004   -3036.6179    18924.165 0.0057357081  0.046315356    1.9879019 
 7730000    400.41151   -7249.0314    9012.4786    204.98983   -1982.1985    18912.082 0.0057352729    0.0463363    1.9882403 
 7732000     410.8926   -7249.3375    4258.7505    1214.7754   -3567.6092    19925.659 0.0057358406  0.046362335    1.9887505 
 7734000    379.84492    -7249.119    7011.3914   -2244.4386   -1752.5974    17861.613 0.0057348493   0.04639316    1.9891181 
 7736000    382.42672   -7248.0072    7516.0576   -2277.7617   -2066.1333    18950.004 0.0057344471  0.046401537    1.9894479 
 7738000    418.23921   -7247.9983    6235.7152   -365.10315   -920.59808    16875.772 0.0057336576  0.046403151     1.989782 
 7740000    383.25754   -7248.7171    7657.1803    119.94662   -1520.9758    20481.504 0.0057322966  0.046410946    1.9902212 
 7742000    387.15582   -7249.6756    5250.9273    1225.4692   -2932.6541    16940.376 0.0057340722  0.046416491    1.9907037 
 7744000    392.68647   -7247.9076     7243.024   -2377.7062   -1976.0026    14909.684 0.0057328181    0.0464363    1.9910569 
 7746000    394.08126   -7250.4009    5988.0904   -239.62623   -2475.1288    17336.158 0.0057325535  0.046441084    1.9913477 
 7748000    407.04706   -7248.9958    5248.0432    2705.1298   -4154.1353    18905.263 0.0057308818  0.046458321    1.9917794 
 7750000     431.2645   -7248.6575    5587.1013   -588.53503    -2290.602    18752.673  0.005735015   0.04649063     1.992194 
 7752000    382.35397   -7250.1892    5925.5995    664.89337   -3918.8822    17956.192 0.0057322614  0.046506281     1.992577 
 7754000    381.61067    -7248.105     4687.371    -2355.746   -742.70095    17198.297 0.0057316671  0.046519311     1.992821 
 7756000    410.98215   -7248.6004    5088.7065   -125.44417   -3164.1586      16339.3 0.0057303382  0.046513402    1.9930691 
 7758000    417.91876   -7249.4645     6486.316    1242.2655   -1628.8476    16542.058 0.0057302144  0.046515536    1.9933769 
 7760000    415.58888   -7248.5368    4607.1213    2397.5601   -3606.6648    19340.501 0.0057306595   0.04650894    1.9936857 
 7762000    379.17714   -7248.7303    6189.2528     1487.256   -2745.1836    18959.383 0.0057304455  0.046506258    1.9940823 
 7764000    427.36194   -7248.4509     7791.722   -511.18265   -4183.7081    18908.679 0.0057292486  0.046514376     1.994453 
 7766000    378.51594   -7250.6371    5191.1295   -1288.0569   -2207.0031    17079.845 0.0057281406  0.046522113    1.9948043 
 7768000    413.31777    -7249.592    7453.0331   -227.59291   -3203.7986    17190.212 0.0057256917  0.046518805    1.9951167 
 7770000    383.41603   -7249.2715    4760.7504    787.70935   -3350.3745    19314.985 0.0057253693  0.046514078    1.9953474 
 7772000    398.09542   -7248.9056    7533.2634   -1801.3502   -3621.2307    15835.867 0.0057227156  0.046514142    1.9956416 
 7774000    396.55669   -7249.2571    7016.5466   -485.41895   -2814.2053     17132.19 0.0057286089    0.0465155    1.9958857 
 7776000    395.95777   -7250.2005     5267.064   -146.60841   -1570.1909    16076.453 0.0057277872  0.046521544    1.9961412 
 7778000    383.51602    -7248.909    5190.7459    1041.0018   -3698.8406      16536.8 0.0057265462  0.046524355     1.996439 
 7780000    405.33207   -7247.6943    5979.8168     785.2338   -2603.2634    17879.476 0.0057252513  0.046526201    1.9967621 
 7782000    399.36212   -7248.3074    6079.6811   -134.17831    -4201.173    14667.159 0.0057238608  0.046517676    1.9970131 
 7784000    400.06019   -7248.1246    4751.9912     2144.496   -1296.7774     18269.35 0.0057232806  0.046510538    1.9973936 
 7786000    406.51847    -7250.397    6085.6554    487.05957   -4300.7789    16628.489 0.0057238126  0.046513044    1.9977947 
 7788000    397.12513   -7249.0464    7065.6615    39.443333   -1817.1668    19137.227 0.0057224759   0.04652412    1.9981198 
 7790000    382.09711   -7249.3178    6318.8293    329.59387   -2374.0987    19147.102  0.005720875  0.046520811    1.9985217 
 7792000    383.22525   -7248.9101    8175.5757    380.91407   -1633.0263     19708.59 0.0057195284  0.046519268    1.9988314 
 7794000    421.53094   -7247.8021    7732.9358   -158.93589   -1415.1776    20785.739 0.0057184033  0.046529466    1.9991454 
 7796000    409.02866   -7247.4481    9961.9294   -1099.4759   -2457.9137    16380.074 0.0057169441  0.046542531    1.9995022 
 7798000    416.58744   -7248.4184    8376.8916   -633.35552   -1606.6639    19848.315 0.0057165816  0.046556234    1.9997757 
 7800000    413.99075   -7248.6827    5584.4221    998.26978   -1552.6322    18343.974 0.0057148819  0.046563893    2.0001645 
 7802000    374.65884   -7248.4351    6684.4511    639.64192   -627.15189    15141.253 0.0057137723  0.046571734     2.000465 
 7804000     364.0391   -7250.0558    6457.3909     1956.144   -5129.2945    19287.312 0.0057127597  0.046596966    2.0007634 
 7806000    411.29682     -7249.12    6622.6032   -2392.8102   -1766.5445    16561.011 0.0057115604  0.046596843    2.0010541 
 7808000    400.52645   -7247.9698    5861.6586    830.24375   -3568.4669    19053.411 0.0057101237  0.046594011    2.0013889 
 7810000    428.20258    -7249.114     6301.441   -531.62698   -898.12223    16976.914 0.0057099924  0.046593107    2.0017686 
 7812000    417.26587   -7248.0066    5974.5989   -612.92773   -2181.9434    16657.597 0.0057084449  0.046581192    2.0019894 
 7814000    386.66147   -7250.6416    4893.1615   -363.60463   -2363.5469    15947.053 0.0057073675  0.046574607    2.0022538 
 7816000    401.32607   -7250.0114     4206.022   -627.05864   -2367.3299    17431.033 0.0057074554  0.046563564    2.0024754 
 7818000    412.88392   -7249.9991    7337.9958   -102.61116   -4206.1874    14489.821 0.0057060924  0.046569814    2.0027806 
 7820000    390.54485   -7247.6583    6745.9814   -75.986919   -2922.9161     15999.23 0.0057054208  0.046581258    2.0030275 
 7822000    390.74578   -7249.2591    5105.8303   -357.64555   -4360.0276    17551.937 0.0057057972  0.046595377    2.0034345 
 7824000    409.22825   -7249.1935    7096.2393   -1507.7893    -2343.334    17853.595 0.0057053056   0.04662266    2.0038091 
 7826000     394.6064   -7248.6925    5953.1554    1307.5117     -5419.72    19015.645 0.0057056084  0.046644049    2.0041823 
 7828000     424.5877    -7248.605     5656.114    94.405915   -3175.6497     17990.78 0.0057042016   0.04667812      2.00467 
 7830000    382.72791   -7248.8314    5857.6301    1755.7624   -1963.5839    20053.679 0.0057028306  0.046690991    2.0050702 
 7832000    411.24516   -7248.4017    3113.1118    2453.2329   -2357.4399    19822.907 0.0057014088  0.046695655    2.0055276 
 7834000    370.76057   -7248.0633     4211.163   -1184.1186   -3947.3458    19101.856 0.0057010224  0.046704068    2.0059062 
 7836000    398.72867   -7248.2983    5876.4374    2516.6043   -3050.0753     18434.47 0.0056995919  0.046715998    2.0062777 
 7838000     409.4651   -7249.2461    5336.8588   -177.91366   -2751.7018    17054.135  0.005698446  0.046736868    2.0067038 
 7840000    394.12988   -7248.1353     4579.108    2573.7007   -3206.7925    19601.541 0.0056972276  0.046742581     2.007091 
 7842000    386.64342   -7249.4559    3539.9749   -121.55981   -4007.1547     15592.97 0.0056964674  0.046758816    2.0075119 
 7844000    393.69381   -7249.7447    6330.6166   -11.359912    1285.9081    18893.228 0.0056955757  0.046774283    2.0078483 
 7846000    391.73454   -7248.6215    6539.7256   -670.68405   -2747.1672    16345.187 0.0056941362  0.046780683    2.0082317 
 7848000    379.47673    -7249.414    1511.4984    -1641.747   -2219.6719    16805.925 0.0056920921  0.046789852    2.0084691 
 7850000    388.59795   -7246.8233    6109.1474    2220.6735   -1397.7472    17591.462 0.0056906649  0.046799917    2.0087654 
 7852000    410.93811   -7249.1905    4943.4106    830.55372    -2954.247    13667.159 0.0056891654  0.046806743    2.0091909 
 7854000    400.50694   -7247.2225     6307.298    2123.4687   -1721.5791    15218.798 0.0056880301  0.046812699     2.009545 
 7856000    380.99511   -7248.6902    5525.2679    2152.1581    -3217.511    16481.655 0.0056879714  0.046828933    2.0098404 
 7858000    360.28303   -7248.9577    7047.3414    1948.4731    -2091.133    19162.568 0.0056855165  0.046832207    2.0101767 
 7860000    412.69085   -7248.3468    5712.0832    2040.0162   -1511.6974    18128.601 0.0056845504  0.046838441     2.010527 
 7862000    383.56409   -7249.4932     4738.107    886.45451   -2210.8318    15775.158 0.0056831144  0.046841747    2.0108738 
 7864000    415.12408   -7248.1821    4920.0641    2092.6057   -397.27303    16599.344 0.0056819431  0.046835686    2.0111072 
 7866000    412.91557   -7248.1513    6649.1227    270.08801   -2359.6324    17579.612 0.0056802397  0.046829883    2.0113612 
 7868000    384.21795   -7248.3443    4974.7871     2924.797     -1201.89    16971.254 0.0056799771  0.046822566    2.0116197 
 7870000      418.026   -7248.3847     5593.851   -446.82795   -4874.0997    15978.698 0.0056787042  0.046822913    2.0119329 
 7872000    401.79011   -7249.1957    7887.3875   -639.82555   -2205.7507    18686.513 0.0056780001  0.046829416    2.0122518 
 7874000    450.65709   -7249.4921    5251.7173   -3947.3034   -2854.0493    16640.534  0.005677566  0.046830678    2.0125465 
 7876000    415.84132   -7249.2772    7914.9333      -558.63   -3701.4808    13595.346  0.005676564  0.046827129    2.0127777 
 7878000    400.40606   -7248.4521      5680.53    1660.0253   -3152.2501    18935.925 0.0056753699  0.046830412    2.0130662 
 7880000    378.62918   -7248.1079    8762.4587   -3037.1698   -3544.9583    16717.935 0.0056744444  0.046834496    2.0134342 
 7882000    400.50409   -7249.9629    6417.5185    145.61939   -3734.6839    15117.731 0.0056774987  0.046844929    2.0136562 
 7884000     384.0078   -7248.9489    8017.5876   -551.42762   -1446.6755    17067.682 0.0056780654  0.046856014    2.0138474 
 7886000    406.70318   -7250.0149    7859.6816   -812.27772   -1570.0179    17300.274 0.0056768553  0.046856075    2.0141732 
 7888000    401.60155   -7249.8533    6193.9888   -1813.5393    -1351.883    18401.464 0.0056755243  0.046859589    2.0145087 
 7890000    425.25889   -7249.5415     8913.102    1345.6591   -3495.7131    16338.757 0.0056744514  0.046881265    2.0148324 
 7892000    414.49085   -7249.2546    7364.9713    380.96264   -1411.3966    16446.185 0.0056728567  0.046899589    2.0151252 
 7894000    396.15265   -7248.1069    6581.6739   -1452.4481    -2899.411    18300.927 0.0056714786  0.046906447    2.0154995 
 7896000    381.45717   -7248.1651    6450.4406    40.649037   -124.34264    21357.977 0.0056704629  0.046907218    2.0158501 
 7898000     375.3191   -7247.2114    7128.7789     1205.292   -1034.1047    14459.713 0.0056692918  0.046909217     2.016234 
 7900000    387.04479   -7249.3786    5598.8093    2581.3121   -3310.5909    19522.606 0.0056680711  0.046908916    2.0164957 
 7902000     412.8712   -7249.1562    6961.9433   -989.64054   -4893.8685    17582.348  0.005667477   0.04691154    2.0168316 
 7904000    406.31414   -7248.4304    5104.5512   -12.899083   -4989.3373    19402.297 0.0056658753  0.046924395    2.0172247 
 7906000    426.93285   -7249.1365    4355.7924   -97.803824   -5188.8395    16572.045 0.0056645347  0.046951148    2.0176401 
 7908000    410.39324   -7248.4646    7275.5903   -1181.7048   -2540.2899    17432.509 0.0056630406  0.046973251    2.0179893 
 7910000    393.70745   -7248.9479    2992.7022   -978.87084   -4597.2644    18464.905 0.0056626106   0.04698887    2.0183684 
 7912000    384.39647   -7247.3531    4987.3624    474.78086   -2659.4432    14268.272 0.0056614126  0.047009343    2.0187681 
 7914000     394.0393    -7249.218    4690.4485    1804.2201   -1990.5167    17669.046 0.0056622645  0.047019507    2.0190736 
 7916000    366.81667   -7247.8339     8354.655    4616.9057   -2614.2941    14783.086 0.0056608429  0.047021196    2.0193315 
 7918000    420.42107   -7249.7245    5829.4655    1335.8751   -1754.5928    15854.924 0.0056587566  0.047022246    2.0196571 
 7920000    394.62562   -7249.0855    8642.4064   -765.88129    -2020.656    18195.089 0.0056569168  0.047027488    2.0199772 
 7922000    386.67419   -7248.5062    7373.0339   -256.70461   -2151.7348    16324.862 0.0056563286  0.047027301    2.0202499 
 7924000    412.48114   -7249.0402    8829.1705     2701.888    487.52233    19394.511 0.0056551477  0.047026435    2.0205143 
 7926000    381.88746   -7248.4229    7025.9268   -1872.8164   -2247.4236    17558.174 0.0056537787  0.047021703    2.0207917 
 7928000    402.69959   -7250.6559    8842.2225   -666.46687    16.019984    15724.146    0.0056519  0.047036247    2.0210843 
 7930000    405.49425   -7248.0649    8055.6502   -615.00621   -1144.2774    20350.432 0.0056506586  0.047035756    2.0213317 
 7932000    401.82736   -7248.7066    7918.9202   -391.00578   -265.14218    18984.296 0.0056490604  0.047030961     2.021609 
 7934000    410.10563   -7247.9562    10351.118   -206.98617    -2131.925    18001.835  0.005649845  0.047033669    2.0219517 
 7936000    391.02661   -7248.6387    8201.8454   -2303.6097   -2538.7148    18185.602 0.0056482356  0.047035196    2.0222557 
 7938000    384.44466   -7248.1229    7610.3135   -1112.4389   -63.992224    16453.658 0.0056482123  0.047033631     2.022565 
 7940000    398.78231   -7248.4553    5490.9955   -949.02236   -4733.5592     16679.23 0.0056476122  0.047042062    2.0228389 
 7942000    406.78013   -7251.1323    5807.1344    -2516.597   -1050.1867    18129.989 0.0056491601  0.047056875    2.0231422 
 7944000    387.12233   -7249.1347    7051.3517   -1487.1178   -2075.5614     17757.85 0.0056482654  0.047058567    2.0234401 
 7946000    409.98782    -7248.921    3883.4099   -343.11157    -1528.285    16629.698 0.0056488224  0.047056122    2.0237219 
 7948000    427.86995   -7247.8229    8796.6145    222.22141   -715.46128    15910.001 0.0056473207  0.047049119    2.0239571 
 7950000    400.53483   -7248.8243     5184.766    1561.0677   -2437.4487    14394.941 0.0056464697  0.047044838    2.0242054 
 7952000    404.54429   -7248.6443    8020.7386    580.37468   -2520.3899    19135.149 0.0056455502  0.047045507    2.0244301 
 7954000    402.39818   -7248.3434    3845.8075    2774.2301   -1601.9716    20971.162 0.0056444535  0.047052087    2.0247718 
 7956000    392.05391   -7248.0091    8033.2141    1128.0888   -1700.8908    18462.103 0.0056430494  0.047047567    2.0250627 
 7958000    401.43973   -7251.3795    6266.5128   -1645.3319   -2960.7039    17675.485 0.0056417393  0.047043122    2.0253256 
 7960000    369.74498   -7248.3715    6192.9728    1164.2622   -3807.4579    15484.664 0.0056425638  0.047039707    2.0255697 
 7962000    363.66291   -7249.8704    7087.6602   -1717.9775   -704.42166    16713.742 0.0056426795  0.047039433    2.0257565 
 7964000    404.00824   -7248.1666    5421.4376   -502.26636   -1648.6805    17190.343 0.0056409663  0.047043506    2.0260813 
 7966000     397.1459    -7248.198    6515.1011    -673.9929   -699.58989    20445.385 0.0056417694    0.0470592    2.0265146 
 7968000    385.25946   -7247.8565    5806.6291   -743.17895   -3764.3768     16018.68 0.0056411902  0.047074766    2.0268679 
 7970000    437.49286   -7250.0787      7346.46   -1608.6158   -3166.2254    16663.969  0.005640194  0.047092371    2.0272061 
 7972000    410.77395    -7248.236    7025.9058   -1799.4047    -1796.854    17874.239 0.0056393237  0.047101378    2.0276089 
 7974000    421.84686   -7249.2098    5060.1036    157.54973   -2733.5644    17935.846 0.0056380597  0.047121791    2.0279598 
 7976000    412.64756   -7249.7012    6803.9761    1732.9102   -1713.6821    17887.601  0.005636569  0.047142473    2.0282948 
 7978000    433.94864   -7250.6024     6650.366   -1678.1438   -3155.5365    17649.528 0.0056350498  0.047140368    2.0286868 
 7980000     404.4771   -7249.6394    3427.0503     469.9197   -2879.7677    18299.777 0.0056336283  0.047140032    2.0290176 
 7982000     396.5419   -7249.0568    7381.5409    3353.1225    -3468.058    17287.895 0.0056322555  0.047147423    2.0293794 
 7984000    408.85902   -7247.6303    9253.0552    2224.6986   -2717.2234    18230.755 0.0056337952  0.047158762    2.0297912 
 7986000    384.64016   -7249.8405    6534.7249   -84.770256   -2974.9284    17049.845  0.005633538  0.047170493    2.0302187 
 7988000    424.50911   -7249.0887    7736.8997   -969.03299   -1178.1191    16985.953 0.0056323534  0.047183301    2.0305363 
 7990000    399.81891   -7249.7673    7489.6735   -892.70627   -2671.2189    20187.154 0.0056309007  0.047196415     2.030854 
 7992000     413.9553   -7250.7468    8715.3032    -489.6339   -1744.7089    15833.667 0.0056301138  0.047212427    2.0311681 
 7994000    419.49988   -7249.2824    6984.9049   -749.38049   -3057.9448    19341.496 0.0056289673  0.047221645    2.0314422 
 7996000    399.62984    -7247.961    4162.0466    -29.94249   -69.244871    16698.694 0.0056273752  0.047230373    2.0317436 
 7998000     383.7432   -7249.2725    6306.0797   -1466.3627   -813.63722    18131.614 0.0056274843  0.047227409    2.0320859 
 8000000    423.64872   -7248.8463    9661.9151    -2888.454    -2735.838    17384.674 0.0056262401  0.047225242    2.0323302 
Loop time of 430673 on 1 procs for 8000000 steps with 400 atoms

Performance: 0.080 ns/day, 299.079 hours/ns, 18.576 timesteps/s
95.4% CPU use with 1 MPI tasks x no OpenMP threads

MPI task timing breakdown:
Section |  min time  |  avg time  |  max time  |%varavg| %total
---------------------------------------------------------------
Pair    | 4.3005e+05 | 4.3005e+05 | 4.3005e+05 |   0.0 | 99.86
Bond    | 123.31     | 123.31     | 123.31     |   0.0 |  0.03
Neigh   | 2.2044     | 2.2044     | 2.2044     |   0.0 |  0.00
Comm    | 302.98     | 302.98     | 302.98     |   0.0 |  0.07
Output  | 3.6414     | 3.6414     | 3.6414     |   0.0 |  0.00
Modify  | 107.69     | 107.69     | 107.69     |   0.0 |  0.03
Other   |            | 80.7       |            |       |  0.02

Nlocal:    400 ave 400 max 400 min
Histogram: 1 0 0 0 0 0 0 0 0 0
Nghost:    7021 ave 7021 max 7021 min
Histogram: 1 0 0 0 0 0 0 0 0 0
Neighs:    184523 ave 184523 max 184523 min
Histogram: 1 0 0 0 0 0 0 0 0 0

Total # of neighbors = 184523
Ave neighs/atom = 461.308
Ave special neighs/atom = 1.5
Neighbor list builds = 376
Dangerous builds = 0
variable     ndens equal count(all)/vol
print        "average viscosity: $v [Pa.s] @ $T K, ${ndens} /A^3"
average viscosity: 0.695060569610757 [Pa.s] @ 400 K, 0.00674435684260222 /A^3
Total wall time: 122:00:50
