LAMMPS (22 Aug 2018)
##
dimension 3
boundary p p p
atom_style full
units metal
kspace_style pppm/cg 1.0e-4
kspace_modify pressure/scalar no
bond_style harmonic
angle_style harmonic

neighbor 2.0 bin
neigh_modify delay 0 every 1 check yes page 500000 one 50000

region box1 block -40.0 40.0 -40.0 40.0 -40.0 40.0
create_box 4 box1 bond/types 2 extra/bond/per/atom 2 angle/types 1 extra/angle/per/atom 1 extra/special/per/atom 10
Created orthogonal box = (-40 -40 -40) to (40 40 40)
  1 by 1 by 1 MPI processor grid

molecule cat_ion cation_mol.txt
Read molecule cat_ion:
  3 atoms with max type 4
  2 bonds with max type 2
  1 angles with max type 1
  0 dihedrals with max type 0
  0 impropers with max type 0

mass    1  86.81 #anion
mass    2  67.07 #ring
mass    3  15.04 #methyl
mass    4  29.07 #ethyl

create_atoms 1 random 40 1340 box1                     #at least 40
Created 40 atoms
  Time spent = 0.00140691 secs
create_atoms 0 random 40 2345 box1 mol cat_ion 1234    #at least 40
Created 120 atoms
  Time spent = 8.60691e-05 secs
#create_atoms 1 single  10.0 0.0 0.0
#create_atoms 0 single 0.0 0.0 0.0 mol cat_ion 1234
group anion type 1
40 atoms in group anion
group ring type 2
40 atoms in group ring
group methyl type 3
40 atoms in group methyl
group ethyl type 4
40 atoms in group ethyl

bond_coeff 1 207.729 2.689748837
bond_coeff 2 207.729 3.04931147
angle_coeff 1 207.729 144.1868904


## -- INTERATOMIC POTENTIALS -- #
pair_style lj/cut/coul/long 18.0
pair_modify mix geometric
#pair_style nm/cut/coul/long 18.0
################### properties to change
## values from easy begin

pair_coeff 1 1 0.03358 4.51
pair_coeff 2 2 0.026533 4.38
pair_coeff 3 3 0.0037311 3.41
pair_coeff 4 4 0.012852 4.38

#create_bonds single/bond 1 2 3
#create_bonds single/bond 2 2 4
#create_bonds single/angle 1 3 2 4

set type 1 charge -0.78
  40 settings made for charge
#set type 2 charge  0.408675
#set type 3 charge  0.317505
#set type 4 charge  0.273820

########################################

write_data solid.data pair ij
PPPM initialization ...
  using 12-bit tables for long-range coulomb (../kspace.cpp:321)
  G vector (1/distance) = 0.103821
  grid = 10 10 10
  stencil order = 5
  estimated absolute RMS force accuracy = 0.00106761
  estimated relative force accuracy = 7.41413e-05
  using double precision FFTs
  3d grid and FFT values/proc = 3375 1000
Neighbor list info ...
  update every 1 steps, delay 0 steps, check yes
  max neighbors/atom: 50000, page size: 500000
  master list distance cutoff = 20
  ghost atom cutoff = 20
  binsize = 10, bins = 8 8 8
  1 neighbor lists, perpetual/occasional/extra = 1 0 0
  (1) pair lj/cut/coul/long, perpetual
      attributes: half, newton on
      pair build: half/bin/newton
      stencil: half/bin/3d/newton
      bin: standard

thermo_style	custom step temp pe ke ebond press density

##################################
variable    T equal 300
variable    V equal vol
variable    dt equal 0.001  # default
variable    p equal 400     # correlation length
variable    s equal 5       # sample interval
variable    d equal $p*$s   # dump interval
variable    d equal 400*$s   
variable    d equal 400*5   

# convert from LAMMPS real units to SI

variable    kB equal 1.3806504e-23    # [J/K/** Boltzmann
variable    bar2Pa equal 100000.0
variable    A2m equal 1.0e-10
variable    ps2s equal 1.0e-12
variable    convert equal ${bar2Pa}*${bar2Pa}*${ps2s}*${A2m}*${A2m}*${A2m}
variable    convert equal 100000*${bar2Pa}*${ps2s}*${A2m}*${A2m}*${A2m}
variable    convert equal 100000*100000*${ps2s}*${A2m}*${A2m}*${A2m}
variable    convert equal 100000*100000*1e-12*${A2m}*${A2m}*${A2m}
variable    convert equal 100000*100000*1e-12*1e-10*${A2m}*${A2m}
variable    convert equal 100000*100000*1e-12*1e-10*1e-10*${A2m}
variable    convert equal 100000*100000*1e-12*1e-10*1e-10*1e-10
timestep    ${dt}
timestep    0.001
variable    tdamp equal ${dt}*10.
variable    tdamp equal 0.001*10.
variable    pdamp equal ${dt}*100.
variable    pdamp equal 0.001*100.
thermo      $d
thermo      2000

variable    ILdens equal density
variable    ILstep equal step
variable    ILtime equal time*1.0e-12 #from ps to s
variable    ILtemp equal temp
variable    ILpe equal pe
variable    ILke equal ke
variable    ILpr equal press

##################################
fix         333 all print 2000 "${ILstep} ${ILtime} ${ILdens} ${ILtemp} ${ILpr} ${ILpe} ${ILke}" file density.dat screen no
dump        1 all dcd $d minim.dcd
dump        1 all dcd 2000 minim.dcd
dump        2 all custom $d dump.atom id mass type x y z
dump        2 all custom 2000 dump.atom id mass type x y z

##################################
##################################
#  Minimize initial
##################################

velocity     all create $T 502844619  mom yes rot yes dist gaussian
velocity     all create 300 502844619  mom yes rot yes dist gaussian
minimize 1.e-4 1.0e-6 1000 10000
PPPM initialization ...
  using 12-bit tables for long-range coulomb (../kspace.cpp:321)
  G vector (1/distance) = 0.103821
  grid = 10 10 10
  stencil order = 5
  estimated absolute RMS force accuracy = 0.00106761
  estimated relative force accuracy = 7.41413e-05
  using double precision FFTs
  3d grid and FFT values/proc = 3375 1000
  PPPM/cg optimization cutoff: 1e-05
  Total charged atoms: 100.0%
  Min/max charged atoms/proc: 100.0% 100.0%
Per MPI rank memory allocation (min/avg/max) = 11.73 | 11.73 | 11.73 Mbytes
Step Temp PotEng KinEng E_bond Press Density 
       0          300    8400890.1    6.1657089   0.58297596 1.0516079e+08  0.025685164 
     382          300   -53.273597    6.1657089 0.0029246214   -19.643204  0.025685164 
Loop time of 0.363615 on 1 procs for 382 steps with 160 atoms

68.3% CPU use with 1 MPI tasks x no OpenMP threads

Minimization stats:
  Stopping criterion = energy tolerance
  Energy initial, next-to-last, final = 
         8400890.10824     -53.2686211541     -53.2735974251
  Force two-norm initial, final = 1.48053e+08 2.47445
  Force max component initial, final = 6.53831e+07 1.10191
  Final line search alpha, max atom move = 0.115668 0.127455
  Iterations, force evaluations = 382 702

MPI task timing breakdown:
Section |  min time  |  avg time  |  max time  |%varavg| %total
---------------------------------------------------------------
Pair    | 0.046462   | 0.046462   | 0.046462   |   0.0 | 12.78
Bond    | 0.016405   | 0.016405   | 0.016405   |   0.0 |  4.51
Kspace  | 0.29434    | 0.29434    | 0.29434    |   0.0 | 80.95
Neigh   | 0.0014551  | 0.0014551  | 0.0014551  |   0.0 |  0.40
Comm    | 0.0017254  | 0.0017254  | 0.0017254  |   0.0 |  0.47
Output  | 0          | 0          | 0          |   0.0 |  0.00
Modify  | 0          | 0          | 0          |   0.0 |  0.00
Other   |            | 0.003229   |            |       |  0.89

Nlocal:    160 ave 160 max 160 min
Histogram: 1 0 0 0 0 0 0 0 0 0
Nghost:    350 ave 350 max 350 min
Histogram: 1 0 0 0 0 0 0 0 0 0
Neighs:    931 ave 931 max 931 min
Histogram: 1 0 0 0 0 0 0 0 0 0

Total # of neighbors = 931
Ave neighs/atom = 5.81875
Ave special neighs/atom = 1.5
Neighbor list builds = 16
Dangerous builds = 0

reset_timestep 0
fix 1 all npt temp $T $T ${tdamp} iso 1.0 1.0 ${pdamp}
fix 1 all npt temp 300 $T ${tdamp} iso 1.0 1.0 ${pdamp}
fix 1 all npt temp 300 300 ${tdamp} iso 1.0 1.0 ${pdamp}
fix 1 all npt temp 300 300 0.01 iso 1.0 1.0 ${pdamp}
fix 1 all npt temp 300 300 0.01 iso 1.0 1.0 0.1
run             200000
PPPM initialization ...
  using 12-bit tables for long-range coulomb (../kspace.cpp:321)
  G vector (1/distance) = 0.103821
  grid = 10 10 10
  stencil order = 5
  estimated absolute RMS force accuracy = 0.00106761
  estimated relative force accuracy = 7.41413e-05
  using double precision FFTs
  3d grid and FFT values/proc = 3375 1000
Per MPI rank memory allocation (min/avg/max) = 10.6 | 10.6 | 10.6 Mbytes
Step Temp PotEng KinEng E_bond Press Density 
       0          300   -53.273597    6.1657089 0.0029246214   -19.643204  0.025685164 
    2000    284.69758   -108.51811     5.851208  0.075583247   -5075.5906   0.60161796 
    4000    315.33499   -121.77769    6.4808793 0.0079855957    1072.7851    1.0046204 
    6000    294.78063    -125.6526    6.0584385 0.0070323298   -3287.7602    1.1684277 
    8000     303.2192   -125.72056    6.2318712  0.080664006   -10935.087    1.1580617 
   10000     325.2436      -124.28    6.6845245  0.073546349   -10607.653    1.1275228 
   12000    317.50417    -125.6121     6.525461   0.12770129   -13553.662    1.1632661 
   14000    285.23771   -124.07177     5.862309  0.083609098   -10461.384    1.1408961 
   16000    297.53529   -127.09375    6.1150534 0.0033715157   -39.152716    1.1835086 
   18000    311.24632   -127.02823    6.3968474  0.040204211    5420.5047    1.1873961 
   20000     301.1103   -125.97754    6.1885281  0.091322173    9363.9064    1.1770006 
   22000    312.08787   -126.95008    6.4141432   0.19063575    13374.075    1.1617065 
   24000    297.07506   -127.79494    6.1055945   0.10652287    9879.7559    1.1940034 
   26000     267.9258     -126.976    5.5065083  0.083602428   -11535.269    1.2009308 
   28000    292.48228   -126.33814     6.011202   0.18259226   -16353.382     1.183023 
   30000    272.51992    -126.8085    5.6009283   0.18389555    -16318.59    1.1840315 
   32000    298.73335   -127.18886    6.1396762  0.020497789     -5805.66    1.2118991 
   34000    277.44169   -127.64457    5.7020823  0.060179308    7302.8076    1.2012058 
   36000    297.67382   -126.69542    6.1179004   0.11228839    10024.342    1.1794032 
   38000    306.43569   -127.18747    6.2979776   0.13908159    12170.637    1.1978497 
   40000    314.81867   -126.99052    6.4702676  0.097920342    9428.9844    1.1795028 
   42000    341.02165   -127.71464    7.0088008 0.0041517961    521.49531    1.2001263 
   44000    308.63067   -127.93677    6.3430897   0.10626643   -12831.878    1.2095548 
   46000     281.9165   -128.36277    5.7940503   0.31288119   -22113.656     1.219538 
   48000    291.90203   -127.68727    5.9992765  0.050677869   -8435.4725    1.2264378 
   50000    321.67526   -128.11498    6.6111867  0.021462751    4394.2594     1.234784 
   52000    267.35471   -126.46792     5.494771   0.25840879    17026.072    1.1922084 
   54000    316.20902   -126.32497    6.4988425   0.34137762    19226.485    1.1716736 
   56000    305.42276   -127.62776    6.2771594   0.25090424    17910.369    1.2289049 
   58000    316.78913   -127.30225    6.5107652  0.011623091    2592.0124     1.202104 
   60000    322.75992   -127.85205     6.633479  0.008712425   -3817.0813     1.209919 
   62000    345.73441   -126.80236    7.1056591   0.30101109   -20247.295    1.1920301 
   64000    294.43098   -126.91815    6.0512523   0.12094165   -13397.579    1.1826727 
   66000    285.29551    -126.7835    5.8634968  0.046772021   -9224.0104    1.1658056 
   68000    347.57185   -127.01904    7.1434228 0.0025171661   -803.81316    1.1753524 
   70000    307.56709   -128.44954    6.3212306   0.14171553     12617.46    1.2207504 
   72000    297.75238   -128.02321    6.1195149   0.10791014    10351.215    1.1916645 
   74000    280.49694    -127.1612     5.764875  0.015294715    3434.7607    1.2139374 
   76000    322.58278   -127.47269    6.6298384  0.030167851   -7294.2721    1.1879434 
   78000    291.04774    -127.5911    5.9817187   0.27680281   -19811.101    1.1797405 
   80000     322.9786   -127.24346    6.6379734   0.17631014   -15835.403     1.188297 
   82000    286.06543   -127.83056    5.8793206   0.04009563    6749.0187    1.2101575 
   84000    272.71164   -126.36708    5.6048685   0.10698016    9548.4512     1.141509 
   86000    283.49747    -127.0095    5.8265429    0.1469302     12177.09     1.167546 
   88000    287.98978   -127.66314    5.9188706  0.079893261    9010.5651    1.1978015 
   90000    282.33056   -127.70242    5.8025601  0.010647875     2577.129      1.21875 
   92000    303.34438   -128.09365    6.2344439  0.016662195   -5673.3497    1.2163335 
   94000    287.30387   -127.40225    5.9047734   0.12073465   -13527.795    1.2041394 
   96000     312.5615   -128.81274    6.4238775  0.027475024   -6581.1781    1.2486909 
   98000    301.74215   -127.20072    6.2015142  0.015830054    3370.9312    1.2116036 
  100000    275.65089   -128.41665    5.6652773  0.056641406    6321.2074    1.2063919 
  102000    288.99497   -127.39894    5.9395296    0.2340438    17668.269    1.2383088 
  104000    294.50689   -126.73051    6.0528125  0.026915486    4244.8836    1.1909995 
  106000     326.0423    -127.5813    6.7009397   0.02032092   -5195.2171    1.2124551 
  108000    321.49506   -127.16736    6.6074831  0.041903029   -8339.2957    1.2100473 
  110000    305.32213   -127.47306    6.2750912    0.1017516   -12816.642    1.1940655 
  112000    312.85564   -127.10626    6.4299226 0.0025854792   -1560.1024    1.1777957 
  114000    304.31828    -129.0529    6.2544599   0.18364549     13846.59    1.2094168 
  116000    292.18605   -127.31029    6.0051137   0.16128374    13485.427    1.2049312 
  118000    331.79766   -127.75162     6.819226 0.0061672918    1597.0036     1.226653 
  120000    335.74231   -127.10422    6.9002979  0.048274976    -8690.627    1.1882441 
  122000    295.00673    -128.1467    6.0630855   0.11130312   -13276.744    1.1980818 
  124000    322.95687   -127.64446    6.6375268  0.051969866   -9151.5822    1.1970389 
  126000    287.93094   -127.22483    5.9176612  0.058327261    7380.7947    1.1949163 
  128000     302.5406   -125.89869    6.2179243   0.11040234    10413.006    1.1850184 
  130000    281.76313   -127.75706    5.7908982   0.50467937    25152.986    1.2345828 
  132000    310.32716   -128.03039    6.3779565   0.15567437    14776.654    1.2500533 
  134000    311.69237   -128.28486    6.4060148  0.013293964    2348.0299    1.2059471 
  136000    306.22686   -127.68685    6.2936855  0.012393054    -4427.015    1.2166826 
  138000    286.13252   -128.19603    5.8806994  0.050411151   -9206.1094    1.2356096 
  140000    265.63499    -126.8425    5.4594268  0.070829879   -11022.478    1.1918568 
  142000    291.34105   -127.98684     5.987747 0.0055707797   -3392.5328    1.2035257 
  144000    327.65812   -127.43958    6.7341487  0.093673892    9042.3364     1.190339 
  146000    289.62904   -128.08559    5.9525612   0.17789961    14245.053    1.2207305 
  148000    311.16463   -127.32039    6.3951685    0.2672413    17033.838    1.1988202 
  150000    285.84963   -128.07389    5.8748854 0.0068649188    -3588.332    1.2144853 
  152000    292.29942   -127.45326    6.0074439   0.13514021   -14380.579    1.1858003 
  154000    291.12777   -127.89534    5.9833635   0.31729629   -21735.456    1.1945041 
  156000    276.14497   -126.96641    5.6754316   0.11058151   -12961.922    1.1721384 
  158000    269.74892   -127.91653    5.5439778  0.041732846    5391.7331    1.1959445 
  160000      297.853    -127.4069    6.1215829   0.18367756    13620.006    1.1855205 
  162000    273.55943   -127.40929    5.6222927   0.23586021    16971.127    1.2126936 
  164000    286.80781    -127.5983    5.8945783  0.052796237    6531.4696      1.19581 
  166000    324.51548    -127.0281      6.66956 0.0047192465   -3035.4191    1.1570174 
  168000    302.31335   -126.34739    6.2132536   0.24238025   -18595.281    1.1859788 
  170000    312.43992   -126.65639    6.4213786   0.20925787   -17522.767    1.1824837 
  172000    291.35994   -125.37478    5.9881353   0.18280132   -16614.611    1.1424135 
  174000    302.50386   -126.96363    6.2171693  0.043170979   -7942.4127    1.1793999 
  176000    295.30562   -126.61301    6.0692284  0.013441536    2530.8826    1.1669805 
  178000    319.12896   -126.69973    6.5588542   0.10054268    10455.754      1.19074 
  180000    311.94626   -126.74393    6.4112329   0.21717199    15513.823    1.1900546 
  182000    319.84037   -126.13357    6.5734755  0.069683424    8478.3421    1.1834087 
  184000    310.09557   -126.57343    6.3731968  0.018976137    3993.3713    1.1853845 
  186000    324.84758   -127.25519    6.6763853  0.014247832   -4820.2265    1.1993599 
  188000    305.21988   -127.07872    6.2729898  0.056335414   -8992.4831    1.2002298 
  190000    319.07188   -127.07528    6.5576811   0.10333701   -12119.703    1.1995995 
  192000    302.34159   -127.16597     6.213834  0.096138576   -12294.468    1.1939361 
  194000    293.14796   -127.79039    6.0248833  0.047577819    5915.5762    1.1804493 
  196000    309.37308   -127.27856    6.3583478   0.14453461     12379.03    1.1978666 
  198000    253.52174   -128.09417    5.2104708   0.15657113    12626.296    1.1999479 
  200000    330.67544   -127.64868    6.7961617  0.013934036    3234.5152    1.2090039 
Loop time of 295.837 on 1 procs for 200000 steps with 160 atoms

Performance: 58.411 ns/day, 0.411 hours/ns, 676.047 timesteps/s
98.7% CPU use with 1 MPI tasks x no OpenMP threads

MPI task timing breakdown:
Section |  min time  |  avg time  |  max time  |%varavg| %total
---------------------------------------------------------------
Pair    | 173.51     | 173.51     | 173.51     |   0.0 | 58.65
Bond    | 1.4116     | 1.4116     | 1.4116     |   0.0 |  0.48
Kspace  | 64.144     | 64.144     | 64.144     |   0.0 | 21.68
Neigh   | 3.3139     | 3.3139     | 3.3139     |   0.0 |  1.12
Comm    | 3.5683     | 3.5683     | 3.5683     |   0.0 |  1.21
Output  | 0.034668   | 0.034668   | 0.034668   |   0.0 |  0.01
Modify  | 48.956     | 48.956     | 48.956     |   0.0 | 16.55
Other   |            | 0.8981     |            |       |  0.30

Nlocal:    160 ave 160 max 160 min
Histogram: 1 0 0 0 0 0 0 0 0 0
Nghost:    3345 ave 3345 max 3345 min
Histogram: 1 0 0 0 0 0 0 0 0 0
Neighs:    39374 ave 39374 max 39374 min
Histogram: 1 0 0 0 0 0 0 0 0 0

Total # of neighbors = 39374
Ave neighs/atom = 246.088
Ave special neighs/atom = 1.5
Neighbor list builds = 2758
Dangerous builds = 0
unfix 1
unfix 333
fix 1 all nvt temp $T $T ${tdamp}
fix 1 all nvt temp 300 $T ${tdamp}
fix 1 all nvt temp 300 300 ${tdamp}
fix 1 all nvt temp 300 300 0.01

reset_timestep 0
variable     pxy equal pxy
variable     pxz equal pxz
variable     pyz equal pyz
fix          SS all ave/correlate $s $p $d              v_pxy v_pxz v_pyz type auto file S0St.dat ave running
fix          SS all ave/correlate 5 $p $d              v_pxy v_pxz v_pyz type auto file S0St.dat ave running
fix          SS all ave/correlate 5 400 $d              v_pxy v_pxz v_pyz type auto file S0St.dat ave running
fix          SS all ave/correlate 5 400 2000              v_pxy v_pxz v_pyz type auto file S0St.dat ave running
variable     scale equal ${convert}/(${kB}*$T)*$V*$s*${dt}
variable     scale equal 1e-32/(${kB}*$T)*$V*$s*${dt}
variable     scale equal 1e-32/(1.3806504e-23*$T)*$V*$s*${dt}
variable     scale equal 1e-32/(1.3806504e-23*300)*$V*$s*${dt}
variable     scale equal 1e-32/(1.3806504e-23*300)*10877.3878110823*$s*${dt}
variable     scale equal 1e-32/(1.3806504e-23*300)*10877.3878110823*5*${dt}
variable     scale equal 1e-32/(1.3806504e-23*300)*10877.3878110823*5*0.001
variable     v11 equal trap(f_SS[3])*${scale}
variable     v11 equal trap(f_SS[3])*1.31307532197413e-10
variable     v22 equal trap(f_SS[4])*${scale}
variable     v22 equal trap(f_SS[4])*1.31307532197413e-10
variable     v33 equal trap(f_SS[5])*${scale}
variable     v33 equal trap(f_SS[5])*1.31307532197413e-10
variable     v equal (v_v11+v_v22+v_v33)/3.0
fix          333 all print $d "${ILstep} ${ILtime} ${ILdens} ${ILtemp} ${ILpr} ${ILpe} ${v}" file visco.dat screen no
fix          333 all print 2000 "${ILstep} ${ILtime} ${ILdens} ${ILtemp} ${ILpr} ${ILpe} ${v}" file visco.dat screen no
thermo_style custom step temp pe press v_pxy v_pxz v_pyz v_v11 v_v22 v_v33
run          8000000
PPPM initialization ...
  using 12-bit tables for long-range coulomb (../kspace.cpp:321)
  G vector (1/distance) = 0.134806
  grid = 5 5 5
  stencil order = 5
  estimated absolute RMS force accuracy = 0.000667309
  estimated relative force accuracy = 4.6342e-05
  using double precision FFTs
  3d grid and FFT values/proc = 1000 125
Per MPI rank memory allocation (min/avg/max) = 10.64 | 10.64 | 10.64 Mbytes
Step Temp PotEng Press v_pxy v_pxz v_pyz v_v11 v_v22 v_v33 
       0    330.67544   -127.52081    3292.4746   -350.52893   -52.214326   -220.95415 8.0669133e-06 1.7899422e-07 3.2052652e-06 
    2000     340.1142   -128.24472   -244.52784    829.11111    28.143011    718.82701 0.0073490804  0.004992933 0.0023079384 
    4000    267.55249   -127.10917   -2764.0619     365.2629   -236.98164   -1168.2139 0.0042662397 0.0013730264 0.0045244084 
    6000    295.53187    -127.9342    2170.4178   -76.961589   -225.42143    314.85469 0.0025852084 0.0014084888 0.0039786336 
    8000     289.1829   -127.45562   -2945.2242   -211.38626   -302.87354   -72.163391 0.0018900003 0.0025732717 0.0029666237 
   10000    299.10273     -128.289    2043.0889    348.60743   -544.81206    207.54202  0.001443796 0.0028564609 0.0023946937 
   12000    297.24671   -128.17215    416.92577    90.200309   -223.06582   -127.49727 0.0013657202  0.002472059 0.0019404322 
   14000    308.82022   -127.14651   -1184.3325    409.93929   -124.00367   -315.74333   0.00188832 0.0024429378  0.002055601 
   16000    331.48573   -126.96685     3452.733   -1226.5466    549.43796   -449.40754  0.001679512 0.0030972947 0.0025472393 
   18000    312.01016   -126.56523   -3709.6884    361.49289   -5.3402669    16.305756 0.0015706617 0.0037314905 0.0022677971 
   20000    279.14863   -127.55776    1188.4229   -98.534316   -1176.5434    266.82139  0.001453358 0.0033411628 0.0020860615 
   22000    307.38629   -126.25201    288.21655   -545.97771   -487.60336   -246.68952 0.0012901558 0.0034030621 0.0019243155 
   24000    286.64303   -126.99022   -1138.2959    57.003326    369.10541   -600.88605 0.0015695155 0.0031625959 0.0017617847 
   26000    276.07543   -126.99223    4174.8318   -553.07117   -159.16372    180.75812  0.001750592  0.002935817  0.001867012 
   28000    288.23701   -127.27188   -1952.2523    22.517803   -624.71153   -889.16146 0.0016875444 0.0028051472  0.001792434 
   30000    289.34096   -126.93169    1987.7659   -95.836336   -311.52408    154.19721 0.0015734839 0.0026152704 0.0019333652 
   32000     329.6383   -127.19404   -1121.3264   -172.87392    32.535814   -750.36329 0.0014783723 0.0024779592 0.0018603558 
   34000    300.23272   -126.86721   -2276.0462    29.551946     866.6666   -814.53955 0.0014378222 0.0023897491 0.0017662432 
   36000    273.39433   -127.24858    2404.5416    68.935862   -168.08839    702.38123 0.0013896478 0.0022574647 0.0018280006 
   38000    295.45754   -127.64806   -2485.5975   -295.58651   -228.02393    412.49302 0.0013426518 0.0021712866 0.0016921988 
   40000    312.56722   -127.86734    2960.5449   -61.748985   -447.77284   -36.966394  0.001313828 0.0021294488 0.0016823857 
   42000    329.03865   -127.80088    152.17941   -447.42754    245.40493    120.26221  0.001286154  0.002074211 0.0016579268 
   44000    320.30089    -126.9968   -554.05043    108.40115   -468.63396   -222.52876 0.0013170384 0.0020611043 0.0017052629 
   46000    284.31689   -127.36535    2491.4446   -367.53054   -1263.7927    602.41497  0.001274482  0.001983642 0.0016885707 
   48000    291.12691   -127.52658   -3126.4093   -964.02767    438.39585   -142.58181 0.0012215691 0.0020090188 0.0016188944 
   50000    264.71099   -127.68436    1357.0198   -552.44113   -674.67165   -867.08574 0.0012870978 0.0019549348 0.0015686041 
   52000    334.50872   -127.30816   -60.457931   -351.26762   -674.76912    303.09206 0.0014365318 0.0019501444 0.0017259146 
   54000     279.1527   -126.68697   -1226.7789   -723.16624   -840.32386   -718.52779 0.0015241347 0.0020911224 0.0016904007 
   56000    324.06442   -127.34374    3986.1206    161.53621    363.10898    667.11138 0.0016067491 0.0021422762 0.0016764568 
   58000    359.24465   -126.83918   -2551.6883   -887.79751    492.98982   -118.24493  0.001599412  0.002058366 0.0016101548 
   60000    321.10603   -126.87799    1241.6804     74.61977    100.36174   -154.64199  0.001642214 0.0019831577 0.0015524506 
   62000    314.26099   -126.54533    357.62347   -232.58859   -538.93053    266.37321 0.0016653898 0.0019665445 0.0016311457 
   64000    299.00566   -126.40663    -2034.848    52.020064    220.08196    20.566057 0.0016099583 0.0019514785 0.0016197311 
   66000    317.42399   -127.12011    3195.7628   -542.54887   -28.360205   -835.36543 0.0015860935 0.0018931457 0.0015811819 
   68000    294.80585   -126.90728   -1763.0652    61.929101   -1037.0324    95.754946 0.0016626568 0.0018690188 0.0015415021 
   70000    314.83918   -126.93182    2680.5019    608.38258   -580.54026   -138.43986  0.001666947 0.0019130348 0.0015081805 
   72000    312.04091   -127.56713    725.08768    686.05229   -301.90652    180.55016 0.0016204059 0.0018618358 0.0014643354 
   74000    305.06918   -127.41654   -1957.1178    586.30422    461.61271    172.60853 0.0015898456 0.0018183055 0.0014322523 
   76000    299.51156   -127.02186    2905.9507   -329.48057   -144.54132   -261.66804 0.0015731336 0.0018106029 0.0013968467 
   78000     314.8213   -127.02631    -4008.527    -552.6347   -121.96342     466.4423 0.0015454765 0.0018455355 0.0013747094 
   80000    287.85328   -126.93805    1733.0532   -806.18089   -54.026906    419.59567 0.0015584046 0.0019460836 0.0013446091 
   82000    291.00984   -127.03139     687.6702    241.05854    596.14636   -321.30854 0.0015483769 0.0019108667 0.0013131589 
   84000    300.90181   -126.31221    -151.8339   -539.85049    -129.3577    627.37867 0.0016093344 0.0018995516 0.0012860064 
   86000    315.24471   -126.70851    3709.0756    1137.0018    626.67877    192.88565 0.0015853153 0.0019195182 0.0013306081 
   88000    326.62122   -127.36099   -2327.2431   -112.42899   -564.24748   -51.439966 0.0015960706 0.0019972812 0.0013223187 
   90000    315.23955   -126.12271    2213.7298   -623.32006    74.640925    360.36848 0.0016165841 0.0022404681 0.0012926097 
   92000    271.26441   -127.09385     243.6452   -420.49392   -939.94896    128.04095  0.001570545 0.0023607685 0.0012703235 
   94000    284.70722   -127.01189   -2031.0556   -207.37857   -54.399779   -837.22016 0.0015649663  0.002453916  0.001232819 
   96000    285.82076   -127.02769    3688.0288   -180.32973   -356.85349    378.02293 0.0015476885 0.0024288993 0.0012955109 
   98000    294.76277   -126.99634   -2613.4895   -641.51059   -108.68131    -712.7535 0.0015164035 0.0024757367 0.0014330331 
  100000    329.47742   -127.35723    2066.8178    190.12371    354.00313    94.389341 0.0014826648 0.0024287123 0.0017502861 
  102000    284.23862   -127.50357    42.201043   -372.81217   -101.77974    3.1245633 0.0014524669  0.002384457 0.0018263574 
  104000    310.93098      -127.88   -2844.3421    325.82283     83.75272    340.00444 0.0014377233 0.0023388357 0.0018357331 
  106000    299.98843   -128.16144    1885.5098    -313.8971   -93.807034    -286.7022 0.0014125008 0.0022952688 0.0019061551 
  108000    295.68567   -128.00481    -3302.042   -235.78085   -224.53402   -736.76732 0.0014363699 0.0022804332 0.0019199824 
  110000    309.55007   -128.06162    1280.9632    482.58385   -77.558994    202.53371 0.0014135863 0.0022494674 0.0019364266 
  112000    323.60482   -127.46973    1053.7202    717.89383    111.35111    109.71593 0.0014381942 0.0022255842 0.0018959892 
  114000    287.59312   -127.88993   -1366.5698    273.23848   -50.757825    510.40257 0.0014343032 0.0021928879 0.0018717922 
  116000    270.43417   -127.09966    3160.7035    987.50769   -726.53513    1025.3105 0.0015185864  0.002151671 0.0018379035 
  118000     300.9231   -126.95384   -1594.6513   -182.91128    351.03826    606.88742 0.0015418358 0.0021281979 0.0018298939 
  120000    305.11193    -127.3687    948.57835     208.5762    768.47893    660.39479 0.0015322264 0.0021253487 0.0017814611 
  122000    299.36299   -127.54149    330.94842    1080.1829   -311.64703    217.37568 0.0015705462 0.0021459352 0.0017585278 
  124000    289.46179   -127.09049   -1890.9875   -376.95207    405.05771    468.71193 0.0016389676 0.0021888573 0.0017410102 
  126000    292.47833   -127.23478    3901.8293   -613.01373   -22.302834    89.022861 0.0016253412 0.0021778677 0.0017351068 
  128000    316.62039   -127.90869   -1414.6639    27.298786   -302.95439     -74.7532 0.0016260346 0.0021429092 0.0017107026 
  130000    299.24442   -126.93622    1551.3014   -21.280457   -867.92199     280.4575 0.0015873582 0.0021179144 0.0016927376 
  132000    277.84346   -126.33464    1285.7271    357.51305   -738.64693   -31.516471 0.0015599544 0.0020827066 0.0016673273 
  134000     302.2294   -127.79378   -2390.5084     311.1938    -143.7998   -138.22645 0.0015751618 0.0020551838  0.001645211 
  136000    278.84881   -127.52241    2056.8343   -613.74843   -37.226779   -526.19008 0.0015553031 0.0020407139 0.0016208744 
  138000    270.71801    -127.4862   -1607.0784   -981.23161   -393.78535   -641.99127 0.0015504097  0.002014899  0.001614134 
  140000     288.2583   -127.27351     1208.273   -852.94462    308.81291   -245.12622 0.0016369583 0.0019871855  0.001605518 
  142000    308.41275   -126.75242    2095.4373   -1359.7975   -736.98248    418.57599 0.0017420165 0.0019610733 0.0015902664 
  144000    328.16153   -126.65909   -1216.7981   -89.222656   -277.91577   -311.39708 0.0018285849 0.0019500421 0.0015834387 
  146000    318.26074   -127.44126    2333.7314   -974.84107    4.1408323    397.58775 0.0018269361 0.0019191064 0.0015573873 
  148000    257.24633   -127.19071   -1794.5088   -154.03303    467.58348     416.6304 0.0018108331 0.0018983775 0.0015358288 
  150000    316.71855   -127.01865    482.96693    31.745852    872.40081   -106.98883 0.0018520683  0.001898186 0.0015171233 
  152000    289.94815   -127.41216    1370.4786   -469.86434   -963.60062    599.82129 0.0019360127 0.0018789136 0.0015116127 
  154000    281.84534    -127.0403   -2124.2093    8.4320258    446.59803   -133.33179 0.0020203371 0.0018580116 0.0014964399 
  156000    318.13505   -127.44456    3450.0173    243.99447    349.92802     174.5723 0.0020468029 0.0018835258 0.0014836767 
  158000    322.80606   -126.86954   -1069.6527    440.80736   -880.43229   -649.82013 0.0020767956 0.0018620176 0.0014598611 
  160000    304.37947   -127.26777    183.50679    231.22955    367.09974    135.21631 0.0020545789 0.0018935098 0.0014586981 
  162000    283.93657   -127.22618    797.32867    326.80037    81.738481    442.44709 0.0020303431 0.0018680456 0.0014384835 
  164000    323.51472    -127.2043   -2509.5614    537.49593     1081.115    149.68433 0.0020051052 0.0018482357 0.0014255424 
  166000    345.34302   -127.30553    2430.2613    316.41756    108.69553   -135.48274  0.002017324 0.0018378729 0.0014447503 
  168000    273.16816    -127.1689   -750.08333    304.02046    56.976274   -46.117052 0.0019717821 0.0018161574 0.0014485052 
  170000    283.94015   -127.04863    862.52627    354.19754   -829.47358   -881.78912 0.0019452887 0.0018023474  0.001435213 
  172000    280.58216   -126.79053    1596.9455    253.68659   -6.8767824    527.14436 0.0019209325 0.0018061839 0.0014205509 
  174000    316.72486     -127.292   -2362.6023    603.50409    267.24118   -211.16472 0.0019047669 0.0018252162 0.0014043787 
  176000    309.46394   -127.48833    1670.9036   -338.09516    -892.6626   -758.28138 0.0018834263 0.0018087397  0.001385931 
  178000    281.61214   -128.07501   -1946.1649    855.93439   -408.06241   -56.019678 0.0018828187 0.0018047055 0.0013756466 
  180000    302.21953   -127.57859    28.974393   -184.69893   -804.76253    1089.2247 0.0019106498 0.0018181662 0.0013622832 
  182000    283.27615   -126.10586    3112.5085    1138.0596    817.57148   -335.76878 0.0019093533 0.0018056696 0.0013516107 
  184000    337.27965   -127.31053   -1057.0911   -197.36263   -964.01596   -777.19532 0.0019460683 0.0018014491 0.0013881248 
  186000    318.66826   -127.46685    2394.7177    889.92123   -156.16451     631.7033  0.001928916 0.0017881719 0.0013917376 
  188000     293.2057   -127.66466    -361.1615    220.16002    181.12988    -520.3758 0.0019072902 0.0017701156 0.0013782763 
  190000    305.75406   -128.14442   -1128.6635   -1049.6059   -932.55755    1202.9679 0.0018861988  0.001748853 0.0013704425 
  192000     255.7757   -127.61138    507.14423   -87.057841    414.78814    -1149.358  0.001892255 0.0017316897 0.0013725992 
  194000    279.40791   -127.77726   -1598.3782   -326.75961    238.75032    1084.4694 0.0019098512 0.0017240581 0.0013472742 
  196000    316.44155   -128.50712    1857.2597    115.70461    508.95805   -285.27506 0.0018927041 0.0017116157 0.0013310692 
  198000     310.4518    -128.3343   -1228.6905   -231.19391    594.97104   -173.35452 0.0018747764 0.0016940884 0.0013176176 
  200000    307.22658   -126.90009    1011.7934   -508.28832   -252.51196    545.20788 0.0018587638 0.0016807572 0.0013116882 
  202000    288.78746   -128.42118    530.11276    22.123686   -224.86362   -238.90413 0.0018390065 0.0016637562 0.0012954145 
  204000     303.8882   -127.87663   -2587.0963    121.64781   -688.22443    225.61906 0.0018247088 0.0016487974 0.0012992653 
  206000    306.48656   -128.16623    914.32255   -27.349816   -920.32258   -649.41326 0.0018151167 0.0016375459 0.0012860687 
  208000    279.03864   -127.76254   -1046.8474    24.674215   -1334.1282   -360.95213 0.0017990763 0.0016369922 0.0012730421 
  210000    294.35312   -126.67065    1063.0616    76.549186   -297.88461    633.74066 0.0017808515 0.0016229521 0.0012627048 
  212000    284.79849   -127.52813    1310.9673    294.55359    1240.8155   -1612.8254 0.0017654312 0.0016086011 0.0012495002 
  214000    303.10933   -127.92476   -1358.2751   -266.50777   -930.52018    802.81717 0.0017514243 0.0015929509 0.0012514739 
  216000    310.61543   -127.01666    2942.5917    1096.5194   -645.71264    586.23556 0.0017387159 0.0015798486 0.0012412965 
  218000    273.67235   -127.19713    -941.0708    539.92021    145.85044   -420.13286 0.0017224151  0.001578273 0.0012298379 
  220000     312.8482   -126.82195    369.61806   -158.39837    1015.6299    102.05714 0.0017245335 0.0015642639 0.0012330317 
  222000    257.28613   -127.25294    828.65865   -106.04585    117.33631    807.60838 0.0017160815 0.0015494109 0.0012220084 
  224000    291.86577   -127.58141   -1743.2778    880.71239    630.13551   -673.85821 0.0017172952 0.0015353642 0.0012151015 
  226000    266.96426   -127.74136    2049.5622    619.53787    285.12587    434.97032 0.0017255883  0.001525338 0.0012037645 
  228000    275.08969   -127.61208    -768.8187   -139.01782   -565.26916   -219.98526 0.0017128552 0.0015140929 0.0012048362 
  230000    292.85323   -127.67655     313.7743   -259.62769    1153.6414    66.418375 0.0017093653 0.0015128687 0.0012032058 
  232000    268.86622   -128.01033    658.26037   -30.625605   -39.758385    1583.4705 0.0017121036 0.0014990377 0.0011898231 
  234000    288.58605   -127.38667   -2170.3866   -557.66442    599.92033     -486.524 0.0017304591 0.0015212989 0.0011813734 
  236000    306.40316   -127.92767    1865.7408   -215.85819    614.37515     794.5706 0.0017373155  0.001583914 0.0011717947 
  238000    304.68385   -127.94993    -1396.427   -485.00628    352.32879   -466.61022 0.0017389959 0.0016058526 0.0011854524 
  240000    289.52257   -128.36041    480.68982   -410.80128     67.09672   -388.28266 0.0017318197 0.0016652658 0.0011991416 
  242000    295.27015   -127.83346    705.17684   -28.735243    213.61308    -410.3839 0.0017173459 0.0016923682 0.0012060128 
  244000    308.92268   -126.96306   -777.53782    268.15879    500.79117    259.77245 0.0017068955 0.0016748724 0.0011931778 
  246000    314.85079   -127.83039    2041.5643    -1285.406   -462.01397    209.50063 0.0016996316 0.0016715305 0.0011789704 
  248000     284.7554   -127.54383   -2017.2956   -66.487392   -87.387216    538.30125 0.0016943754 0.0016568163 0.0011679274 
  250000    290.14424   -127.47514     110.0586   -198.30235    661.94451    1041.2938 0.0016805027 0.0016477568 0.0011592762 
  252000    312.29624   -127.43426    1385.7684   -663.75479   -425.31574    763.25187  0.001678817   0.00164024 0.0011489348 
  254000    270.49338   -127.49041   -1757.8288    481.85962    605.68172   -164.75147 0.0016655369 0.0016396168 0.0011438287 
  256000     279.9963   -127.80831    2034.7805    771.58214    433.39489    -918.1612 0.0016742073  0.001630026  0.001139245 
  258000    284.66085   -126.95365   -607.39194    943.89494    -277.5619   -355.34349 0.0016618055 0.0016294258 0.0011314449 
  260000    306.07652   -127.72259    313.07601    454.22838   -322.71461      478.459 0.0016539642 0.0016298133 0.0011260298 
  262000    283.89923   -127.65487    245.36238    18.429436     150.8604   -510.56962 0.0016452696 0.0016170844 0.0011133821 
  264000    310.25013   -127.60224   -1430.8384   -66.106727   -148.22925    226.66079 0.0016306426 0.0016105332 0.0011087355 
  266000     288.9507    -127.8323    1300.4738    -350.2701   -603.22389   -213.74149    0.0016191 0.0016077571  0.001100153 
  268000    298.90566   -127.84303   -1590.3113   -43.375084    201.98521    304.53612 0.0016122384 0.0015948195 0.0010922439 
  270000    310.08324   -127.65849     1425.274    273.54654   -207.17938   -162.55318 0.0016082737 0.0015935693 0.0010888329 
  272000    253.85253   -128.26467    412.44723    1003.4186    152.44797   -599.78432 0.0015989583  0.001583294 0.0010782095 
  274000    296.57384    -128.2705   -1102.4786   -1201.5111    412.75685    -486.2783 0.0015894347 0.0016011178 0.0010694946 
  276000    335.31165   -127.67577    1739.4465    291.65429   -1047.0494   -830.81613 0.0015840769 0.0015925614 0.0010593331 
  278000    296.51601   -127.62652   -1524.5662   -246.18449    88.006098    68.295823 0.0015711979 0.0015789352 0.0010521619 
  280000    293.20757   -127.72858    810.44925    142.56461    681.13461    171.58468 0.0015599047 0.0015799745 0.0010586464 
  282000    286.71624    -128.4056    360.05024    162.69822     -363.555    532.00552 0.0015492769 0.0015732583 0.0010550156 
  284000    298.33117   -127.73808   -377.77522    845.33129   -678.23573   -387.55762 0.0015497943 0.0015612914 0.0010523141 
  286000    318.10411   -127.17045    2836.2654    540.32202   -804.37493   -265.77401  0.001546896 0.0015513378 0.0010728774 
  288000    300.22245   -128.49739   -1843.5167    85.603184   -921.95432   -211.26791 0.0015474042 0.0015446038 0.0010868976 
  290000    297.56106   -128.10854    472.62921    806.41212    804.36112   -184.50171  0.001561356 0.0015330066 0.0011014546 
  292000    322.79089   -127.18957   -459.03325   -232.20172   -349.33773   -597.16334 0.0015707317 0.0015232523 0.0011418347 
  294000    293.15054   -127.59148   -1506.4809    226.82815      45.7816   -331.48087 0.0015625937 0.0015151456 0.0011544339 
  296000    273.98705   -127.64109     2200.832     141.2421   -354.25146    503.76658 0.0015526351 0.0015120349  0.001164248 
  298000    324.46059   -127.94307   -852.95845    172.42027    182.23115   -392.89359 0.0015560635 0.0015058484 0.0011544053 
  300000     322.6349   -126.66899    2579.5566    766.52565    347.71297   -843.96405 0.0015439827 0.0014983102 0.0011628995 
  302000    312.76627   -127.49678   -360.92052   -253.94053   -2.7619719    157.44261 0.0015393001 0.0014887842 0.0011838984 
  304000     270.2937   -127.78022   -1220.3261    184.62118    271.09903    32.596517 0.0015420158 0.0014905292 0.0011757621 
  306000    300.76698   -127.60858     1072.033    157.70835   -172.23916    663.39216 0.0015443851 0.0014835668 0.0011673397 
  308000    303.15711    -127.0553     -1993.02    -255.7591   -161.54223   -369.45873 0.0015385581 0.0014888224 0.0011623497 
  310000    284.55745   -127.44428    1476.9686    272.36981    110.60737    249.78875 0.0015340157  0.001485629 0.0011581384 
  312000    287.96638   -127.61755    220.25685   -615.29247    -324.7332   -1031.0313 0.0015267617 0.0014798608 0.0011521994 
  314000     292.6579   -127.64393   -135.90086   -440.62398    261.18494     125.9076 0.0015392445 0.0014727206 0.0011462869 
  316000    301.22846   -127.01014    2688.4669    1162.0535   -118.55141    381.44117 0.0016009506  0.001464299 0.0011660902 
  318000    276.50169    -127.6164   -1248.3028   -306.72844    184.82411   -282.10047 0.0015953974 0.0014578446 0.0011814086 
  320000    295.07179   -127.87247     944.4757    224.75833   -160.81632    821.70627 0.0015919251 0.0014644707 0.0012095646 
  322000    275.21323    -127.0597   -639.59359   -438.07124   -18.690797   -509.50061 0.0015869078 0.0014529487 0.0012042533 
  324000    309.62505   -127.60718   -1029.6706   -45.650669    779.76642   -376.61646 0.0015757527 0.0014456559 0.0012006378 
  326000    338.39638   -127.44529    1601.5531    -272.4404   -503.33648    687.19594 0.0015684976  0.001445732 0.0011933918 
  328000    287.45671   -126.83207   -1030.4885    -887.7514     501.9619    197.09384 0.0015593963 0.0014384943 0.0011893919 
  330000    289.39937   -127.39767    939.71966    361.72105     887.8015   -468.43645  0.001561079 0.0014328466 0.0011872744 
  332000    278.65186    -126.9951    137.66891   -294.67706   -670.25603    186.93242 0.0015563676 0.0014332512 0.0011944103 
  334000    288.78891   -126.84079   -803.32803    63.915114    138.33149   -629.60477 0.0015475856  0.001422132 0.0011817151 
  336000    305.46564   -128.52928    672.81453   -365.51221    -362.9213    1123.9976 0.0015509102 0.0014121687  0.001173341 
  338000    302.65734   -128.15291   -1181.5339   -179.57954   -478.35449    374.89609 0.0015604687 0.0014031851  0.001195211 
  340000    351.24846   -127.87096    762.33816   -150.82291    566.92662    198.24407 0.0015561349 0.0013942579 0.0012043061 
  342000    296.48762   -127.81525   -175.50355    477.72531   -602.98009    469.94783 0.0015525693 0.0013850461  0.001206983 
  344000    316.53016   -126.63968    504.53739    42.410086   -5.9663232    165.51875 0.0015451041 0.0013745827  0.001203076 
  346000    310.21485   -127.32658    1750.7158    -333.4943    645.24103    222.27341 0.0015412267 0.0013660692 0.0012139398 
  348000    295.40717   -127.32425   -951.61041    43.795761    647.85613    31.148285 0.0015325502 0.0013578087 0.0012157265 
  350000    304.53627   -127.92931     590.1238   -604.99145    269.19224    614.19695 0.0015232425 0.0013586131 0.0012084644 
  352000    302.12795   -127.02503   -435.49871     380.3867   -480.18453   -50.192274 0.0015164652 0.0013484915 0.0012006914 
  354000    305.34622   -128.28278   -904.29163   -878.67847   -168.98017    388.66822 0.0015108848   0.00134156  0.001201281 
  356000    303.23909   -127.28842    1559.3296   -41.331065   -325.51368    850.79339 0.0015042858 0.0013369808 0.0011957342 
  358000    287.01035   -127.67176    -845.2025    280.95551   -346.15829   -164.31652 0.0014963871 0.0013306304 0.0011884335 
  360000     282.6707   -127.31056    1684.1319   -47.638871   -117.44888   -481.64499 0.0014883552 0.0013225724 0.0011803083 
  362000    308.91577   -128.19952   -897.20798    270.58677   -875.01177     731.6223 0.0014970668 0.0013294773 0.0011739232 
  364000    313.67829   -127.96664   -1261.7319    -234.0761     29.37112      465.137 0.0014839332  0.001323122  0.001169225 
  366000    266.99791   -127.48429    279.59537    294.74059     -368.482    353.09692 0.0014776808 0.0013176677 0.0011704889 
  368000    299.86826   -127.95039   -1128.2248   -681.32219   -1075.1471    58.454801 0.0014813892 0.0013105541 0.0011651546 
  370000    312.08443   -127.99605    640.29275   -629.98604   -786.07006    62.973093 0.0014719546 0.0013026412 0.0011687841 
  372000    286.89925   -128.11618    364.41382    236.66938    434.29622   -1054.4378 0.0014820642 0.0013002999 0.0011683858 
  374000    303.30618   -128.06385   -199.11016   -121.34798   -804.26514   -937.37422 0.0014809814 0.0012910875 0.0011614878 
  376000    301.73545   -128.04457    1743.9096     -304.003   -269.51129    209.94827 0.0014739811 0.0012899364 0.0011619224 
  378000    313.10341   -126.92397   -812.31133    96.310407    946.66454   -874.11152 0.0014708729  0.001284877 0.0011516215 
  380000    270.33311    -127.2948    632.68054     19.27563   -174.75429    72.599801 0.0014628681  0.001286388 0.0011446944 
  382000    320.85414   -127.58827      236.303    -320.1796    31.538851    418.39361  0.001461834 0.0012874629 0.0011425532 
  384000    315.73459   -127.19796    230.73622   -630.43136    560.97254    1043.6896 0.0014620928 0.0012837426 0.0011595389 
  386000    304.63557   -128.08636    412.65386   -544.35808    -890.1605   -423.51644 0.0014547837 0.0012960645 0.0011735611 
  388000    277.83919   -127.26318   -319.11113    199.34508    555.52622    188.76011 0.0014530886 0.0013449659 0.0011728643 
  390000    280.54069   -127.14881    635.50471    -138.4527    27.970515    524.02085 0.0014433316  0.001343027 0.0011683815 
  392000    291.28793   -126.76953      260.173   -243.39959    253.09276   -497.51732  0.001437616 0.0013396916 0.0011710494 
  394000    323.71616   -127.47816   -216.56648    231.15662   -90.399378   -318.99854 0.0014519606 0.0013541618 0.0011786343 
  396000    289.11491   -127.16046    1623.5105   -126.84509   -146.60367    2.8580282 0.0014697934 0.0013442523  0.001172921 
  398000    313.58451   -126.93757   -180.62004   -116.07307   -442.25841   -416.06853 0.0015250539 0.0013377231 0.0011667841 
  400000    336.01897   -127.51969    1017.3731    728.60713   -295.60458    833.85454 0.0015398226 0.0013324437 0.0011614946 
  402000    317.51339   -128.19326    229.87903    141.54578    166.45005    457.19496 0.0015378677 0.0013332835 0.0011663521 
  404000    307.59667   -127.48445   -425.15545    253.70399   -902.17927   -80.333984 0.0015313669 0.0013224642 0.0011634518 
  406000    300.14151   -127.03171    1436.5001   -520.57204   -1443.0452   -79.435971 0.0015250417  0.001344821 0.0011740505 
  408000     289.4953   -127.09941    488.56129     212.3459    126.12455     872.6444  0.001528845 0.0013420654 0.0011666107 
  410000    261.78317   -127.39494    581.13275   -396.72082   -157.65339   -398.52469 0.0015407457 0.0013333499  0.001175476 
  412000    289.18689   -127.10909    1596.5465    286.61855     683.3572    47.478355 0.0015577778 0.0013339119 0.0011806456 
  414000    303.53912   -127.69837     100.3294    -1490.084    1319.0865    500.67813  0.001552899 0.0013484971 0.0011797378 
  416000    278.82829   -127.78511    1170.6683    149.00273     222.6429   -938.39703 0.0015633543  0.001349394 0.0012004799 
  418000    299.95447   -127.26921   -786.92878    85.651402    957.86391    1031.7429 0.0015552627  0.001355104 0.0012117572 
  420000    266.29917   -127.42829    559.48837    221.84156   -105.39816    244.98851 0.0015442322 0.0013506695 0.0012160096 
  422000    293.56501   -128.41724   -738.15502    982.79157    -259.8505    267.18136 0.0015425075  0.001347519 0.0012140388 
  424000    325.80974   -127.61863   -868.52571    350.69321   -295.74005    -547.2332 0.0015599941 0.0013438461 0.0012088223 
  426000    296.03273   -127.86363    1543.6003    850.41419   -483.29401    791.87487 0.0015617694 0.0013404755 0.0012028288 
  428000    303.64863   -127.85037   -1344.8804    1430.3528   -766.59317    100.03461  0.001556263  0.001343661 0.0011985349 
  430000    280.10323   -128.12594    639.87853    371.97293   -1295.4266   -112.18846 0.0015542989 0.0013564176 0.0012027149 
  432000    315.26696   -127.09326    1365.9164    348.85601    469.10358    128.66139 0.0015483105 0.0013627704  0.001206296 
  434000    304.30323    -127.8805   -460.66059   -134.02687    -239.2895    53.706718 0.0015463342 0.0013925938 0.0012010629 
  436000    280.49547   -128.20792   -48.033202   -712.55298    6.0017502    392.83237   0.00155217 0.0014018674 0.0011969901 
  438000    301.40126   -126.71416    126.97952    379.26213    416.25281    -716.9519 0.0015563688 0.0013976154 0.0011952553 
  440000    285.54309    -127.4951     930.1027   -1246.1653    220.26483    389.90935 0.0015549487 0.0013928723 0.0012112719 
  442000    317.17285   -128.14168    562.92908    215.29018    647.55346    648.29518 0.0015497457 0.0013892763 0.0012138232 
  444000    320.41288   -127.78125   -268.91922    148.92135    121.10993   -455.68734 0.0015407572 0.0013838369 0.0012141903 
  446000    302.59912   -127.74421    837.77394   -665.93476   -208.83382    566.57032 0.0015336468 0.0013779463  0.001219566 
  448000    291.06682   -127.12396   -379.05105    102.87176    839.84243   -968.34804 0.0015269639 0.0013717645 0.0012212906 
  450000    329.15863   -127.90358    -458.9401   -660.33088   -761.16145    49.213442 0.0015223083 0.0013699415 0.0012231972 
  452000    351.21194   -127.29636    675.69696    1006.1297    634.52627    445.68475 0.0015186628 0.0013631827 0.0012184735 
  454000    279.88301   -128.42987   -1101.6123    683.05515    178.09449   -158.17347 0.0015172301 0.0013566223 0.0012106107 
  456000    302.27774   -127.28307    1506.9185    811.09594   -19.736247     -239.305 0.0015112966   0.00134871 0.0012067789 
  458000    286.11081   -127.42912   -485.92633    640.72311    699.39503   -890.15596 0.0015047651 0.0013424432 0.0012026449 
  460000    290.44804   -127.38556    737.32286   -474.01126   -241.60676   -521.98335 0.0014979385 0.0013369003 0.0012016766 
  462000    284.20452   -127.36709    724.59006    473.33156    279.32565   -184.08406 0.0014981108  0.001334149 0.0011964349 
  464000    266.44381    -127.7613   -1303.6875   -770.66151    474.36052   -658.61121 0.0014931063 0.0013288446  0.001198749 
  466000    315.31912   -127.28424    885.20024   -197.96627    -121.1158    230.70059 0.0014870094 0.0013329011 0.0012013117 
  468000    291.25489   -127.53158   -67.429081    506.93429   -117.43756   -332.11786 0.0014858265 0.0013346085 0.0011997012 
  470000      306.119   -127.45317    -10.90683   -866.09801   -165.27114    1209.7136 0.0014810643 0.0013503454 0.0012036661 
  472000     320.1401   -127.19762    1175.7233    34.026997    549.02744    209.60133 0.0014778254 0.0013652821 0.0012012764 
  474000    324.16314   -126.86696   -715.02017    -401.8283   -588.50109   -888.62076 0.0014723712 0.0013671485 0.0012030838 
  476000    314.89637   -128.00159    357.68235    -12.83283    84.384491    860.30572 0.0014680687 0.0013887184 0.0012444253 
  478000    297.12216   -127.06945   -313.05156   -116.48814   -267.28769   -455.45975 0.0014720863 0.0013906555 0.0012366837 
  480000    273.49453   -127.40743    225.14938    125.99286    756.45598   -426.25362 0.0014667074 0.0013859554 0.0012385092 
  482000    277.91046   -128.51066   -172.56979   -29.370111   -741.43707   -1208.3028 0.0014689658 0.0013823019 0.0012401244 
  484000      285.349   -127.57173   -865.54306    873.36972    -409.3755    -1928.777 0.0014789782  0.001377261 0.0012405771 
  486000    285.77762   -127.94279    684.77137   -354.27029   -670.58512     773.6348 0.0014697267 0.0013771417 0.0012334709 
  488000    280.08661   -126.80357    -25.68186    712.47883   -320.93546   -915.84711 0.0014646426  0.001379659 0.0012295083 
  490000    278.43113   -127.59473   -6.7409789   -979.88299    487.19096    715.82852 0.0014589746 0.0013958859 0.0012265963 
  492000    328.46468   -127.10832    1201.7526   -1430.4137   -901.13067    336.09496 0.0014755624 0.0013963436  0.001230182 
  494000    282.58944   -127.76542   -762.12039   -710.09547    1130.1128    315.00003 0.0014860826 0.0013969866 0.0012263056 
  496000    287.23758   -127.52294    931.55201   -603.90789   -1927.2231    837.73017 0.0014795365 0.0013927292 0.0012203078 
  498000     269.0808   -127.68448   -985.33388   -386.60167   -26.174515   -1299.0135 0.0014746716 0.0013891895 0.0012167016 
  500000    288.70103   -127.43405   -57.630882   -263.11186    -270.0933   -175.49549 0.0014701309 0.0013856618  0.001215511 
  502000    316.24557   -126.69073    1098.9976    217.04713    506.68118    215.57103 0.0014652521 0.0013841197 0.0012113064 
  504000    333.23642   -127.33493   -726.24941    132.40714    189.70142    29.345993 0.0014638345 0.0013793407 0.0012077265 
  506000    301.12521   -127.64982     537.3872   -210.91519   -39.579835    262.55099 0.0014566892 0.0013743043 0.0012031646 
  508000    292.18598   -127.72011     -112.199    -736.8011   -123.48405    764.74869 0.0014544171 0.0013685622 0.0011982903 
  510000    269.04362   -127.99534    133.68471   -111.98311   -446.97442    1128.8594 0.0014484711 0.0013617669 0.0011960821 
  512000    283.04761   -126.80595    706.72891    575.15901     135.7727    763.81991 0.0014439221 0.0013595902 0.0011972381 
  514000     302.4293   -126.94291   -462.03377    -360.5043    245.48999    -580.9502 0.0014393215   0.00136502 0.0011936947 
  516000     313.4734   -127.24146    1103.8306    1225.9794   -649.70212    217.75544  0.001442124 0.0013614636 0.0011894969 
  518000    304.61849   -127.16478   -660.44951    174.22968    316.13875    363.14573 0.0014418913 0.0013577897 0.0011909728 
  520000    306.42692   -128.18144    26.232202   -288.05667   -125.78719   -255.74101 0.0014369299 0.0013600013 0.0011875826 
  522000    316.84421   -128.01008    865.39623    305.00565   -18.642633    89.029675 0.0014320174 0.0013575623 0.0011839092 
  524000     287.4821   -127.73858   -726.97547   -996.95748   -542.23405   -30.830269 0.0014353552 0.0013550669 0.0011840763 
  526000    282.98972   -127.48552    1175.0624   -9.7457788   -642.87191   -537.71254 0.0014294388 0.0013603879 0.0011908239 
  528000    306.41256   -127.17625   -77.865794   -462.59559   -646.12322   -236.91363  0.001434669 0.0013590147 0.0011858171 
  530000    270.49892   -126.89193    624.95691   -954.18445   -512.89274    657.58748 0.0014368662 0.0013658213 0.0011811833 
  532000    318.25836   -127.71249    1101.7107    262.61106    334.21251    -1065.531 0.0014329059 0.0013668863 0.0011769562 
  534000    321.92881   -128.02892    -716.7664   -576.06087      103.401   -51.163147 0.0014285483 0.0013637235 0.0011722804 
  536000    314.42105   -128.04487    848.17475    107.23367   -265.09027    184.84868 0.0014253871  0.001361352 0.0011676702 
  538000    299.23875   -128.08257   -884.62182    44.180312    169.03123    -256.3816 0.0014207829 0.0013573977 0.0011725867 
  540000    304.37441   -127.51698    429.39605    196.78145   -56.715459    375.31946 0.0014162056 0.0013544007  0.001173244 
  542000    268.71822   -127.30463    225.36983     199.0404    124.67676   -504.09725 0.0014116605 0.0013468017 0.0011720733 
  544000    293.32573   -127.45686   -116.59404   -666.92001   -524.76187   -6.3353343 0.0014121241  0.001342491 0.0011673074 
  546000    298.97596   -127.00105    1037.5652   -1239.4711    573.04285    897.86098 0.0014079672 0.0013415369 0.0011668704 
  548000    335.32106   -127.72747    365.14696   -817.08359    102.96365    239.37033 0.0014029046 0.0013356315 0.0011662449 
  550000    315.47768   -126.66527    1393.4146    1111.8706   -658.61489   -610.27077 0.0013993675 0.0013321004 0.0011667204 
  552000    326.28552   -127.48116    275.08682   -435.79512   -169.65071   -18.179943 0.0013953671 0.0013357435 0.0011632118 
  554000    284.04656   -127.19097    365.44822    416.73506    860.38753   -755.62067 0.0013944333 0.0013329908 0.0011596475 
  556000    283.16422   -128.83889    388.86256   -141.20221   -829.49564   -421.80225 0.0014016273 0.0013298847 0.0011547547 
  558000    276.60947   -127.92232   -229.50277   -422.78407    2.4299341   -777.88549 0.0013965103 0.0013254103 0.0011499623 
  560000    334.86704    -128.8356    285.09249    473.62659    17.454895    582.99317 0.0013943467 0.0013188321 0.0011522965 
  562000    292.22724    -127.5523    665.74762   -558.06363     45.03211    361.00247 0.0013905248 0.0013218916 0.0011473199 
  564000    290.07156   -128.21832   -572.48307     525.8185    995.13557     1142.235 0.0013869839 0.0013180447 0.0011452976 
  566000    305.15157   -126.61691    910.57486    179.00901    469.17604   -401.72928  0.001382416  0.001316655  0.001146126 
  568000    272.31093   -127.73102   -534.14166   -326.36386   -93.486923    172.58647 0.0013797559  0.001310078 0.0011657941 
  570000    285.96794   -127.25787    157.98036   -23.811603    332.97515   -677.97748 0.0013758516 0.0013090828 0.0011689914 
  572000    343.86965   -127.48712     210.7637   -897.62877    315.72645   -851.09366 0.0013708915 0.0013198318 0.0011664456 
  574000    284.26942    -127.4765   -342.22031   -146.57338   -559.48923   -494.94509 0.0013669858 0.0013276557 0.0011617959 
  576000    299.02402   -127.28518    902.53461   -525.10532    473.60772    12.903262 0.0013626372 0.0013247804 0.0011621998 
  578000    328.74974   -127.41669    443.11257    47.635288    -621.6835   -200.51117 0.0013587792 0.0013223391 0.0011765111 
  580000    292.82628   -127.83953    67.453814   -379.25039    657.15929    866.37364 0.0013618235 0.0013203245 0.0011769214 
  582000    271.57399   -127.57829    810.75739    87.249888    812.44803    691.65009 0.0013587185 0.0013133197  0.001176068 
  584000    287.65706   -126.66616    798.05839    172.95731   -755.10437   -284.91153  0.001354742 0.0013189014 0.0011756036 
  586000    339.33355   -127.61138    912.12664    34.568304    547.68082   -139.92593 0.0013547974 0.0013151279 0.0011714399 
  588000    326.49912   -127.21156    725.93536    1056.1813   -1683.4664    47.024265 0.0013511479 0.0013116489 0.0011747824 
  590000    305.94938   -127.35301    526.80289   -670.58747    337.50178   -42.023721 0.0013461518 0.0013061035 0.0011698002 
  592000    282.13011   -127.30025    673.93837    545.76735    516.77147   -570.85804 0.0013443009 0.0013026037 0.0011738521 
  594000    292.03164   -127.69454   -75.107439   -347.59823   -800.28376   -41.607754 0.0013443695 0.0013046042 0.0011798616 
  596000    326.64491   -127.51918    756.71511    577.00584    342.59593   -315.90372 0.0013492691 0.0013025119 0.0011771113 
  598000    305.33807   -127.12652    784.47023   -920.10031   -418.23307   -183.17202  0.001344238 0.0013214801 0.0011850651 
  600000    297.67649   -127.58903    1.5178055   -354.44379   -631.90028   -526.67088 0.0013401536  0.001325306 0.0011826388 
  602000    279.65914   -127.31661    644.14078   -677.23245    68.258482    168.97438 0.0013355403 0.0013209963 0.0011831515 
  604000    295.98781   -127.52811   -944.60286   -262.73785   -336.90539    -605.7207 0.0013307366 0.0013171866 0.0011891202 
  606000    304.80052   -127.09739    1242.3713    239.34719    265.10984   -735.00396 0.0013274103 0.0013155966 0.0011952903 
  608000    317.44935   -126.99427     -278.719   -583.08035    953.86529   -61.468291 0.0013256692 0.0013137649 0.0011972884 
  610000    270.29293   -127.29831    850.02205    281.84291    764.88161   -556.26428 0.0013221051 0.0013101285 0.0011932197 
  612000    321.54257   -126.80387    1730.4778    300.62435    895.51964    331.07173 0.0013200352 0.0013099485 0.0011936829 
  614000    296.39967   -128.04924   -293.99698    866.47163      236.108   -1186.1461 0.0013189506 0.0013147761 0.0012014299 
  616000    318.94594   -127.88141    54.837878    656.74949    1121.1531   -395.76968 0.0013161798 0.0013140279  0.001208138 
  618000    332.95678   -127.65934    357.58443    534.05581   -177.54584   -176.49466 0.0013119291 0.0013130829 0.0012102562 
  620000    304.05775   -127.91394   -293.97259    377.21189    60.023624   -434.96756 0.0013087632 0.0013239639  0.001209765 
  622000    317.85847   -128.37265     785.4796    821.91548   -69.585994    606.85606 0.0013046604 0.0013316951 0.0012080958 
  624000    328.11411   -127.08514    193.32421   -168.00229   -922.02919   -1231.4621 0.0013006604 0.0013283551 0.0012045117 
  626000    294.40636   -128.17823    649.27953    8.3893495    957.30682    181.86655 0.0012963171  0.001324411 0.0012044742 
  628000    319.75024   -127.61607    -370.2607   -21.411603   -344.50403   -109.91986 0.0012945684 0.0013263203 0.0012063803 
  630000    262.13084   -127.41807   -360.50591   -754.63286    -603.6562   -75.139795 0.0012903844 0.0013291876 0.0012038028 
  632000    239.38316   -127.50323    926.01303    590.51414   -67.693337    306.18755  0.001289106 0.0013266985  0.001199986 
  634000    285.01092   -127.60685    -523.2504   -719.58094    860.85175    565.92253 0.0012844173 0.0013293458 0.0011972248 
  636000    305.84331   -127.29389    236.24949   -550.71442     382.3994    608.99693 0.0012798032 0.0013304885 0.0011936717 
  638000    278.96027   -127.43541      1164.12   -240.75731   -144.03419     601.2223 0.0012771398 0.0013263887 0.0011903548 
  640000    309.29894   -127.01958    581.33263   -20.535389    428.54314   -136.03705 0.0012783114 0.0013228373  0.001186286 
  642000    325.69578   -126.87055    1410.4514    1498.6062    887.90807    189.20433 0.0012772195 0.0013190482 0.0011856929 
  644000    295.81586   -127.41584    76.417367    92.156662   -660.01119   -426.28296 0.0012732608 0.0013154551 0.0011788728 
  646000    274.41962   -127.27548    -90.84625    1049.2525   -102.61843   -70.913818  0.001271199 0.0013134078 0.0011765249 
  648000    272.81235    -127.7465    497.80528     1930.455   -632.90675    171.59027 0.0012696348 0.0013134181 0.0011767017 
  650000    308.94339   -127.36471     432.2005   -369.31496   -124.27924   -84.525835 0.0012735944 0.0013138515 0.0011769169 
  652000     301.0351   -126.40793    592.15315   -616.67451    691.64957   -168.97222 0.0012764245 0.0013126043  0.001174229 
  654000    293.69013   -127.35978    -727.3774   -276.61337   -51.568397    50.796786 0.0012955543 0.0013071936 0.0011849867 
  656000    288.48061   -126.70726     273.2756   -371.81681    442.00085   -41.540142 0.0012890623 0.0013044657 0.0011822833 
  658000    332.00002   -126.80947    206.57602    370.39043      794.046   -24.886506  0.001284276 0.0013047467 0.0011787538 
  660000    291.11211   -126.89357    212.97802    4.9971774   -66.769753     176.0762  0.001293334 0.0013028478 0.0011753905 
  662000    327.73476   -127.98389    771.63147   -170.15385   -69.557463   -988.58868 0.0012925725 0.0013021461 0.0011723615 
  664000    306.02196   -127.87253   -76.442989    87.752825    201.04524    49.942987 0.0012898164 0.0012987293 0.0011703642 
  666000    297.26627   -127.40056    662.49257   -122.76783   -467.30041    130.57226 0.0012867447 0.0012987287 0.0011671046 
  668000     296.9302   -127.54617    521.89722    679.21951   -266.86326   -315.38303 0.0012833141  0.001306436  0.001177188 
  670000    291.31952   -127.20315    189.99579    -784.8882   -480.75333    81.775734 0.0012799024 0.0013141709 0.0011805794 
  672000    313.94216   -127.63117    576.41063    234.30302   -210.62699    240.30963 0.0012761425 0.0013279814 0.0011803014 
  674000    295.92296   -127.84858   -157.42744    95.909766  -0.30193524   -84.023977 0.0012749596 0.0013225973 0.0011763204 
  676000    275.06909   -127.41054    291.96053    1356.1821    -308.3259   -482.87177 0.0012728452 0.0013191113 0.0011731454 
  678000    298.73895   -128.02079   -371.96927    20.489597   -28.383971     86.87784 0.0012847386 0.0013158886 0.0011742924 
  680000    261.72443   -127.29125   -521.41271    606.40963    1167.3198   -150.20301 0.0012869975  0.001315381 0.0011841971 
  682000    317.00369   -127.88808    765.56672   -251.98399    497.94931   -1191.3967 0.0012845483 0.0013116065 0.0011924633 
  684000     317.1931   -128.15279   -1387.3682   -75.824531    628.24962    165.37276 0.0012828505 0.0013216211 0.0012086833 
  686000    274.33381   -127.32366    585.54737    605.83943   -136.12335    285.40965 0.0012833457 0.0013208011 0.0012156373 
  688000    277.30046   -127.68999    107.70279   -249.81955    10.086143   -393.32566 0.0012800056 0.0013179229 0.0012131562 
  690000    306.30087   -127.72185     118.5236   -198.52355   -161.94126   -59.018487  0.001277743 0.0013195216 0.0012088484 
  692000    286.80769   -127.28208    683.43513    78.181658    55.136877    125.07976 0.0012744412 0.0013247119 0.0012122638 
  694000    292.92175   -127.67903    128.73715   -643.55789     51.55794   -850.35278 0.0012710743 0.0013254867 0.0012182717 
  696000    310.47266   -127.91172    766.25089   -941.52086   -475.62688   -277.98767  0.001270264 0.0013201591 0.0012276866 
  698000    263.81147   -127.11156    1106.2012    178.65627    1597.7037   -493.84715 0.0012645707  0.001319842 0.0012315187 
  700000    322.92205   -127.72281   -788.09658   -349.17744   -214.07786   -958.30641 0.0012618829 0.0013186495 0.0012304145 
  702000    356.00872    -127.3558    458.87399    817.39059   -499.77367    -216.3579 0.0012598119 0.0013145902 0.0012278776 
  704000    271.09343   -128.02803   -1200.8692    -740.3414     -8.01369    -407.2712 0.0012578989 0.0013160011 0.0012411788 
  706000     295.5432   -127.53005    459.57606     171.6639    907.51701   -1146.8813   0.00125514 0.0013116507 0.0012662651 
  708000     318.6435   -127.35837   -268.26272    513.51009     84.12099   -69.725014 0.0012527718 0.0013143862  0.001268104 
  710000    307.22241   -128.35415   -428.93215   -939.66708   -369.76425   -551.21903 0.0012568052 0.0013105646 0.0012645645 
  712000     333.6278    -127.8746    941.06739    626.18273   -984.47478    -118.0235 0.0012540585 0.0013082306 0.0012735222 
  714000    303.93798   -128.40897   -414.95553     253.7965    -640.8818    6.6789467 0.0012516492 0.0013035091 0.0012722656 
  716000    257.94974   -127.81547    1711.3208   -321.14095   -990.44536   -166.67654 0.0012510084 0.0013004227 0.0012703172 
  718000    319.11757   -127.92418    92.474796     32.52628    -271.6701   -772.56377 0.0012470073 0.0012978392 0.0012665453 
  720000    266.52581    -127.5567    112.34941   -153.92837     518.9847   -574.70635 0.0012436099 0.0012949165 0.0012644297 
  722000    288.99983   -127.92787     608.1936   -620.92843   -817.26612   -618.84526 0.0012402859 0.0012905715 0.0012621574 
  724000    286.23539   -128.11157   -1109.2773    -138.0403   -5.6258753     92.58031 0.0012377913 0.0012870119 0.0012635173 
  726000    288.60349    -127.5438    11.856581   -516.80186   -512.36372    705.26141  0.001234594 0.0012830271  0.001260614 
  728000    301.24507    -127.7561    418.07437    451.23582    363.85872   -754.58706 0.0012317245 0.0012801662 0.0012573664 
  730000    279.82545   -127.94538    -709.5461   -1124.5076    302.78714   -1723.3258 0.0012280676 0.0012770813 0.0012542622 
  732000    308.03023   -128.38945    332.70784   -386.55331    459.18673   -1234.3268 0.0012259953 0.0012763777 0.0012555345 
  734000    276.73534   -127.19975   -1247.0065   -469.52253   -228.00942   -938.25535 0.0012248996 0.0012710594 0.0012757656 
  736000    291.47473    -128.3557   -523.89021   -6.9988569    449.04201   -1191.7709 0.0012234049 0.0012674643 0.0012721344 
  738000    324.42219   -128.35025    -475.6214    1554.1295    361.29601    659.88868 0.0012202496 0.0012638479 0.0012683345 
  740000    289.56793   -127.32308    97.585646    150.50293    317.80854    325.53759 0.0012210301  0.001262004  0.001264532 
  742000     304.4714   -127.62448    728.50156    34.101111    714.51542    750.54412 0.0012180392 0.0012589617  0.001263246 
  744000      341.869   -128.37015   -510.20798   -14.090174   -461.89059   -401.02956 0.0012155093 0.0012607551 0.0012607217 
  746000    301.10797   -128.32442    39.675424   -605.95253    965.23333   -275.71782 0.0012117739 0.0012630194 0.0012581451 
  748000    293.72596   -127.37262    161.11252    558.24144    650.79251    88.151838 0.0012081081 0.0012615202 0.0012554674 
  750000    281.75764   -127.68856   -802.05016   -1310.5814   -513.31789   -409.49836 0.0012048922 0.0012604342 0.0012529792 
  752000    295.89614   -127.63248    127.69738    775.57649   -176.76289   -238.03006 0.0012023915 0.0012593586 0.0012495627 
  754000    358.21561   -127.97853    -592.0561   -40.596021   -1065.4387    1277.8257 0.0012003513 0.0012592835 0.0012484066 
  756000    319.36532   -127.96834   -308.70993    988.62552    261.09761   -255.86934 0.0011995604 0.0012576179 0.0012466073 
  758000    257.28012   -127.51061    738.36591    25.070172    744.51917   -503.63066 0.0012129764   0.00125548 0.0012522534 
  760000    309.51854   -127.24433     44.10488    24.000257    141.49474    -187.6402 0.0012254104 0.0012548975 0.0012552739 
  762000    247.75766   -127.48363    652.85574    1089.9395   -59.859504   -521.53547 0.0012376453 0.0012509764 0.0012627803 
  764000    309.79406   -127.79599   -28.510084    654.42796    21.156176    62.513049 0.0012429918  0.001248449 0.0012559589 
  766000     277.8524   -127.07837   -544.81221    157.21288   -405.68059   -576.12601 0.0012402532 0.0012452945  0.001257705 
  768000    320.58252   -126.81409    874.20903   -507.22794    576.37794   -729.61408 0.0012383441 0.0012458157 0.0012686475 
  770000    304.29832   -127.02902    200.45131    107.48613   -770.09121    740.09323 0.0012352115 0.0012523436 0.0012889494 
  772000    264.64898   -128.01204     376.5957   -304.44796    968.30589    345.87926 0.0012335801 0.0012511051 0.0012929286 
  774000    313.89376   -127.40656   -18.819172   -615.45502   -262.21087   -704.17864 0.0012307339 0.0012490974  0.001297131 
  776000    283.07597   -127.85399    -33.70996   -7.2789035    633.05042    47.559362 0.0012268933 0.0012460649 0.0013064977 
  778000    286.77758   -127.44048     1019.147    1009.5864    437.13352    214.95749 0.0012244259 0.0012427137 0.0013092547 
  780000    276.78092    -128.3758   -1118.2246   -680.44593    -456.5148   -410.23933 0.0012221513 0.0012396861 0.0013077554 
  782000    306.04689   -128.04126    257.90041   -485.66736    8.8163053    -501.1631 0.0012205084 0.0012402998 0.0013097018 
  784000    333.27928   -127.48937     351.0058    829.62918     1377.562   -747.93174 0.0012182696 0.0012362309 0.0013110504 
  786000    273.44565   -127.83195    205.87159   -180.17442    238.35711   -109.55956 0.0012161704 0.0012333567 0.0013053851 
  788000    304.50859   -127.99741    191.71885    372.01712   -391.99344   -276.22908 0.0012145223  0.001230225 0.0013028941 
  790000    308.35888   -127.37736    391.47213   -43.944117   -103.58101   -996.70485 0.0012112038 0.0012288841 0.0013034074 
  792000    299.37895   -127.53061    90.211402   -125.66891    472.44967   -238.40952 0.0012090766 0.0012276206 0.0013022656 
  794000    278.35667   -128.17773    830.21661    372.41096   -208.60373    553.38876 0.0012073876 0.0012231722 0.0012993733 
  796000    349.70851    -129.1939   -786.91353   -844.97457    -518.9935    302.91875 0.0012048355   0.00122028 0.0013012134 
  798000     293.5986   -127.10844    1235.9377    201.35238    449.00929    238.57814 0.0012014875 0.0012192364 0.0012948962 
  800000    315.41948   -128.57853    73.505814   -942.40353     344.7466   -346.82904 0.0012003862  0.001216657 0.0012940776 
  802000     272.9115   -127.49291    347.81897   -197.56409   -128.55817   -697.80036 0.0012043239 0.0012142794 0.0012925103 
  804000    312.63088   -128.03429    1018.2001    571.65855   -829.07493   -669.84665 0.0012075195 0.0012111458 0.0012891334 
  806000    280.84603   -128.41393   -1436.4192    280.51295   -432.09611    -421.6985 0.0012120659 0.0012084716 0.0012900114 
  808000    273.19271    -127.8996    455.21362   -80.374548    -97.99051   -938.02745 0.0012155384 0.0012074663 0.0012900471 
  810000    315.80896    -127.0953    568.88105    -704.9079   -61.409201   -1381.1693 0.0012194427 0.0012099472 0.0012866581 
  812000    280.24889   -126.43156    660.89873     180.8604   -521.81061   -734.84058 0.0012151841 0.0012237669  0.001284986 
  814000    288.64109   -127.88509     610.9405    507.83973   -740.51819   -41.040873 0.0012113917 0.0012309279 0.0012851178 
  816000    313.37819   -126.97848    1087.1433   -4.0036795    209.44556   -158.75272 0.0012083561 0.0012273845  0.001280876 
  818000    315.40573   -127.69937    238.90721    144.40755    200.62484   -563.91827 0.0012057342 0.0012267514 0.0012783211 
  820000    249.88244   -127.80454   -373.48998   -231.79331    919.29184    472.24041 0.0012033153  0.001228432 0.0012748312 
  822000    283.68111   -127.97576   -558.17576   -585.65152   -411.11683     518.0172 0.0012026461 0.0012264846 0.0012760998 
  824000    277.75926   -127.74666    224.79338   -747.11152     1220.699    985.78219 0.0012043615 0.0012278527 0.0012739948 
  826000    322.13408   -127.52472   -519.48183    4.1071305    571.78953   -86.989226 0.0012035298 0.0012396271 0.0012708512 
  828000    311.94677   -127.23819    829.91122   -752.70815    15.314609    348.18858 0.0012003572 0.0012436041 0.0012678114 
  830000    299.49444   -127.32999   -10.680349   -1183.0698   -33.328653   -587.63106 0.0011990155 0.0012403745 0.0012641007 
  832000    341.64974   -127.23943   -115.87082   -237.53201   -1028.5533   -1241.7284 0.0011960562 0.0012382679  0.001262673 
  834000    294.30933   -127.58239    12.931098    386.00038     392.9424    1330.8472 0.0011982368 0.0012400122 0.0012601092 
  836000    317.18016   -127.94019   -616.54096    586.65909    952.82451    -166.5361 0.0012056561 0.0012439027  0.001257368 
  838000    332.61179   -127.57094    195.53037    693.64413    440.06439     340.5307 0.0012067019  0.001240499 0.0012544247 
  840000    259.27132   -127.18753    623.72999   -762.06013    137.75432   -524.30501 0.0012045882 0.0012394649 0.0012515019 
  842000    301.38065   -127.83986    258.58501   -618.29258    -1148.405    411.19264 0.0012021368 0.0012387866 0.0012486782 
  844000    284.46104    -128.2878     435.2979     294.8332    149.46155    434.98801 0.0012022032 0.0012363783 0.0012494599 
  846000    303.22898   -127.17281   -580.26997   -521.22665   -35.069128   -53.507778  0.001209137 0.0012333503 0.0012457255 
  848000    279.37732   -127.42092    1119.7361    736.88146    31.158305    294.52044 0.0012048816 0.0012390869 0.0012428493 
  850000    253.75922   -127.42502   -415.86373    399.97064   -124.57398   -434.83578 0.0012025793 0.0012393236 0.0012398326 
  852000    265.34432    -127.3681    173.05808   -423.99715    705.82145   -19.416021 0.0012005966 0.0012370533 0.0012389972 
  854000    312.91488   -128.00822    574.37899    468.18164      213.925    214.55143 0.0011976221 0.0012377439 0.0012359707 
  856000    329.79175   -126.81035    237.67643    75.026412    1633.7732   -989.56946 0.0011978516 0.0012385344 0.0012331537 
  858000    318.83884   -127.55797    1322.4021    203.14258   -508.80694   -1131.8911 0.0011999131 0.0012390791 0.0012335397 
  860000    287.87024   -127.66689   -220.97201   -208.40099    207.82369   -972.06102 0.0011973541 0.0012373576  0.001232674 
  862000    277.44459   -127.18185    3.4605453    234.00923    14.147481    259.75433 0.0011973381 0.0012401999 0.0012303355 
  864000    300.74113   -127.86549   -233.17518    640.30342   -577.22834   -232.96238 0.0012015963 0.0012367968 0.0012286748 
  866000    336.94393   -127.25874   -395.54785   -291.83113    231.03777    411.11833  0.001197214 0.0012364191 0.0012257683 
  868000    292.54654    -127.8566    1309.3544    304.79956   -89.629663    353.39442 0.0011949948 0.0012422526 0.0012280966 
  870000    299.95465   -128.42238   -558.86661    278.85968   -230.61391   -288.48197 0.0011925774 0.0012411599  0.001226423 
  872000    307.28401    -127.0773    610.55631    206.63912    1695.6176    356.92851 0.0011908085 0.0012533845 0.0012340678 
  874000    336.89574   -128.62333     615.3795     332.6623   -329.45595   -544.44465 0.0011877998 0.0012552522  0.001237476 
  876000    285.09221   -128.02035   -509.47865   -639.62197    786.53937   -434.94251 0.0011847782 0.0012544313 0.0012375409 
  878000    306.28768   -127.68725    1027.9752   -605.07007   -71.574213    809.63638 0.0011824293  0.001253363 0.0012385175 
  880000    304.07084   -128.06944   -1981.0417    144.26305    937.85781    242.80371  0.001182641 0.0012503092 0.0012371654 
  882000    290.76759    -128.1015    679.87357   -347.50935    988.57175    720.32212 0.0011894122 0.0012507257 0.0012383249 
  884000    302.63549   -128.14094   -405.33282    384.72874    1022.6231   -460.94711 0.0011892252  0.001247976 0.0012386943 
  886000    276.09805    -127.5885    231.19849    168.05125   -290.59477    191.16227 0.0011863809  0.001246234  0.001237602 
  888000    291.53836   -126.92673    1985.6438   -355.83661    1335.3283   -4.2086869 0.0011841913 0.0012453457 0.0012341237 
  890000     339.9456   -127.04704    156.34727    714.60435    8.4566782   -222.93687 0.0011908849  0.001246377 0.0012317926 
  892000    267.36469   -127.00526    1391.0107   -365.24443    22.209306   -502.76948 0.0011903862 0.0012443057 0.0012279763 
  894000    275.45367    -128.0044   -845.22847   -376.22109    94.430942    845.29922 0.0011902113  0.001245532 0.0012300016 
  896000     323.2546   -127.96923    -170.2422   -117.96468   -8.0890511    928.01086 0.0011891683 0.0012451138 0.0012305663 
  898000    304.45726    -127.8159    1127.7043   -354.78744   -52.183267   -56.341215 0.0011871236 0.0012488878 0.0012275601 
  900000    328.65685   -127.78902   -859.48334   -566.34097    239.22074   -347.39842 0.0011846916 0.0012492902 0.0012248809 
  902000    300.78815   -126.67103    1388.8831   -1389.5921    141.04934    110.99246 0.0011825507 0.0012463281   0.00122202 
  904000    311.99535   -127.82107    -168.5486   -116.28305   -233.91419   -253.95742 0.0011839723 0.0012449456 0.0012199457 
  906000    278.19084   -127.45342   -175.59787   -665.63262    605.08535    447.66619 0.0011811259 0.0012411431 0.0012180055 
  908000    314.00892    -128.2864    851.46106   -1218.3655   -324.25055     944.1576 0.0011785223 0.0012398309 0.0012199405 
  910000    318.79073    -127.5784   -481.00163   -22.332306    1141.5566    -520.7423 0.0011803593 0.0012379073 0.0012173002 
  912000    285.79015   -128.11612    728.46788   -564.00513    7.8784833   -588.00281 0.0011844169 0.0012594473 0.0012159105 
  914000    287.67605    -128.2419   -637.81036   -455.31433    307.55877   -937.16902 0.0011862369 0.0012673497 0.0012163764 
  916000    327.25428   -127.00164    1003.2907    221.42521    340.22511   -785.13706 0.0012005303 0.0012654283 0.0012161121 
  918000    325.44091   -127.89154    760.27019   -210.66597   -154.67246    493.23933 0.0012028326  0.001262476 0.0012151979 
  920000    293.27723   -127.89063   -1570.2028    -1108.127    90.449514   -108.82142 0.0012053464 0.0012594756 0.0012118243 
  922000    300.36694   -128.51803    753.41147   -713.78288    343.93994    988.58437 0.0012027409 0.0012617322 0.0012095697 
  924000    302.88531   -128.08962   -768.64197   -266.75195    473.33809    396.98299 0.0012007026  0.001268626 0.0012070293 
  926000    298.80253   -127.75293    398.22491    52.050467    1007.1793    1370.3229 0.0011977388 0.0012665772 0.0012100053 
  928000    320.71059   -128.27123    778.13635    297.53774    767.30994    423.25986 0.0011965928 0.0012669753 0.0012051183 
  930000    287.05711   -127.96775   -1344.6116    424.68379    965.39293    184.09452 0.0011939102 0.0012736593 0.0012099776 
  932000    287.72141   -127.45212    1212.4955    180.00148    566.29695      494.639 0.0011920357 0.0012953923 0.0012147481 
  934000    329.01294   -128.39348   -678.71825   -487.29983    108.95566   -1123.4605 0.0011920921  0.001298548 0.0012205936 
  936000    327.68071   -129.37458    -521.9593   -86.264969    50.182749    100.26079 0.0011899313 0.0012991939  0.001221929 
  938000    277.77039   -127.00378    1681.2879    620.75893   -517.50109    658.09744 0.0011876914   0.00129633 0.0012216113 
  940000     282.5511   -127.91642     -1280.31    99.768225    186.87329   -1346.2474 0.0011869608  0.001293542 0.0012378173 
  942000    293.43883   -127.19924    1899.1159   -299.38101   -91.925221    -362.4076 0.0011839604 0.0012913301  0.001243499 
  944000    298.60183   -127.69058   -294.65794    772.85047    433.16402    562.27934 0.0011817657 0.0012894002 0.0012501453 
  946000    301.37018   -127.48524    236.64416   -549.84152    233.00102    751.09689 0.0011787453 0.0012872584 0.0012587261 
  948000    296.81115   -127.61474    1320.7396   -55.918802    806.51904   -552.20606 0.0011763518 0.0012923723 0.0012597927 
  950000    337.23293   -127.21634   -1151.0709    101.65015     895.3046   -483.40888 0.0011757303 0.0012981591  0.001256177 
  952000    316.03555   -128.37977    1291.5647   -350.93039    705.96481     134.7677 0.0011730837 0.0012973034 0.0012544883 
  954000    273.22055   -126.79314   -76.996995    958.72864    546.95554   -484.06772 0.0011709682  0.001293769  0.001252444 
  956000    276.75833   -127.71626    -22.52566    -560.7227   -909.34319    778.70121 0.0011687061 0.0012957737 0.0012497046 
  958000    326.80244    -128.1503    1072.7229   -38.420771    436.64071   -107.11241   0.00116634 0.0012920652 0.0012466961 
  960000    265.93626   -127.50429   -536.92713   -339.55124   -72.304492     306.8448 0.0011641581 0.0012888628 0.0012443436 
  962000    311.64806   -127.82707    863.55189    87.335119    1142.4663    1003.2663 0.0011615956 0.0012868737 0.0012436235 
  964000    333.00197   -128.19449   -671.48167   -495.92583    189.68857   -524.90169 0.0011588473 0.0012849518 0.0012422394 
  966000    272.32031   -126.90963   -230.65059   -1693.1994   -308.38192    346.61231 0.0011591134 0.0012864898 0.0012401004 
  968000    294.53564   -127.36163    974.66348   -598.23312    440.85114   -1334.4337 0.0011562773 0.0012882917 0.0012408015 
  970000    310.92082   -127.25784   -1263.9236     278.8277   -1362.6289   -1592.9975 0.0011563456  0.001290027 0.0012520104 
  972000    297.51445   -127.10112    1647.0863     154.9408   -371.06941    484.82462 0.0011697576 0.0012871529 0.0012731296 
  974000    301.36908   -128.00926   -386.16834    2068.2968    1213.3182   -493.91169 0.0011781326 0.0012836125  0.001269741 
  976000    282.39968   -127.79825    531.20698   -1079.1516    347.36853    240.53295 0.0012094979 0.0012842689 0.0012669104 
  978000    321.76339    -128.2236    364.83239    574.73379    1357.1553    487.05004  0.001233172  0.001284519 0.0012703514 
  980000    300.65552   -127.79632   -949.11162     271.1584   -34.222105    1104.3423 0.0012473445  0.001289092 0.0012692285 
  982000    300.73564   -127.56119         1654    110.20014    92.979135    671.58733 0.0012550069 0.0012860044 0.0012675616 
  984000    263.06148   -127.27916   -275.69363    429.65329    737.59245   -169.12971 0.0012622462  0.001284161 0.0012651231 
  986000    252.41726   -127.40386  -0.69876381    394.59189    608.88966    1142.8661 0.0012609782 0.0012820501 0.0012654464 
  988000    364.83245   -127.17736    1765.1508    80.130588    1636.4287   -50.050295 0.0012626221 0.0012847632 0.0012640355 
  990000    288.27063   -127.23374   -434.83106    76.280301   -1220.4656    667.04149 0.0012637877 0.0012844264 0.0012618233 
  992000    284.00115   -127.43608    1053.0997   -88.225848   -46.203352   -933.53487 0.0012608022 0.0012837261 0.0012620547 
  994000    305.18909   -127.51737   -837.74906   -208.97825   -671.91484     358.7066 0.0012594074 0.0012838167   0.00126022 
  996000    309.64524    -127.5909   -560.54025    69.213178   -593.80093    20.793869 0.0012568489 0.0012857695 0.0012587997 
  998000    301.35415   -128.10202    936.91787   -1225.1829    1093.9015   -646.38914 0.0012548541  0.001286466 0.0012566985 
 1000000    307.26753   -127.74309   -825.06582    38.813523   -1158.0265   -389.18654 0.0012568758 0.0012840432   0.00125703 
 1002000    268.91239   -127.55911    1097.6657   -455.43953    825.06649    753.65776 0.0012553543 0.0012820703 0.0012546575 
 1004000    292.56213   -127.83418   -76.970811   -725.61356   -274.18265    162.95364 0.0012522101 0.0012802841 0.0012535449 
 1006000    266.49411   -127.38379    1291.7307   -1039.6187    200.85623   -710.53283 0.0012539622  0.001278469 0.0012532523 
 1008000     321.4604   -127.01838     117.6487     -1116.17    466.44026    354.66365 0.0012580534 0.0012756262 0.0012547921 
 1010000     350.2446   -127.84593   -421.06101    463.77024    187.46246   -324.49048 0.0012630985 0.0012728325 0.0012538973 
 1012000    275.08584   -127.55379    1739.9185   -767.63378   -194.27726    513.19692 0.0012630826 0.0012751928 0.0012520866 
 1014000    275.46935   -127.32874   -831.21014   -465.62028   -804.28832   -413.43192 0.0012646193   0.00127229  0.001249984 
 1016000    296.77755   -127.28767    615.85195   -222.75877   -501.95757    220.31688 0.0012675613 0.0012693947 0.0012473529 
 1018000    301.16425   -127.50969    169.47535    878.02263    561.76056    998.42862 0.0012679921 0.0012678051 0.0012453453 
 1020000    322.17982   -127.64111   -709.98624    324.13945    922.56269   -15.948588 0.0012689896 0.0012651035 0.0012437987 
 1022000    325.68578   -127.55314    752.46942    285.19267    672.60905   -1775.9579 0.0012682546 0.0012626239 0.0012406909 
 1024000    305.84255   -127.23823    -352.3176    307.22141     1309.154    322.10255 0.0012656732 0.0012603963 0.0012391633 
 1026000    337.77601   -126.91646    436.68324    49.655193   -572.03908   -368.87154 0.0012684278 0.0012665348  0.001240936 
 1028000    322.56012   -127.59727    644.56416    352.36051    953.48217    599.49302 0.0012631256 0.0012703045 0.0012383879 
 1030000    290.73561   -127.18274   -144.83615    102.77206    1238.4122   -623.92246 0.0012644492 0.0012715425 0.0012357941 
 1032000    305.06247   -127.17009    1570.5312   -551.26884    80.435268     -432.314 0.0012618456 0.0012708295 0.0012337647 
 1034000    307.01229   -127.70747   -416.07439   -520.84801    392.78344    1379.9498 0.0012618513 0.0012702027 0.0012349023 
 1036000    309.36177   -127.11364    510.10935    1269.8371   -664.80939   -1043.3737 0.0012590647 0.0012679098 0.0012308073 
 1038000    298.68245   -127.20256    1212.7975   -13.981547    223.23357    1125.8086 0.0012581578 0.0012665265 0.0012285345 
 1040000    334.59813   -127.10783    35.710003   -335.94118   -553.20461    264.53351 0.0012566245  0.001264792 0.0012282124 
 1042000    313.34455   -127.86621    767.17647   -759.97528    740.05494   -262.60048 0.0012571817 0.0012645755 0.0012267826 
 1044000    282.73878   -126.59374    469.45658   -311.38955    561.08659    269.19177 0.0012569035 0.0012707793 0.0012282015 
 1046000    278.67131   -126.31967    998.15514    698.71221   -492.80125   -1077.4396   0.00125437 0.0012740738 0.0012258867 
 1048000     258.6273   -127.15645    247.53763    637.74427    2053.7564   -118.71313 0.0012519638 0.0012715271 0.0012233702 
 1050000    313.86194   -127.67072   -1462.8842    814.63259   -1224.2358   -418.36869 0.0012497741 0.0012712641  0.001229017 
 1052000    315.78928   -127.16292    690.80464    371.53093    354.44292   -255.78436 0.0012475929 0.0012721368 0.0012353964 
 1054000    294.88112   -127.28788   -559.21952   -518.40386   -579.85085    18.567913 0.0012456031 0.0012710012 0.0012369822 
 1056000    262.58672   -128.15975   -1070.9432   -141.69202   -875.21125   -417.05557 0.0012441065 0.0012685974 0.0012340081 
 1058000    337.26987   -128.26766    290.05559     305.5153     1418.382   -820.94782 0.0012419736 0.0012656938 0.0012322546 
 1060000    291.46687   -127.14811   -1072.6577     410.9999   -829.63678    -136.4979 0.0012396535 0.0012625404 0.0012302146 
 1062000    304.22012     -126.848    1238.8841   -574.81655    448.02581   -724.21879 0.0012382344 0.0012600727 0.0012300016 
 1064000    295.51642   -128.13166   -325.84842   -1065.4852   -80.599508   -124.41945 0.0012431418 0.0012593718 0.0012301433 
 1066000    271.33612   -127.28093    -247.6984    -42.60384   -1199.1212    174.14804 0.0012431111 0.0012588739 0.0012274179 
 1068000    301.34218   -126.82153    918.02816   -349.86908    1473.7702    41.485063 0.0012409321  0.001257411 0.0012258645 
 1070000    268.51811   -127.61888   -1197.9554    256.47409   -1057.5652    487.19298 0.0012416156 0.0012562987 0.0012262317 
 1072000    293.58694   -128.06192    1114.0799   -432.88375   -62.877346    574.31686 0.0012389914 0.0012541577 0.0012241011 
 1074000    316.69338   -126.64513    395.04186   -1.4095763    144.30608    -112.7908 0.0012385449 0.0012535465  0.001227777 
 1076000    312.30757   -127.64629   -32.819618   -271.86127    894.13132    365.34192 0.0012365796 0.0012510858 0.0012257355 
 1078000    296.90886   -127.12622    802.14269   -248.63013    671.77325   -424.85457 0.0012345057 0.0012494095 0.0012233651 
 1080000    321.52502   -127.35271   -1229.5553    981.95519   -2511.0216    552.04388 0.0012333462 0.0012480096 0.0012210829 
 1082000    299.40738   -127.85884    278.48984    1181.3243    393.14505   -398.14908  0.001232586 0.0012458915 0.0012187602 
 1084000    275.45327   -127.66527   -650.43673     391.1516    259.65024   -667.91347 0.0012359264 0.0012452251 0.0012183088 
 1086000    299.77261    -128.5918   -666.98131   -1079.8072    382.28224   -270.97864 0.0012365192 0.0012486777 0.0012153868 
 1088000    350.62774   -127.64258    631.89146   -290.04471    859.08756   -378.15576 0.0012339761 0.0012564731 0.0012128646 
 1090000    309.28755   -127.18785   -724.60571    -84.39493    -654.6908   -226.97851 0.0012318086 0.0012588053 0.0012108859 
 1092000    308.09337   -126.34949    2346.1522   -1270.4051    1015.9903   -328.85201 0.0012302449 0.0012566314 0.0012089542 
 1094000    295.83175   -127.30207   -289.62984   -15.465373    489.21525   -45.842307 0.0012286757  0.001260672 0.0012078507 
 1096000     288.2627    -128.1703    -947.0479   -165.63728   -830.08448   -544.56086 0.0012263461  0.001260046 0.0012078723 
 1098000    314.83698   -127.89217    123.59044    164.49158    -685.2845    309.04441 0.0012246223 0.0012576724 0.0012055186 
 1100000     320.2003   -126.62019     332.8264    1183.1256   -471.82179    347.30283 0.0012252395 0.0012555595 0.0012035834 
 1102000    308.96404   -126.06065    2231.3265   -359.84027    1094.1132   -55.396686 0.0012230883 0.0012529404 0.0012038106 
 1104000    292.52395   -127.93453   -35.242328   -645.48868   -90.818162     580.4183 0.0012215719 0.0012506476 0.0012044078 
 1106000    297.83802   -127.28767   -252.63021    -1057.668   -327.32282    420.34041 0.0012231732  0.001250744 0.0012019417 
 1108000    291.54024   -127.14414    1247.0599   -1308.3297   -641.42108    464.72681 0.0012267691 0.0012484296 0.0012003072 
 1110000    302.18474   -127.68778   -1506.9492    473.84485    -333.1845    452.33855 0.0012294617 0.0012458792 0.0011983031 
 1112000    277.12272   -127.63922    999.91923    349.02162   -786.65187   -280.99579 0.0012277619 0.0012455858   0.00119651 
 1114000    315.36924    -127.1748    125.14395     524.2611    -237.2228    631.73794  0.001225397 0.0012436856 0.0011951825 
 1116000    267.05833   -126.66328    520.65717   -1031.4613    -564.8024    485.98599 0.0012261738 0.0012438402 0.0011937695 
 1118000    298.46647   -127.07594    1455.0161    192.72185   -366.85548    436.74749  0.001230651 0.0012525648 0.0011912618 
 1120000    333.73634   -126.27275   -845.86343   -759.21754    92.025708   -710.96304 0.0012344087 0.0012518276  0.001192906 
 1122000    284.65645   -127.20358    1452.0536    182.95676    1042.9985   -63.034102 0.0012361277 0.0012551479 0.0012007658 
 1124000    314.37603   -126.86632    180.21647   -409.42027   -777.00451    -121.4672 0.0012388664 0.0012543679 0.0011990843 
 1126000    308.22179   -127.14913   -766.05814   -1054.8585    141.23999    420.16847 0.0012379972 0.0012518118 0.0011974426 
 1128000    312.07354   -126.88624    1903.9763   -434.91623    349.21157   -431.48364 0.0012368301 0.0012510065 0.0011955348 
 1130000    302.71439   -127.11252   -1052.7164    376.73957    214.86516   -319.93418 0.0012351751  0.001248949 0.0011932995 
 1132000    291.05994   -126.74238    1434.5819   -819.69134   -17.500388    -41.82359 0.0012329642 0.0012468275 0.0011919902 
 1134000     362.5385    -127.0352     64.60284    90.511602   -431.14438    78.292815 0.0012310182 0.0012448757 0.0011907954 
 1136000    319.22612   -127.05263   -98.694442    185.20801    653.83535    520.39207 0.0012323198 0.0012443739 0.0012017477 
 1138000     301.9809   -127.18547    1547.2812   -904.43972     725.3228    828.03894 0.0012325292 0.0012424745  0.001212892 
 1140000     260.7535   -128.12682   -1591.0218   -668.66456   -159.10219   -64.542333 0.0012300393 0.0012439919 0.0012168872 
 1142000    281.94099   -127.30702    1174.8854   -537.78219   -465.41358    837.20417  0.001230431 0.0012446577 0.0012172855 
 1144000    294.51254   -127.88554    292.37885   -228.11654    404.84313    19.778804 0.0012280347 0.0012436759 0.0012164445 
 1146000    316.23311   -128.09478   -824.09615   -139.42094    336.82226   -703.59015 0.0012296612 0.0012415794 0.0012233371 
 1148000     298.1988   -127.09358    1982.9931   -1295.2041   -79.135483   -329.49262 0.0012337389 0.0012397549 0.0012356054 
 1150000    342.37355    -127.6762   -1411.7017    1005.9594    825.90502    135.40765 0.0012413758 0.0012375305  0.001238838 
 1152000    284.85219   -127.87158     424.7485   -98.972216    31.464909    945.71174 0.0012428779 0.0012373177 0.0012467138 
 1154000    310.42799   -127.32447    587.16434   -784.91398    682.35832    425.15604  0.001240759 0.0012365042 0.0012590051 
 1156000    291.98391   -127.32221    -637.1729    -989.5981    870.35986   -413.11843 0.0012413182 0.0012372585 0.0012667698 
 1158000    314.24159   -127.67063    1752.2829    475.17921   -1373.1908   -990.63515 0.0012431218 0.0012344885 0.0012646874 
 1160000    298.18762   -126.93822   -960.36149    174.22969   -70.601058    249.38928 0.0012405631 0.0012316849 0.0012634209 
 1162000     292.2104   -127.37434      849.485   -949.46152   -397.99381     800.0976 0.0012405884 0.0012334828 0.0012623627 
 1164000    323.63887   -127.58119    555.97916    339.58521    538.09928   -243.06165 0.0012386489 0.0012401651 0.0012605897 
 1166000    285.07256   -127.57145   -1097.9788     64.78734    946.84637    377.12887  0.001242373 0.0012449389 0.0012599969 
 1168000    323.99473   -128.19639    602.07004   -881.73037   -594.43919    1313.0895  0.001240644 0.0012473397 0.0012593931 
 1170000    293.53759   -127.50168   -1381.1113    761.71442    1654.6847   -913.35161 0.0012392309 0.0012492306 0.0012570131 
 1172000    291.30581   -127.61312    942.09805    297.90964    81.510041    644.38052 0.0012382821 0.0012531169 0.0012547927 
 1174000    281.80194    -127.8603   -132.26787     1253.325     134.9232   -81.995998 0.0012397338 0.0012508031 0.0012560946 
 1176000    303.59037   -127.49596   -585.61674     0.761448   -587.07988     173.2071 0.0012371718 0.0012488377 0.0012567526 
 1178000    305.30626   -126.83443      2301.64    205.61762    -37.82668   -765.82034 0.0012361671 0.0012465671 0.0012576994 
 1180000    287.48836   -127.36908   -428.53614   -886.43439    129.35757     1732.157 0.0012352741 0.0012491648 0.0012667913 
 1182000    307.54655   -128.14945    337.79043   -605.11839    343.72154   -831.27245 0.0012344857 0.0012601925 0.0012769317 
 1184000    296.77002   -126.89908    829.11888    971.34196    308.41362    117.63489 0.0012340628 0.0012603076 0.0012772123 
 1186000    296.64684    -126.6141   -25.479032    -507.5773     24.05381     302.7747 0.0012479839  0.001265992 0.0012778044 
 1188000    294.45116   -127.22776    1399.3273    115.34404    1286.8207     37.95273 0.0012464192 0.0012655654 0.0012825838 
 1190000    296.00561   -127.67764   -1239.6528   -48.617176    147.19581    690.96713 0.0012453912  0.001263816 0.0012823975 
 1192000    300.36662   -128.34321    -412.6808   -276.48582    996.40869   -1037.5799 0.0012457756 0.0012614491 0.0012806042 
 1194000    302.28929   -126.56399    288.32749    485.26383   -692.78319    415.62223 0.0012562604  0.001262032 0.0012786183 
 1196000    287.94031   -127.32237   -484.52049    136.97758   -77.774136   -969.07738  0.001261654 0.0012603601  0.001278405 
 1198000    294.65879   -126.48066    1162.1228    1180.1014     621.0742   -682.87888 0.0012589952 0.0012596353 0.0012801367 
 1200000     301.3966    -125.6705    252.56447   -1133.9644   -744.19845    1141.5107 0.0012578032 0.0012577181 0.0012807383 
 1202000    264.36247    -127.8071    270.70954   -1723.2327   -1018.8465    1366.3293 0.0012562445 0.0012618853 0.0012789518 
 1204000    316.90872   -127.97754    407.22841    972.71919   -540.82929   -233.75951 0.0012553357 0.0012652997 0.0012764363 
 1206000    320.85206   -128.32191    -1558.005    877.04002    294.70277      60.3337 0.0012535967 0.0012641388 0.0012746888 
 1208000     300.6547   -127.24114    1498.4507    35.033273    50.744974    363.18078 0.0012525121 0.0012650541 0.0012750662 
 1210000    303.38923   -127.79706   -545.94353    819.42202    585.33541   -641.71574 0.0012507144 0.0012643091 0.0012727216 
 1212000    256.62237   -127.71897    235.47429    -44.16301    602.96563   -532.37392 0.0012487012 0.0012634379 0.0012715274 
 1214000    266.09432   -127.59651    155.43567    689.47847    931.44117    491.45229 0.0012534156 0.0012638064 0.0012735637 
 1216000    295.11228   -127.30609   -1010.9695     241.7923   -251.23764   -324.84018 0.0012506565 0.0012609952 0.0012731214 
 1218000    286.77936   -127.52807    1310.4173    667.99407   -739.89283    -1229.387 0.0012544335 0.0012597525 0.0012700323 
 1220000    321.06161   -128.15265   -1377.2767   -116.41432    283.50518    444.81895 0.0012569735 0.0012588856 0.0012700651 
 1222000    299.62686   -126.94011    828.90462    961.08387   -947.21523    1276.9501 0.0012566879 0.0012594761 0.0012688169 
 1224000    323.74742   -127.24231    936.24183    267.00324   -657.38535   -329.43789 0.0012544862 0.0012573847 0.0012664799 
 1226000    308.80619   -127.19478   -450.33668     601.8447   -30.035591    -144.0903 0.0012521767 0.0012545423 0.0012644144 
 1228000    334.75362   -126.84373    2173.2081   -1016.4273   -1041.7161   -618.21037  0.001251508  0.001252614 0.0012623301 
 1230000    339.91402   -127.23552   -383.95104   -143.09675   -263.18162    1085.8376  0.001249955 0.0012548799 0.0012602635 
 1232000    286.94787   -127.73163    436.81763    343.55808   -462.22911    -463.0042 0.0012518715 0.0012574254 0.0012615882 
 1234000    300.31734   -127.63184    593.07715   -82.476423    449.25307    980.47872 0.0012506797 0.0012556733 0.0012616412 
 1236000    312.71736   -127.62405   -694.49108    189.99449    178.82217    1066.1984 0.0012486129 0.0012541406 0.0012590529 
 1238000    314.82199   -127.54612     1444.465   -1124.7328     883.0293   -17.421913 0.0012477463 0.0012539516 0.0012565721 
 1240000    292.22461   -127.57621   -458.63972   -64.908781    362.79482    1356.3865 0.0012466027 0.0012628069 0.0012580417 
 1242000    353.55641   -127.63258    1187.2635    209.52561    445.17158    489.54451 0.0012446071  0.001261757 0.0012654057 
 1244000     328.0274   -127.77677   -367.20384     -688.507   -20.123007   -158.17922 0.0012499296  0.001268562 0.0012681914 
 1246000    297.89012   -127.22564   -391.17928   -810.21101   -147.89257   -948.77701 0.0012476001 0.0012648652  0.001266274 
 1248000    273.59762   -128.40394    115.75934    661.41043    709.05026   -756.42834 0.0012464792 0.0012652828 0.0012640518 
 1250000    290.19833   -127.54446    -1085.358    1890.7369   -224.97254    61.005642 0.0012462068 0.0012682076 0.0012625782 
 1252000    301.46926   -127.86109    292.38916    234.42251    606.40996    -775.0426 0.0012464097 0.0012658519 0.0012754104 
 1254000    291.99342   -127.27953    126.54235    905.43726    -147.1783    426.12034 0.0012465477 0.0012646201 0.0012877583 
 1256000    279.18606   -127.53123    324.26051   -1.1190518   -1018.3169    44.765719 0.0012470939   0.00126222 0.0012965061 
 1258000    269.03296   -127.26038    1287.0592   -604.26462   -676.94106    1353.8755  0.001245171 0.0012609109 0.0012998915 
 1260000    274.19172   -127.99372   -482.85712   -816.43057    512.51194   -282.10837 0.0012431911 0.0012589566 0.0013014314 
 1262000     269.1873   -128.37628    410.70168   -241.49035   -960.25921    302.24423 0.0012412756 0.0012584532  0.001301505 
 1264000     295.6872   -127.06136     638.6737   -299.25339    681.35799    168.92252 0.0012401854  0.001257016 0.0013023111 
 1266000     280.5406    -127.9904    221.59426   -756.97572     1129.695    -1376.798 0.0012399246 0.0012560411 0.0013002929 
 1268000    304.77481   -128.51401    550.91983    1030.3539    189.11538    170.96273 0.0012426203 0.0012543257  0.001298602 
 1270000    289.96737   -126.76084   -616.86351    193.95468    1647.5237    61.858734 0.0012404474 0.0012534445 0.0012977967 
 1272000    283.74162   -127.52447    243.98726   -746.19667    325.64503    628.80701 0.0012412774 0.0012712345 0.0012999336 
 1274000    274.93701   -126.66129   -281.56884    48.403797    -325.5135    1366.6876 0.0012401505 0.0012747231 0.0013080881 
 1276000     301.6885   -127.39252    228.43478   -598.00231   -456.91023    448.54347   0.00123909 0.0012743743  0.001312493 
 1278000    306.41871   -127.78619    1219.2102   -1674.6466   -561.06165    345.04592 0.0012426935 0.0012724772 0.0013168427 
 1280000     291.9862   -127.32342   -37.862359      -622.77   -824.92295    -197.0133 0.0012532124 0.0012709681 0.0013191172 
 1282000    280.50383   -128.09401    586.42852   -663.66306    -469.2406     261.8423 0.0012567046 0.0012693543 0.0013187362 
 1284000    278.78542   -127.41528    112.16384    255.96403   -863.99728   -862.48828 0.0012560794 0.0012677013 0.0013168073 
 1286000    280.16757   -128.12108    -369.5648   -775.32247   -596.15515    231.73132 0.0012544611 0.0012657447 0.0013148128 
 1288000    332.64145   -127.17632    1006.2796   -479.95119   -905.09293    641.69294 0.0012517128 0.0012649672 0.0013151911 
 1290000    317.24258   -127.08722    -905.3917    740.73352    239.79946   -135.93884 0.0012487227 0.0012630381 0.0013141193 
 1292000    306.51381   -127.12662    482.18111    108.70473    1439.4545    426.08736 0.0012470965 0.0012619119 0.0013123993 
 1294000     275.1999   -127.74881   -188.89136      318.925    865.35288      310.466 0.0012463548 0.0012605414 0.0013109215 
 1296000     286.2406   -127.64794    359.64366   -403.36139   -653.92622    446.09668 0.0012456195 0.0012622524 0.0013131868 
 1298000    300.60908   -128.27318       724.67    186.47953   -564.38965    549.91529  0.001244319 0.0012605359 0.0013147182 
 1300000    294.69036   -127.94234   -389.11093   -226.57906   -1597.3536   -92.454983 0.0012467123 0.0012589588 0.0013129438 
 1302000    300.09248   -127.57943    1047.7017   -2.7232471    -788.5749    935.73424 0.0012446126   0.00125888 0.0013112453 
 1304000    253.38977   -127.42839   -125.91339   -757.63646    75.925044    739.30217 0.0012523649 0.0012576468  0.001310383 
 1306000    324.68103   -127.44558    -801.7278   -45.810148   -1221.3065   -269.24856 0.0012504361 0.0012569169 0.0013108743 
 1308000    309.76263   -127.54471    688.79146    219.79239   -819.25981   -507.05009 0.0012485228 0.0012599039 0.0013099921 
 1310000    276.27603   -126.90311   -953.55998    2003.3543    160.16244    169.45697 0.0012469625 0.0012598519 0.0013089081 
 1312000    276.02339   -126.62153   -82.645458    1074.5219   -1861.1978    155.05012 0.0012483924 0.0012633641 0.0013089141 
 1314000    325.47944   -127.26664    804.57343     1276.573    59.357263   -704.91559  0.001251157 0.0012661711 0.0013066492 
 1316000    314.88288   -127.15114   -92.811471    1307.0694    2.9270899    245.15003  0.001249903 0.0012651508 0.0013047138 
 1318000     262.1087   -127.72152    317.53768    606.78318    319.30343    190.05278 0.0012482611 0.0012632941 0.0013037622 
 1320000     311.5643   -127.66744    -436.5656    385.70314   -145.50842   -1123.2473 0.0012463687 0.0012633571 0.0013069699 
 1322000    322.89055   -126.17813    1371.5494   -657.62053   -812.96221   -502.40512 0.0012443767 0.0012628556 0.0013052941 
 1324000    282.56935   -127.51623    100.08661   -748.99321    81.514157   -823.69713 0.0012457406 0.0012607235 0.0013030946 
 1326000    268.56273   -127.30576    216.85849    45.201039    259.05858   -61.190232  0.001247878 0.0012587454 0.0013047226 
 1328000    316.76738    -127.4841    1978.4416   -883.04184    967.84009    332.74462 0.0012462354 0.0012578717 0.0013040215 
 1330000    311.16023   -127.86601   -540.41343     1177.638    569.79756    325.73244  0.001244628 0.0012561256  0.001308567 
 1332000    314.62111   -127.16099    1177.4041    531.50828    344.78272   -997.96061 0.0012430292 0.0012549446 0.0013065743 
 1334000    313.49095   -127.42678    533.59076   -715.98002    265.27659    370.92383  0.001244375 0.0012536329 0.0013060144 
 1336000    280.12961   -126.79478   -279.25277    134.19268   -1166.6689     959.0468 0.0012509227  0.001251798 0.0013047092 
 1338000    286.77594   -127.04124    851.48104   -80.312805    929.44266   -718.83908 0.0012592007 0.0012506761 0.0013027309 
 1340000    293.72631    -127.5929   -415.63468    867.22655    286.79554   -458.36968 0.0012639048 0.0012492862 0.0013030854 
 1342000    332.74148   -128.05652   -129.44521    418.02255    403.71904    209.82926 0.0012634253 0.0012476702 0.0013120957 
 1344000    354.81647   -127.30943    164.73719   -57.825651     1108.207    225.04033 0.0012635559 0.0012533265  0.001315116 
 1346000    291.26254   -127.51818   -989.00713    1178.9517   -321.32912    912.78298 0.0012629317 0.0012515826 0.0013135905 
 1348000    292.08139   -127.82277    894.89947   -937.27053       1805.2    6.0549582 0.0012606361  0.001249913 0.0013130915 
 1350000    301.54099   -128.29331   -1200.3838   -150.40324   -454.08354    844.08728 0.0012598746 0.0012484325 0.0013114517 
 1352000    288.94539   -128.11597    -4.178237    -811.4462   -417.06105   -999.16218  0.001258575 0.0012505984 0.0013097887 
 1354000    284.72915   -127.81052    101.40066    387.74395   -536.92441    131.41508 0.0012577766 0.0012497053   0.00130869 
 1356000    300.20428   -126.99046   -612.67765   -529.21665   -445.16482   -855.92535 0.0012557106 0.0012484301    0.0013074 
 1358000    315.71048   -129.03052   -285.44228    511.16852   -651.51394   -28.787367 0.0012540691 0.0012468996 0.0013056993 
 1360000    293.49805   -127.65799   -370.69768     196.5265    967.58741   -847.94614 0.0012522778 0.0012451181 0.0013034003 
 1362000    292.70301   -128.00595    172.78334    505.76835    696.87007   -920.59042 0.0012501178 0.0012431663  0.001301858 
 1364000    292.79344   -128.37076    -516.8087    477.41995    1548.8214   -612.54994 0.0012492028 0.0012445826 0.0013005401 
 1366000    286.94136   -127.37892    786.67515   -919.44514   -169.34229    481.84204 0.0012481328 0.0012433785 0.0013033883 
 1368000    281.81558   -127.69174    1173.7369    351.62236   -373.03769     185.3344 0.0012462751 0.0012421046  0.001301644 
 1370000    305.37661   -127.96199    296.84052   -1527.1184   -544.73601    363.84945 0.0012447881 0.0012404538 0.0013007249 
 1372000    282.93138   -127.71383    1055.6426   -660.06405   -628.44376    1302.9207 0.0012432024 0.0012386676 0.0013018438 
 1374000    312.23052   -127.24045    686.26833    167.41438   -1528.2947    625.14782 0.0012416777 0.0012372048 0.0013008869 
 1376000    276.57653   -127.97232   -87.171079   -163.19047   -115.11602    32.193622 0.0012401921 0.0012360213 0.0013008831 
 1378000    304.95941   -126.92904    482.67398   -997.93643   -1708.7353    1965.8667 0.0012391796 0.0012344529 0.0012990017 
 1380000    326.66841   -128.05088   -890.01686   -1206.4415   -1438.9024   -435.03333  0.001237833 0.0012342177 0.0012974642 
 1382000    315.58579    -127.4465   -554.18022    406.39326    193.59084     83.98968 0.0012352888 0.0012321962 0.0012967976 
 1384000    298.37329   -127.74861   -155.02973   -162.28229   -133.45749   -1076.1141 0.0012339237 0.0012301275 0.0012959142 
 1386000    301.98164   -127.77974   -930.28061   -948.63223    1256.0449   -494.23182 0.0012321251 0.0012280232 0.0012979541 
 1388000    284.11506   -127.80123    659.31022    1983.2128    1418.1364   -832.65493 0.0012303829 0.0012262227 0.0013089899 
 1390000    332.08518   -127.28139    1011.4892    424.76174    478.65692   -893.38759 0.0012288255  0.001228384 0.0013099569 
 1392000    324.87727   -127.42382    483.00397    1204.8645    1297.9416   -537.02776 0.0012294077 0.0012312547  0.001310042 
 1394000    288.22804   -127.71752    759.46165   -317.60604   -921.17282    286.56816 0.0012298709 0.0012447199 0.0013108048 
 1396000    274.05499   -127.75692    453.00065    639.70336   -434.09159   -441.67849 0.0012280853 0.0012490894 0.0013117305 
 1398000    324.29749   -127.91047    211.07249   -286.15702   -1705.1423    2239.9273 0.0012263394  0.001248957 0.0013113537 
 1400000     304.6097   -127.73071    396.35322   -537.36265   -514.63072    -426.0392 0.0012275383 0.0012559784 0.0013090222 
 1402000    302.18653   -127.71566   -576.77545    478.19769   -1271.7208   -567.48833 0.0012280597  0.001256386 0.0013104592 
 1404000    284.12375   -127.50598     76.43174   -187.26813   -314.30671    444.47331  0.001227961 0.0012554809 0.0013089341 
 1406000    285.57143   -126.89729   -231.37717    410.29369    -652.3592    310.51434  0.001226524  0.001254132 0.0013067189 
 1408000    332.09192   -127.24374    288.30966      1509.25   -937.25382    858.79138 0.0012249099 0.0012536769 0.0013050401 
 1410000    304.46463   -127.89213    630.86929   -979.22235    1803.7029   -464.19698 0.0012230966 0.0012526413 0.0013029906 
 1412000    293.56427   -127.83998   -654.53007    685.83173    893.70208   -251.31256 0.0012223445 0.0012502528 0.0013020057 
 1414000    299.34919   -127.97716    418.07402    -188.4016    3112.4463   -5.4771982 0.0012237839 0.0012485838 0.0013002403 
 1416000    287.53347   -128.62153   -833.78603   -533.94229    313.93955    462.95273 0.0012232153 0.0012470423 0.0012995066 
 1418000    283.85518   -127.72834    884.20548   -585.73629   -297.21696    767.06508 0.0012215265 0.0012485981 0.0012978674 
 1420000    291.24534   -127.38243    419.85746   -566.83051    1132.1286    1087.6925 0.0012213053 0.0012498315 0.0012965304 
 1422000    272.80451   -127.34802   -232.48386    103.33381    635.01792    616.21503 0.0012193889 0.0012488138 0.0012947024 
 1424000    297.52702    -127.2072    605.61871    1363.3967   -275.25849    365.94259 0.0012139552 0.0012478096 0.0012927242 
 1426000    328.03091   -126.96311   -604.51171    1210.2449    655.39113   -399.37868 0.0012113474   0.00125292 0.0012921273 
 1428000    308.74722   -127.65849   -301.21585    114.58757   -172.19852   -1333.9711 0.0012094643 0.0012502187 0.0012901329 
 1430000    311.01879   -127.74153    -1181.905    -85.91334   -267.05854   -812.48496 0.0012106639 0.0012489097 0.0012885677 
 1432000    322.60475   -126.44569    101.58144   -433.64231   -677.28931   -374.24868 0.0012173378 0.0012492732 0.0012876753 
 1434000    301.35631   -127.88623   -23.838437   -166.69663   -233.03563   -1197.0111 0.0012170773 0.0012476301  0.001286744 
 1436000    291.39526   -127.61524   -526.21107   -717.64488   -456.18359   -700.08012 0.0012169884 0.0012467862 0.0012845284 
 1438000    271.17638   -126.97588    680.30668   -907.75108   -842.98819   -1602.2701  0.001216137 0.0012491141 0.0012831359 
 1440000    315.23315   -126.90797    701.16606    1147.2795   -688.62527    605.62419 0.0012151149 0.0012499554 0.0012812306 
 1442000     303.6022   -128.14412   -57.752163   -279.72777   -1281.4809    571.42589 0.0012132049 0.0012515953  0.001282385 
 1444000    290.09034   -127.28723    961.67805    2026.9591   -1282.2633    -144.9595 0.0012118652 0.0012612764 0.0012824961 
 1446000    315.89264   -126.74478   -166.57681   -500.49865   -1285.3449    912.92426  0.001210154 0.0012649296 0.0012822119 
 1448000    296.95622   -126.39094    1632.5206   -299.27809   -1735.1047   -546.36788  0.001208193 0.0012669592  0.001280841 
 1450000     292.9731   -127.66014   -70.462835    725.76419    699.14376    453.47728 0.0012083334 0.0012683556 0.0012792786 
 1452000    337.20979   -127.77347   -922.87005   -429.20216    -812.5976   -913.49667 0.0012088361 0.0012702874 0.0012776295 
 1454000    273.08293   -127.60049    150.69169    -69.47357   -150.46929    215.78761 0.0012083838 0.0012772587 0.0012760283 
 1456000    315.14054   -127.46579   -1347.5579   -235.91844    -784.7978   -36.325636 0.0012074602 0.0012777025 0.0012771189 
 1458000    269.82608   -126.31976    1451.1036   -1158.5035   -1308.5868    1136.1262 0.0012100134 0.0012764794 0.0012766413 
 1460000    310.66083   -126.85345     620.2942   -398.50053    613.88769   -450.06069 0.0012101665 0.0012749102 0.0012755213 
 1462000    286.81444   -126.88465    1354.0582   -186.40783    190.39597    508.16608 0.0012093567 0.0012742085 0.0012733226 
 1464000    277.81003   -127.85711    992.51554   -123.41659    1494.2409    523.86377 0.0012072204 0.0012732711 0.0012715245 
 1466000    312.43563   -127.12659    272.81955    940.85062    618.21502   -1270.1197  0.001205724 0.0012720264 0.0012703337 
 1468000    300.28725    -127.6898    875.46605    982.40581    622.69716    1169.1466 0.0012046798 0.0012728767 0.0012695151 
 1470000     299.9286   -127.99631   -462.72866    711.71879    193.28316   -111.30594 0.0012041949 0.0012775278 0.0012693411 
 1472000     291.3069   -127.35004   -236.60569    376.05502    71.149144   -744.56313 0.0012059451 0.0012783151 0.0012678704 
 1474000    332.24903   -127.09753    616.86816    1169.4369   -86.126167   -915.57651 0.0012131122 0.0012764819 0.0012658973 
 1476000    302.87689   -127.22622   -204.14614   -852.32464   -127.74495   -418.79532 0.0012145052 0.0012748986 0.0012695727 
 1478000    269.95871   -127.22812    235.06779    144.07708   -1589.2195     199.4995 0.0012125073 0.0012747275 0.0012689619 
 1480000    299.51277   -127.24761   -364.30645    158.57857     185.9664   -916.39259 0.0012106428 0.0012738215 0.0012734224 
 1482000    313.07386   -127.23847    136.67683    275.31839   -2627.7707   -141.78736 0.0012092228 0.0012730934 0.0012762501 
 1484000    310.29161   -126.64822     206.1574    338.39239   -2139.7449   -1117.3513 0.0012077725 0.0012716557  0.001276554 
 1486000    277.67124   -127.85279    -53.37573   -241.71627    723.21765    1015.9002 0.0012062271 0.0012696014 0.0012748669 
 1488000    308.95106   -128.55223   -441.23488    509.82598     1587.379     54.28741 0.0012052422 0.0012676198 0.0012738807 
 1490000    301.26505   -127.40163    283.59232    335.31225    1391.8831    877.50768 0.0012140624 0.0012682361 0.0012773935 
 1492000    336.18402   -128.41447   -93.587055   -180.39709    2329.2282    435.55571 0.0012176197 0.0012666546 0.0012821474 
 1494000    295.95618   -127.47628    304.25095   -1279.7732    409.19564    222.72829 0.0012168406 0.0012648759 0.0012823661 
 1496000    334.19589   -127.72051   -212.63241   -508.58608   -126.33271   -213.61169 0.0012204382 0.0012638664 0.0012802986 
 1498000    334.59545   -127.38524   -102.30558   -326.20782   -425.57057   -1139.6821 0.0012237316 0.0012618311 0.0012827377 
 1500000    292.25414   -127.58233    503.66423   -94.241108   -179.83115    469.06226  0.001224359 0.0012606492 0.0012855388 
 1502000     313.6579   -127.79713    601.45077     172.1118    -1320.719   -710.61172 0.0012283986 0.0012607912 0.0012838569 
 1504000    280.11382   -128.11687    -51.59221   -1048.0298   -655.15255    93.614215 0.0012285541 0.0012617481 0.0012822698 
 1506000    287.07625   -126.64401    1340.5653    -359.6552    -1142.894    433.11797 0.0012271602 0.0012611193 0.0012802756 
 1508000     252.1461   -127.23996    636.24684    1043.1668   -123.09014   -312.26875 0.0012260688 0.0012604818 0.0012799074 
 1510000    305.33472   -127.20663     314.8915   -265.44308   -173.25985    469.33783 0.0012244552  0.001258949  0.001279139 
 1512000    304.95115    -128.2801   -776.88081    569.64329    23.280418   -141.17573 0.0012229459 0.0012617783 0.0012791535 
 1514000     318.8468   -127.07933   -258.38941    1419.5142    298.62988   -116.41714 0.0012221683 0.0012605079 0.0012779942 
 1516000    294.35124   -128.35672   -1454.1006     987.6414    332.94215   -288.42393 0.0012224705 0.0012588832 0.0012765464 
 1518000    300.18096   -128.18131   -735.10897    914.38996   -1006.7565    269.67679 0.0012212181  0.001258027 0.0012749476 
 1520000    288.43427   -127.17715    184.20026   -1158.1253   -692.72029    966.91722  0.001219988 0.0012617286 0.0012739324 
 1522000    292.33084   -127.78566   -31.498097     436.5943   -504.73336    365.13013 0.0012217155  0.001262643 0.0012725394 
 1524000    274.81258   -128.25299    132.78632   -266.22902    515.69961   -559.08058 0.0012250839 0.0012616185 0.0012703607 
 1526000    307.75384   -127.98927   -640.19529    1238.0728    646.69343   -888.34117 0.0012278309 0.0012601974 0.0012684829 
 1528000    281.67727   -127.77517    477.50113    334.07268   -640.47991   -1416.3763 0.0012273121 0.0012599984 0.0012662229 
 1530000    313.80303    -127.8285    753.03091     45.75442   -708.83187    636.27367 0.0012253635 0.0012609274 0.0012647654 
 1532000    340.16711   -127.58668    341.99298    420.23616   -648.09456    277.88376  0.001227051 0.0012594764 0.0012634534 
 1534000    317.89179   -127.94514    537.29632    -629.4655   -207.28232    50.386745 0.0012264866 0.0012583152 0.0012633298 
 1536000    290.20806   -126.82899     202.5491   -115.59199   -304.94179    636.90909 0.0012248832 0.0012577581 0.0012615456 
 1538000    296.09731   -127.59805    1048.6003   -648.85495     1665.578   -1253.7781 0.0012238743  0.001258581 0.0012612253 
 1540000    294.80904   -127.72168   -558.98245   -1108.5195   -24.219616    -612.9587 0.0012255585 0.0012568187 0.0012683691 
 1542000    317.16005   -128.18893   -243.01883    677.14373    1159.9615    9.5494432  0.001223601 0.0012552177 0.0012680219 
 1544000    291.67078   -128.08687    141.93827   -548.29959    -439.7794    73.438002 0.0012220865 0.0012535234 0.0012666519 
 1546000    298.09109   -128.30899   -1539.4342      -566.64   -365.03928   -47.826264 0.0012211801 0.0012522449 0.0012646254 
 1548000      298.418     -127.791    830.86768    20.293517   -547.91972   -2865.4209 0.0012192411 0.0012506406 0.0012633634 
 1550000    303.54482   -128.03543   -417.37461    -570.3624   -62.877734   -121.32107 0.0012195631 0.0012482158 0.0012621105 
 1552000    283.18821   -127.99862    187.39749    916.22716    1276.7162   -368.15779 0.0012197579 0.0012465545 0.0012607811 
 1554000    275.06664   -128.10239    1033.4551   -226.06906   -587.80973   -448.46478 0.0012196575 0.0012449043 0.0012595411 
 1556000     287.9399   -126.96764   -886.25292    1455.1766    464.42434     928.8188  0.001217977 0.0012435133 0.0012587497 
 1558000    293.12243   -128.64054    404.94301    189.00363    82.078096    570.92873 0.0012166087 0.0012416679 0.0012568109 
 1560000    320.28246   -127.90329   -1656.7183    319.98029    655.62806    85.530043 0.0012159772  0.001240449 0.0012552082 
 1562000     336.7456   -127.79541    146.18237    664.05987    1537.5893     629.1394 0.0012146041 0.0012389186 0.0012544242 
 1564000    272.64477   -127.52782    650.27126   -993.35613    968.00151    -486.7268 0.0012143929 0.0012373242 0.0012546739 
 1566000    291.06984   -127.07378   -566.34965    770.68739    646.15213   -408.10574 0.0012126046 0.0012359239 0.0012531358 
 1568000    276.40027   -127.26608    360.26091   -1320.5955    -1192.889   -1458.1386  0.001214584 0.0012341676 0.0012516244 
 1570000    288.55526   -127.80758   -1417.8269    1.9201111   -605.66279   -542.77265 0.0012171493 0.0012327041 0.0012501477 
 1572000    288.33222   -127.12626    215.15689   -863.58077    1746.8059   -991.65564 0.0012168431 0.0012326862 0.0012485047 
 1574000    276.61888   -127.70579    213.93711   -1188.0059    582.37236   -471.60812  0.001215093 0.0012352163 0.0012476548 
 1576000    296.83614   -127.28001    189.53708    583.10804    611.57227     379.7691 0.0012135436 0.0012342049 0.0012470694 
 1578000    304.75645   -126.76523    2307.0717   -307.70809     1329.947   -280.32214   0.00121377 0.0012313266 0.0012455565 
 1580000    279.28378    -127.1729    -103.7019   -1526.9008   -451.77164    198.78576 0.0012177018 0.0012297486 0.0012446715 
 1582000    301.58558   -128.03131     552.5489   -42.242767    118.06682    -49.11246 0.0012143347 0.0012281009 0.0012438626 
 1584000    285.76426   -127.56943    28.047493   -273.34825   -975.30284    18.909894 0.0012129464  0.001226861 0.0012429107 
 1586000    284.73504   -127.18081   -495.86577     -833.085    332.81591   -661.32372  0.001211239 0.0012306386 0.0012420016 
 1588000    290.73081   -126.99584    1076.0528    -266.7552   -2155.6391    649.74964 0.0012093854 0.0012283225 0.0012403924 
 1590000    312.62798   -127.73878   -2398.3643    578.03838   -1382.9905   -110.31711 0.0012086619 0.0012267453 0.0012394192 
 1592000    278.39836   -127.89307   -627.30323   -946.64362    189.16326    1206.5828 0.0012070702 0.0012269067 0.0012395135 
 1594000    283.32152   -128.02193   -320.62886    481.02937   -355.69631   -589.91102 0.0012054486 0.0012245662 0.0012394324 
 1596000    312.63452   -127.21985   -20.125062    559.44418    596.49814     1014.384 0.0012058612 0.0012254216 0.0012400547 
 1598000    325.89091   -127.70229     1702.974    945.13745   -594.51862    993.78169 0.0012039283 0.0012333493 0.0012385396 
 1600000    325.47254   -127.07012     326.4585    1655.9579    802.65646   -509.00115 0.0012044703 0.0012314025 0.0012410355 
 1602000    350.30581   -127.62978    1305.4923    1340.5789    20.836622   -1102.5096 0.0012043799 0.0012318347 0.0012392568 
 1604000    294.69057   -126.49637    1060.2428    1218.2413   -154.89568   -924.61569 0.0012021009 0.0012336761 0.0012376721 
 1606000    298.91059   -126.84208   -429.18118    357.68521   -471.90965     1437.731 0.0012011675 0.0012343061 0.0012362039 
 1608000    274.13663   -126.31835     2409.558    -1154.019    761.29824   -560.66848 0.0011999614 0.0012328599 0.0012350636 
 1610000     335.4433   -126.53062   -101.35762   -2202.4821    856.52584    1177.4565 0.0011989439 0.0012313669 0.0012391094 
 1612000    325.45876   -127.35924    181.22075    72.174589   -1137.6727   -1685.2001 0.0012037019 0.0012290119 0.0012394277 
 1614000    320.52534   -127.62915   -146.15825   -971.14989    1204.2995    -1357.325 0.0012064728  0.001227491 0.0012399225 
 1616000    302.92711   -127.22742   -1600.1257   -1368.9612    1607.1979    1335.4553 0.0012048268 0.0012262903 0.0012384788 
 1618000    304.03268   -126.72168    1433.5547   -1599.1975     1605.965    272.32783 0.0012033735 0.0012257833 0.0012370552 
 1620000     301.3685   -126.66518   -303.38897    49.086917   -158.81443    1217.0576  0.001202929   0.00122796 0.0012357121 
 1622000    275.11808   -127.54385   -203.98852    692.82204    -732.2829    -706.6797 0.0012018504  0.001225982 0.0012345968 
 1624000    309.96187   -127.40332    1579.1929    37.639345   -1263.2421    238.16143 0.0012014923 0.0012257363 0.0012338342 
 1626000    312.51189   -127.45694   -1262.6087    16.043715    -101.1779    316.77998 0.0012000332 0.0012240444 0.0012327181 
 1628000    311.60558   -127.34072    1389.2256   -559.66816   -1152.3405   -811.69848 0.0011989285 0.0012223219 0.0012317553 
 1630000    272.59905   -128.75339   -1770.5023   -200.31504   -1089.9695    1543.7845 0.0011980752 0.0012220748 0.0012303595 
 1632000    278.81825   -127.76367   -1004.3457    282.82639    623.52969   -423.12711 0.0011964059 0.0012206529 0.0012291925 
 1634000     318.5057   -128.42662    595.39952   -184.97622   -11.049014    236.20398 0.0011956356 0.0012190733  0.001228583 
 1636000    316.99267   -127.88741   -1555.8775   -13.281722    597.82749    821.55759 0.0011980489 0.0012182838 0.0012281408 
 1638000    289.33834   -127.26537    2016.9954    281.76902    953.08565    284.34275 0.0012074052 0.0012177896 0.0012266184 
 1640000    320.55422   -127.51133   -1661.3248    193.92126    1205.1296    1268.7106 0.0012062575 0.0012160272 0.0012251453 
 1642000    313.94141   -126.80617    49.537287   -589.90718    -904.6222   -358.27953 0.0012047327 0.0012154112 0.0012242262 
 1644000    295.64179   -127.88448    762.15723   -679.31652   -188.29609     1183.214 0.0012034137 0.0012140278 0.0012225283 
 1646000    301.43986   -127.30139   -951.20765   -1312.6833   -244.79471    501.82218   0.00120428 0.0012126112 0.0012209842 
 1648000    282.48984   -127.48897    2647.6414   -1001.3472   -816.82949    1013.3811  0.001207058 0.0012110769 0.0012204795 
 1650000     292.8792   -127.64509    632.67186    -79.61108   -1090.7217    675.51221 0.0012043961 0.0012109542 0.0012184716 
 1652000     314.3925   -127.66116    664.75288   -362.33934   -188.07895    187.83743  0.001207076  0.001210804 0.0012177792 
 1654000    324.67954   -127.79233     1925.258    1228.6759    643.97219    1392.6091 0.0012064233 0.0012095278 0.0012240246 
 1656000    284.62177    -127.9099   -2369.7364    541.34715     1957.824    23.202624  0.001205053 0.0012093531 0.0012297308 
 1658000    312.20457   -128.05798    1348.6299    275.57785    1131.8129   -381.35256 0.0012042443 0.0012110132 0.0012372789 
 1660000    281.34834   -127.45371   -750.41842    811.80897    635.58871   -1569.5213  0.001203624  0.001210478 0.0012357878 
 1662000    290.54497   -127.70405   -1541.1455    1012.1368    548.66665   -604.05086 0.0012032851 0.0012183884 0.0012354557 
 1664000    323.68313    -126.2742    1450.6773    631.40107    540.38167    692.45088 0.0012039073 0.0012249371 0.0012365386 
 1666000    300.94928   -128.19703   -2506.2432    688.64731    782.86033    300.06091 0.0012044648 0.0012251661 0.0012405305 
 1668000    271.45641   -128.36912     576.3155    352.90958   -319.14812    1399.7737  0.001203442 0.0012236423 0.0012403657 
 1670000    302.37708   -128.35515   -1961.3101    231.02077   -464.86473   -390.93413 0.0012018624 0.0012221329 0.0012387955 
 1672000    275.21319    -127.5314   -1019.3299   -242.03553   -1007.2184    354.65889  0.001201235 0.0012212681 0.0012384716 
 1674000    280.91126   -128.19837    496.85241    707.84728   -497.93981    220.07603 0.0011997776 0.0012211022 0.0012372619 
 1676000    280.02213   -127.64758   -1500.9108    -871.2735    666.87837   -732.82077  0.001199105 0.0012197817 0.0012357468 
 1678000    299.43199   -127.87894    2677.7098    2086.1574   -1080.9092    845.35068 0.0011985041 0.0012181548 0.0012353378 
 1680000     309.2715   -127.73791   -200.71718    71.741095   -28.753488   -1187.3392  0.001197341 0.0012180041 0.0012369206 
 1682000    311.50893   -127.47837    112.96739   -198.31918    662.13664   -849.60736 0.0011961715 0.0012163937 0.0012354715 
 1684000    269.89101   -127.49719    1312.0907    308.41477    2493.3104   -193.62856 0.0011957926 0.0012156044 0.0012344588 
 1686000    300.66699   -128.17015   -2655.4325   -391.79127    177.40539   -154.93959 0.0011953668 0.0012166245 0.0012329527 
 1688000    315.85526   -127.85317     2043.633   -1110.5294     1845.699   -194.51094 0.0011944407 0.0012180332 0.0012313387 
 1690000    276.58705   -128.18541   -1783.6264   -637.88976    94.828119    721.58427 0.0011931944 0.0012177775 0.0012296797 
 1692000    264.72139    -127.6717   -220.01334    586.85495   -899.60981    840.22925 0.0011926955 0.0012168757 0.0012280872 
 1694000    284.41694   -128.11435    448.77482   -16.942645    486.85493   -557.30009 0.0011914107 0.0012161583 0.0012282538 
 1696000    295.60403   -128.15279   -2808.4661    107.77171   -781.91822    427.87234 0.0011906835 0.0012144145 0.0012285886 
 1698000    324.63722   -128.24407     1090.383    821.86874   -429.50479   -20.509698 0.0011896789 0.0012144901 0.0012277111 
 1700000    279.86127   -127.79507   -458.77782   -699.57973   -674.24796   -784.51453 0.0011898009 0.0012156399 0.0012268355 
 1702000    317.24411   -127.15404    561.14784    1082.6204   -1561.7404    936.50279 0.0011917095 0.0012178715 0.0012252457 
 1704000    283.57198   -128.52276    1356.5818    1052.6942    185.61419    236.08456  0.001190081 0.0012191443 0.0012240441 
 1706000    327.34507   -128.28291   -1695.7333      2348.31    116.16871   -583.33835 0.0011886228 0.0012212484 0.0012226629 
 1708000    279.19928   -127.79136    2240.8969    1409.1958   -461.50399    318.19337 0.0011871189 0.0012205506 0.0012213225 
 1710000    310.39402   -127.65383   -456.98489    522.03893    1171.6669   -682.25188 0.0011868477 0.0012196591 0.0012202286 
 1712000    337.30879   -127.75379   -35.686503   -20.766004   -619.39052    583.80028 0.0011861046  0.001218916 0.0012185142 
 1714000    313.29835   -128.34276    652.85464   -848.38982    138.36457    777.05085 0.0011858276 0.0012210916 0.0012174943 
 1716000    286.10785   -127.63341   -1659.5232   -1249.7951    1044.2766    1743.6995 0.0011862217 0.0012237607 0.0012160205 
 1718000    287.63085   -127.45618    1232.5419   -1598.7953    462.02104   -344.88656 0.0011859034 0.0012246757  0.001215661 
 1720000    307.20357   -128.14783   -1331.3615   -1262.6002    748.96447    1551.2975  0.001187334 0.0012259502 0.0012139233 
 1722000    297.35205   -128.28663   -511.86056    999.75179    -885.5556   -584.48601 0.0011873754 0.0012247715 0.0012122366 
 1724000    319.30588    -127.1815    1673.8548   -1503.6836    1112.9496    691.29292 0.0011864632 0.0012242739 0.0012114627 
 1726000    307.09486   -128.63149   -2346.0916   -160.06106   -1789.3624    553.32485 0.0011853971 0.0012231639 0.0012116816 
 1728000    275.87359   -127.50337    2430.2544   -576.50005    787.09927    931.32606 0.0011845065 0.0012253669 0.0012113716 
 1730000    276.08678   -127.55566   -176.29969   -316.48619    486.43498    498.89611 0.0011845818 0.0012232658 0.0012101627 
 1732000    318.00768   -127.61468      120.693    282.46281    843.94804    988.22768 0.0011889903 0.0012219495  0.001209531 
 1734000    293.49015   -128.43353    1249.9943   -291.29444    1592.1456    525.93713 0.0011875862 0.0012205775 0.0012091808 
 1736000     313.4184   -127.99819   -1297.9608    218.28538    -75.12757   -859.81868   0.00118887 0.0012186194 0.0012109047 
 1738000    303.34004   -126.95832    2887.8538   -864.02791    -62.32504   -164.01425 0.0011870793 0.0012200842 0.0012092125 
 1740000    322.41633   -127.55981   -1496.6104    -1938.958    -1130.609   -1249.8161  0.001187281 0.0012186162 0.0012078644 
 1742000    309.09117   -126.99031   -335.48451   -98.237727   -33.725111   -1329.1656 0.0011869512 0.0012176969 0.0012066072 
 1744000    294.79754   -127.57437    365.37148    -676.1197   -1022.8288   -2088.3524 0.0011857794 0.0012161617 0.0012048361 
 1746000    291.16662   -127.10324   -2602.6464    1121.0355    411.08022   -720.10039 0.0011854393 0.0012154592 0.0012037049 
 1748000    324.02398   -127.22153    1803.4896    255.03589    426.96928   -869.07689 0.0011860659 0.0012162546 0.0012041629 
 1750000     307.4857     -127.737   -2595.9449    799.61862    1339.7303   -1221.8044 0.0011902848 0.0012167191 0.0012030807 
 1752000    288.43871   -127.62481     411.8442     933.6391     936.0871   -340.71499 0.0011982658 0.0012243634 0.0012037343 
 1754000    265.12724   -127.95195    689.19537    699.27697    427.60307   -360.35827 0.0012082611  0.001227171 0.0012029024 
 1756000    294.76194   -127.28812   -1238.4636   -644.35785    1118.9057   -546.35926 0.0012092957 0.0012262396 0.0012020452 
 1758000    293.60391   -127.60851    3151.7448   -319.38819    1143.0265   -986.26037 0.0012078152 0.0012247812 0.0012020493 
 1760000    281.70255   -127.94725   -1363.9025   -124.74724   -648.70323   -737.88056 0.0012078502 0.0012236203 0.0012013376 
 1762000    278.50682   -127.66435    1171.7801   -966.97404   -138.55241    821.80049  0.001206867 0.0012224442 0.0012012619 
 1764000    307.75867   -127.23654    1723.7242   -191.82967     70.62376   -556.29847   0.00120611 0.0012220821 0.0012006825 
 1766000    290.25627   -127.41109   -1965.0628   -924.44729   -1129.9185   -1282.2517 0.0012045546 0.0012206145 0.0012002212 
 1768000    317.83423   -127.68972    1869.5091   -378.75725   -1231.9425   -311.32186 0.0012033076 0.0012214089 0.0012000588 
 1770000    340.05459   -127.02119    -3307.535    1369.5132    1085.9557   -1250.5877 0.0012035881 0.0012198366 0.0011995918 
 1772000    267.51998    -126.7985   -347.30518    1236.1602    387.17906    74.866579 0.0012016388 0.0012196455  0.001198924 
 1774000    265.75983   -127.44316    1154.0354    1702.0783   -263.85258   -474.79349 0.0012020075 0.0012200532 0.0011977393 
 1776000    304.57378   -127.91884   -1642.7041   -959.31772   -436.68191   -502.72616  0.001200873 0.0012202848 0.0011955373 
 1778000    294.88112   -127.99965    3083.4241    391.00101    650.31704    214.04926 0.0012018391 0.0012218799 0.0011969775 
 1780000    306.68305   -127.66936   -197.66516   -272.21248   -721.16549   -99.210354 0.0012057238 0.0012232884  0.001195569 
 1782000    311.01437   -127.13478    1362.4668   -2612.8345    437.06826   -108.67264 0.0012041437 0.0012216673 0.0011941176 
 1784000    326.59756   -126.62205     770.7703   -603.60449   -779.02486    390.55799 0.0012028639 0.0012204578 0.0011927496 
 1786000     307.1728   -127.75591    -2742.817    -1563.175   -539.19953    168.83265 0.0012044557 0.0012209885 0.0011955873 
 1788000    288.25756   -127.54472     802.8049    888.51247    -635.7251    716.87177 0.0012043381 0.0012187011 0.0012042139 
 1790000    275.98861   -126.92962    -2285.217    240.50162   -253.99867     44.46704 0.0012057622 0.0012182946  0.001209752 
 1792000    324.68519   -128.07333   -1081.2127    1386.4255    38.501837    1089.7587 0.0012051742 0.0012179117 0.0012147586 
 1794000    307.96088   -127.02294    1011.9681    1809.2051   -333.27931    23.231733 0.0012038056 0.0012174483 0.0012142708 
 1796000    276.74593   -127.80618   -2485.5904    1685.1343    1983.5187   -1336.2421  0.001202506 0.0012167136 0.0012131275 
 1798000    314.75341   -127.93767    2369.0571    1122.4996    788.50094   -1545.8417 0.0012011888 0.0012149315 0.0012123577 
 1800000    281.76044   -127.47289   -1084.3651    235.95069    1386.4742   -478.32085 0.0012001741 0.0012151595 0.0012122141 
 1802000    287.82302   -127.26848   -49.127928    156.11596    1561.7974   -105.39864 0.0012016317 0.0012137695 0.0012119935 
 1804000     293.7741    -128.4314    1284.4808   -145.99152   -1174.2509   -221.46086  0.001200789 0.0012127755 0.0012121217 
 1806000    302.93954   -127.27384   -1598.1086     801.2693     359.8407   -538.39671 0.0012080521 0.0012112005 0.0012108248 
 1808000    303.17396   -127.54382     3310.018    339.97302   -1127.2506    521.60093  0.001211599 0.0012095028 0.0012125639 
 1810000    287.24519   -127.06385   -612.97405    216.07965   -776.89172    599.43675  0.001211703   0.00120973 0.0012137136 
 1812000    278.26774    -127.7074   -256.87308    597.44754   -423.51993   -177.67624 0.0012103657  0.001208424 0.0012131432 
 1814000    302.91491   -127.83766    1087.2051    1127.9277   -868.37469     1583.616 0.0012089918 0.0012082209 0.0012119216 
 1816000    283.10707   -127.09831   -2291.6822   -300.45402    1156.7081     453.5729  0.001207586 0.0012074359 0.0012106358 
 1818000    306.83238   -127.60704    2983.6273    1556.7304   -552.60363     1786.932 0.0012067528 0.0012061403 0.0012093409 
 1820000    277.04935   -127.29723   -2277.4143    629.14435    22.325048     337.3062 0.0012051943 0.0012047046 0.0012079994 
 1822000    294.35086   -128.26594   -333.51059   -134.96694    1305.6274     312.6691 0.0012037914 0.0012040646 0.0012068011 
 1824000    308.98061   -127.24356    1224.4781    1231.4448    600.44157   -315.84856 0.0012030343 0.0012033062 0.0012055537 
 1826000    288.68774   -126.76881   -2716.3735    621.23351    1238.3609   -637.77205  0.001201991 0.0012014075 0.0012062472 
 1828000    282.76875   -127.79021    2334.5348     -1468.42    32.669178    175.03071 0.0012013297 0.0012041882 0.0012054199 
 1830000    293.88791   -127.74468   -2701.3469   -449.71981     1027.186    365.53122 0.0012008142 0.0012022981 0.0012060205 
 1832000    300.43532   -127.59045    -144.4357   -2131.1855    -1000.474     187.8298 0.0011996198 0.0012018893  0.001205983 
 1834000    292.34166   -127.06976    2706.1079   -722.30225    68.727901     1028.575  0.001198608 0.0012003895 0.0012053775 
 1836000    256.22795   -127.65334      -1291.6    442.68618    1976.2809    918.18852 0.0011981359 0.0011990512 0.0012046542 
 1838000    295.28582   -127.04046    4581.0263   -1385.1109    942.39264   -754.20598 0.0011984474 0.0011978515  0.001203568 
 1840000    287.97816   -127.49811   -1188.4512    1860.0976    804.18384   -670.32763 0.0011971846 0.0011968028 0.0012023446 
 1842000    298.70932   -127.43631   -55.469034   -418.73815   -407.62867   -1157.2839 0.0011990846 0.0011952722 0.0012017688 
 1844000    290.89492   -127.28121    971.16839    1694.0698    428.95107    346.75963 0.0011982765 0.0011975655 0.0012004589 
 1846000    315.10215   -127.89493    -3940.268   -654.59138     303.4233   -1249.8857 0.0011999558 0.0011963088 0.0012005427 
 1848000    297.47081   -128.22233    1851.3961   -269.34791   -1459.4712    311.71326  0.001201139 0.0011954586 0.0012014968 
 1850000     320.5313   -127.60163   -1386.7224    25.144575    158.77944    817.95714 0.0011997073  0.001195011 0.0012005071 
 1852000    338.79207   -127.47998   -362.70987    548.50168   -68.906155    133.24586 0.0011985478 0.0011940638 0.0012000129 
 1854000    295.51669   -127.46445    2228.5183   -93.184669    843.01066    1349.1352 0.0011978219 0.0011919198 0.0012015895 
 1856000    284.08688   -127.60424   -2314.3473    1191.4254    1511.3333    1298.1188 0.0011963724 0.0011910968 0.0012032526 
 1858000    281.80261   -127.47973    2491.8633   -1715.7017     258.1015   -126.35668 0.0011948613 0.0011891506 0.0012026719 
 1860000    280.88829   -127.81297   -779.42076   -214.09147    882.43414   -573.30367 0.0011953928  0.001187568 0.0012010785 
 1862000     292.7506    -127.2842    648.86725    -931.2817    1090.4099   -608.49284 0.0011952705 0.0011861784 0.0011996786 
 1864000    292.11976   -127.31959    2100.0921   -992.97344   -1112.5756   -1353.6902  0.001196449  0.001185365  0.001199258 
 1866000    279.62091   -127.40071   -2369.4266    1.1810861    723.46458    259.19484 0.0011994142 0.0011835479 0.0011979836 
 1868000    296.26324   -127.88279    2067.7729     397.0818    457.32828   -1010.9364 0.0012037077 0.0011821672 0.0011975466 
 1870000    311.99684    -127.4855    -968.1154   -235.30801    13.494057   -321.30644 0.0012080025 0.0011813719 0.0011982067 
 1872000    322.61245   -128.66707   -1969.6257   -828.36521    33.739854    1215.6074 0.0012054554 0.0011798133 0.0012006278 
 1874000    301.54478   -127.09092    1768.2713   -718.48899   -1349.3671    134.46903 0.0012137578 0.0011788587  0.001203277 
 1876000    311.64448   -127.91887   -2163.2169    602.88249    113.71625    314.97346 0.0012161677 0.0011788934 0.0012041806 
 1878000    308.96335   -127.97069    2356.5221   -488.97426   -1089.2222    1115.0917 0.0012149682 0.0011810607 0.0012087023 
 1880000    276.81148   -127.75037    -533.4006    1666.7024    514.59399   -1337.2495 0.0012137963 0.0011836201   0.00121008 
 1882000    315.92797    -126.8741    467.77291    467.14131   -680.62055   -1220.6895 0.0012145976 0.0011858752  0.001210412 
 1884000    307.30297   -127.51985    1721.4068    932.96348    1007.4697   -699.75691 0.0012136318  0.001184303 0.0012092454 
 1886000    281.09396    -127.9712   -2043.7471    877.20887   -799.44329   -697.34751 0.0012127415  0.001182757 0.0012081665 
 1888000    298.83671   -126.65706     2340.507    145.24421   -499.62687      -800.51 0.0012115848 0.0011808079 0.0012066684 
 1890000    314.41151   -126.86814   -924.69302    545.74455   -1412.2647    1384.1622 0.0012114606 0.0011805032   0.00120535 
 1892000    338.80385   -127.97116    329.92417    305.24801    1008.6845   -484.68886 0.0012114321 0.0011794186 0.0012043888 
 1894000    275.89178   -127.04887    2450.0804   -1033.5865    733.27575    785.39333 0.0012113417 0.0011791191 0.0012060446 
 1896000    317.80507   -127.11458   -1937.1048   -282.40366   -1349.4966   -118.86656 0.0012102774 0.0011779837 0.0012076978 
 1898000    321.53587   -127.55716    1829.0791   -488.62753   -925.14619   -256.52361 0.0012089352 0.0011773257 0.0012063126 
 1900000    285.17048   -125.80746   -1313.7038   -29.334163   -1553.0718    239.01573 0.0012077528 0.0011771793 0.0012050939 
 1902000    279.93071   -126.81183   -554.87555   -684.62497    -244.8274    -497.5019 0.0012067051 0.0011760043 0.0012062845 
 1904000    284.89895   -127.59349    899.22821    215.14199    1622.0864    206.10585 0.0012056568 0.0011792992 0.0012082788 
 1906000    311.51456   -126.83499   -1038.6431    1041.6339    515.46358   -1156.2855 0.0012055249  0.001183458   0.00120757 
 1908000    330.19863   -126.24994    2815.3516    794.02244    1696.9755   -446.46569 0.0012049218 0.0011853858 0.0012087308 
 1910000    301.17173   -126.62152   -465.19959    3623.9554   -19.505956    549.18745 0.0012058701 0.0011857632 0.0012076832 
 1912000    309.47325   -127.21519    999.95981    1579.8903    1969.7813    1423.4529 0.0012063265 0.0011852217 0.0012114047 
 1914000    305.64799   -126.85912    1181.6461    1691.1412   -2097.1983   -286.36854 0.0012052614  0.001184016 0.0012122046 
 1916000      300.641   -126.99121   -995.49152    771.78582   -729.27976    577.41016 0.0012037795 0.0011827676 0.0012140885 
 1918000    286.68946   -126.94076    1746.6553   -1586.7301   -39.973741   -1075.0546 0.0012032389 0.0011829976 0.0012126384 
 1920000    311.36415   -127.84863   -1962.8606   -947.46878    823.30058   -1154.5048 0.0012030927 0.0011824157 0.0012173954 
 1922000    292.67597   -127.62584    553.96962   -1924.7793    329.85406    1396.6689 0.0012070168 0.0011822887 0.0012196572 
 1924000    299.22313   -127.98613    -175.7849   -232.87187    261.78464    -246.1318 0.0012088542 0.0011909591 0.0012187284 
 1926000    315.94547   -126.69738   -763.96971   -1027.4551    393.29241   -1096.5614 0.0012076332 0.0011985648 0.0012180031 
 1928000    275.78884   -126.59754    2414.9103   -1230.7289    102.50798    550.94047 0.0012063454 0.0011969414 0.0012167988 
 1930000    314.78225   -127.79829   -1361.9725    1035.9365    1386.5395   -1194.2885 0.0012055979 0.0012070838 0.0012152764 
 1932000    293.97256   -127.55215    395.17347     1143.383    645.57874     466.2128  0.001206836 0.0012081377 0.0012154608 
 1934000     276.4183   -127.40167    917.11841    623.37293    1101.0072   -177.36444 0.0012054212 0.0012071416 0.0012148293 
 1936000    311.67809   -127.40663   -1189.6038    218.59734    237.05404    719.19622 0.0012044862 0.0012070365 0.0012159723 
 1938000    327.79569   -127.98458    1919.2453   -271.72675   -690.87671   -679.64943 0.0012035832 0.0012068894 0.0012191865 
 1940000    307.18959   -127.19982   -819.42417   -2137.6365   -1876.2091   -88.778679  0.001202618 0.0012055652 0.0012187381 
 1942000    260.02296   -127.66376    127.99626    506.67958   -2313.4298    299.68673  0.001201914 0.0012050049 0.0012171874 
 1944000     270.1718   -127.66164     199.9167   -830.42578   -819.64893    618.59005 0.0012038576 0.0012036499 0.0012162896 
 1946000    314.29686    -127.8322    -1590.552   -2398.9605    278.50988   -409.97196 0.0012024675 0.0012025864 0.0012150059 
 1948000    297.58591   -127.45904    1023.8357   -156.87863   -531.51673   -264.38574 0.0012046117  0.001201254 0.0012137447 
 1950000    280.07685    -127.5024   -991.21561   -903.41192    977.02738    118.40886 0.0012062374 0.0011999685 0.0012126361 
 1952000    317.08765   -127.61776    729.93063   -842.90275   -370.88932   -459.90542 0.0012105158 0.0011992335 0.0012118636 
 1954000    316.87855   -126.39506    460.18093   -524.04995   -424.99461    -1045.898 0.0012324012 0.0011985585  0.001210612 
 1956000    279.60634   -127.67569   -1273.2501   -872.46303    248.33057   -728.30939 0.0012448644 0.0012011218 0.0012094324 
 1958000    313.46126   -126.44708     1822.729   -2098.6934    335.33008   -1269.9401 0.0012479149 0.0012013552  0.001209661 
 1960000    264.44077   -127.73331   -1520.7287    754.95626    1728.9453    290.17124 0.0012543898 0.0012022565 0.0012099107 
 1962000    294.69161    -127.3587     1340.732      186.048    263.67182   -509.40768 0.0012606557 0.0012058591 0.0012100466 
 1964000    290.35049   -127.23316    873.24672   -885.95647    316.59987     732.2545 0.0012592547 0.0012104582 0.0012098496 
 1966000    315.35881    -128.0335    -1413.211      206.393    287.69832    174.84254 0.0012579875  0.001214645 0.0012091838 
 1968000    282.29417   -127.48696    1358.4564   -523.73292    930.85223    591.50558 0.0012565751 0.0012194527 0.0012084534 
 1970000    259.51861   -127.73073   -902.21711    -438.6737   -1008.8633    987.37044 0.0012556623 0.0012218649 0.0012071831 
 1972000    294.95534   -127.53396    752.07779    -688.9178    385.64355    664.46447  0.001255177 0.0012240445  0.001206083 
 1974000    265.78713   -127.77086    1246.5348    444.08992     436.0709   -671.22429 0.0012545496 0.0012232162 0.0012053718 
 1976000    296.34757   -128.09695     -379.563    26.040967    1156.2611   -654.23744 0.0012565011 0.0012221473  0.001204227 
 1978000    274.67064   -126.97196    1040.1489   -514.16037    719.16243   -1350.3486  0.001258748 0.0012205107 0.0012031141 
 1980000    315.82629    -127.5656   -1693.2092    1183.1782   -1994.9312    648.55319 0.0012650922 0.0012192861 0.0012018263 
 1982000     297.6001   -128.31892   -520.09524    707.13502   -1363.4873    1169.2742   0.00126919  0.001218444 0.0012009773 
 1984000     308.0453   -126.55794    459.10158    144.10373   -608.29046     1118.802 0.0012688391 0.0012170229 0.0012008904 
 1986000     310.3513   -127.26544   -365.47607    512.40348    287.83525    191.76021 0.0012688631 0.0012160271 0.0011998287 
 1988000    289.62525   -128.58896    471.83157    1096.3454    979.63155    1329.0206 0.0012703958 0.0012197443  0.001199026 
 1990000    303.38088   -128.07497   -413.30669   -10.607454   -619.66533   -2.0963318 0.0012694697 0.0012220637 0.0012014806 
 1992000    281.34145   -127.31624    1850.3321    631.06224   -574.86338   -846.87347 0.0012682492 0.0012204312 0.0012013079 
 1994000    317.60394   -127.58918    1013.8934   -1412.5933   -24.261224   -1070.7721 0.0012675121 0.0012208889 0.0012015737 
 1996000    283.62593   -128.13991   -523.93147    493.30275    62.403586   -695.88909 0.0012661695 0.0012207242 0.0012024227 
 1998000    289.96771   -127.42927    64.490471     893.4371   -334.91864     321.3068 0.0012649705 0.0012192299 0.0012132225 
 2000000    324.31455   -127.49256   -354.43777    1545.2176   -823.49351    534.52297 0.0012643408 0.0012185733 0.0012121229 
 2002000    301.84035   -127.23482    622.63064   -20.042175    170.74609    196.68522 0.0012633036 0.0012178109 0.0012161528 
 2004000    288.74888   -128.01174    581.56053     765.7855    807.84641    943.40392 0.0012617888 0.0012178198 0.0012185237 
 2006000    324.78379   -128.15447   -1218.1521   -421.19137    1702.5333    935.47627 0.0012628006 0.0012191009 0.0012175958 
 2008000    275.42575   -126.74803    1028.3338    1381.0328   -448.25502   -521.89247 0.0012622886  0.001219483 0.0012271984 
 2010000    307.34872   -127.47185    -1214.518    919.19523    681.18315    1439.7215 0.0012615044 0.0012186433  0.001229862 
 2012000    279.40772   -127.41881    800.49295   -333.29794   -2184.1691   -1778.8693 0.0012600967 0.0012178437 0.0012298443 
 2014000    294.01924   -126.88259    594.37313    517.94916   -1514.4084    162.12936 0.0012606283 0.0012163258 0.0012372916 
 2016000    304.04188   -126.85597    1102.1833   -1725.3915   -524.78404    336.78813 0.0012598822 0.0012152929 0.0012417867 
 2018000    315.70552   -127.13313    1403.9778   -1310.2434    -595.4242   -195.60722 0.0012599276 0.0012150302 0.0012426218 
 2020000    346.72848   -127.64378    -1102.443    157.00119     702.9511    958.75008  0.001260839 0.0012143642 0.0012423239 
 2022000    276.76325   -127.09485    418.29879   -362.36815     149.5211   -1147.6493 0.0012602546 0.0012135858 0.0012410364 
 2024000    250.59648   -127.44717    -875.3029    912.98378    808.32721   -216.66313 0.0012590816 0.0012124253 0.0012401323 
 2026000     299.9991   -126.83076   -854.98011    889.20862    1897.2686     2338.643 0.0012583209 0.0012117576 0.0012389438 
 2028000    350.01858   -128.12541    158.17498    1197.7359    172.34171   -1433.7228 0.0012604203 0.0012109186 0.0012378045 
 2030000    318.26512   -127.44639   -559.08303    632.70364    844.29582    -1550.072 0.0012598662 0.0012098696 0.0012370154 
 2032000    344.55732   -126.90465    925.42991   -1144.3186    422.23116   -1747.5943 0.0012605205  0.001207902 0.0012363219 
 2034000    298.47259   -127.27037   -410.88174   -338.18022    1217.3614   -301.60354 0.0012604398 0.0012070383 0.0012348743 
 2036000    287.60093   -127.76202    -638.7774   -2092.4869   -872.88037   -274.15737 0.0012587418 0.0012057289  0.001233846 
 2038000    298.94316   -126.55764    1292.7011   -707.60978   -1638.1344    724.12068 0.0012578037 0.0012057795 0.0012324608 
 2040000    295.85669    -127.4947   -873.78085    1495.1002    1430.3391    937.76331 0.0012569263 0.0012046339 0.0012314749 
 2042000    325.61632   -127.38327    1817.1533    59.941818    -1381.765    1856.2932 0.0012555476 0.0012040571 0.0012317167 
 2044000    300.44324   -126.93712    781.75277    33.732352    -1587.369   -81.069792 0.0012541013 0.0012031794 0.0012322794 
 2046000     275.5192   -127.41861   -161.07467   -714.65137    641.82182    831.07349 0.0012549902 0.0012020259  0.001231156 
 2048000    256.72366   -128.22944    543.82759   -384.96356   -996.89426   -177.84938   0.00125371  0.001200899 0.0012303597 
 2050000     293.2093   -127.21894   -1137.1056   -995.15817    765.80611    -155.8687 0.0012533219 0.0012002825 0.0012297529 
 2052000    281.18794   -127.37506    594.62651    101.20967    384.92851   -141.49247 0.0012524938 0.0012003369 0.0012315177 
 2054000    313.79208   -127.15055   -257.52409    1476.3348   -1364.4372   -1001.4671 0.0012521871 0.0012013208 0.0012321636 
 2056000    280.37755   -126.95597   -362.47886    923.32949   -45.028921   -1806.0996 0.0012520959  0.001200024 0.0012348639 
 2058000    308.46173   -127.04691      1274.34    1918.4156   -2120.9054   -1323.7036 0.0012524616 0.0012006368 0.0012344358 
 2060000    300.91803    -126.9648    488.63989     1514.002    1567.3136   -1233.6557 0.0012518068 0.0012004992 0.0012335011 
 2062000    298.32668   -127.40964    801.02531    1139.5444   -189.50872   -347.55111 0.0012526419 0.0011987627 0.0012415753 
 2064000     307.9931   -126.65456   -672.94334    2072.0064    667.80267   -1502.9815 0.0012521971 0.0011978731 0.0012388384 
 2066000    302.64358   -126.94461   -540.00699     489.8847   -263.04641   -581.26658 0.0012524908 0.0011998634 0.0012378638 
 2068000    290.73826   -127.36083    607.90165    2590.6031    579.80928   -921.63411 0.0012517067 0.0012009329 0.0012368727 
 2070000    305.71622   -127.83345   -1234.5116   -636.50946   -658.10063    81.069354 0.0012510965 0.0012003554 0.0012380815 
 2072000    283.95968   -128.08037    623.62885   -495.71173    580.42845    1302.6486  0.001259399 0.0011998946 0.0012369566 
 2074000    319.02501   -127.51426    428.15207   -434.83271    1249.7444    1552.3468 0.0012591575 0.0011990354 0.0012350301 
 2076000    330.62532   -127.45134     278.7254    355.37898   -250.11758   -345.94495 0.0012592763 0.0011990435 0.0012338019 
 2078000    301.19041   -127.71596    653.75697    402.71296   -695.57874     881.0361 0.0012581385 0.0011977127 0.0012339805 
 2080000    292.21861   -128.24806   -715.72602    330.79686   -1062.8299    1402.2256 0.0012566724  0.001196899 0.0012342671 
 2082000     306.3958   -127.92808    608.01481    2961.3287    253.60541    468.86521 0.0012557645 0.0011958407 0.0012364197 
 2084000    313.38978    -127.5425   -58.908844   -385.74161   -561.67077    2182.3437 0.0012546512 0.0011945732   0.00123565 
 2086000    284.95061   -127.29108    212.63215    505.85887     292.9622    132.90185 0.0012535259 0.0011933489  0.001237932 
 2088000    317.00061   -127.11313    669.43684    1476.6745    1104.3608    1348.3553 0.0012525409 0.0011937119  0.001236533 
 2090000    284.31137    -127.3039   -140.27082   -901.72306    83.041745    116.96963  0.001252257 0.0011926651 0.0012364575 
 2092000    299.14679   -127.42946    309.48512    687.82535    345.82513    658.21591 0.0012516995 0.0011921925 0.0012354773 
 2094000    313.46752   -127.29629   -974.91752   -1013.9509   -170.09173    1704.4214 0.0012505908 0.0011915409 0.0012336356 
 2096000    297.61898   -128.38369   -1053.4551    283.14364   -143.30889   -1767.8423 0.0012493303   0.00119216 0.0012320301 
 2098000    298.48489   -126.22649    909.97601     179.4924    1357.6473    815.72371 0.0012508332 0.0011916446 0.0012308304 
 2100000    261.39595   -128.00466   -1151.6086   -516.01045    1050.2834   -1963.2979 0.0012495536 0.0011919524 0.0012296391 
 2102000    294.29772   -126.87152    1485.0968    744.61927    1215.7902   -596.27177 0.0012484814 0.0011906504 0.0012299605 
 2104000     293.0803   -127.78534    11.039581   -1393.2163   -1523.8662    368.96416 0.0012516236 0.0011894247 0.0012294858 
 2106000    291.26303   -127.68129    435.15774   -2115.1234    237.80662   -542.87001 0.0012576211 0.0011882881 0.0012301003 
 2108000    253.02623   -127.86095    1058.5341    10.090294   -971.73681   -1313.0237  0.001259265 0.0011877359 0.0012276014 
 2110000    306.08756   -126.29272    59.616444   -405.73742    1935.7349    205.10292 0.0012594788 0.0011862749 0.0012271763 
 2112000    295.44312   -127.01588    1021.8248   -1192.7866   -467.05642   -624.82582 0.0012595476  0.001185193 0.0012261175 
 2114000    274.82646   -126.98296   -320.83035    1111.5914     3.374409   -386.86429 0.0012592363 0.0011846973 0.0012248031 
 2116000     297.3078   -127.65429    601.02356    -23.59354    409.07867   -336.65116 0.0012590346 0.0011837858 0.0012298116 
 2118000    291.04851   -126.86436    943.25022   -1235.8348     965.1154    712.09061 0.0012583003 0.0011839281 0.0012313384 
 2120000    304.21867   -126.98713   -780.72801    506.73314    2144.2965    1708.6614 0.0012578004 0.0011827928 0.0012302705 
 2122000    336.10692   -127.17339    927.52193    963.74001    908.13732    1298.6038  0.001258014 0.0011819517 0.0012287457 
 2124000     332.2539   -127.06371   -936.94244    684.41571    921.16499     -122.638 0.0012571876 0.0011811172 0.0012276953 
 2126000    317.26224   -127.26989    164.82206   -24.285855    591.77331    1065.6847  0.001257237  0.001180902 0.0012269275 
 2128000    279.61598   -127.11644    1503.8458   -1746.8221    -272.4053   -481.19194 0.0012558321 0.0011808936 0.0012266134 
 2130000    321.27221   -128.37196   -963.62094   -149.29933   -1995.4682   -651.91308 0.0012563558 0.0011802526 0.0012250451 
 2132000    303.04047   -128.77658    283.19682   -407.70527   -396.42548    72.684809 0.0012554621 0.0011791747 0.0012240338 
 2134000    307.66135   -127.38877   -756.42983     1370.464   -240.56005   -363.70573 0.0012543978 0.0011786432 0.0012238133 
 2136000    284.15629   -127.35994     78.81201   -302.13808   -674.49686    700.03125 0.0012550712 0.0011796127 0.0012248274 
 2138000      291.053   -127.95086    108.56251    429.46068   -1096.4118   -114.39734 0.0012543174 0.0011800075  0.001223956 
 2140000    304.71755   -128.16698   -2026.2099   -270.51389     349.6993    1877.5508 0.0012535271 0.0011791074 0.0012230157 
 2142000    296.36475   -127.52205    838.49084   -2696.6056   -133.71355    1477.2131 0.0012529965 0.0011785984 0.0012212703 
 2144000     309.9465   -128.03694   -1174.1255   -2066.5882    764.47796    1020.9759 0.0012519175 0.0011803148 0.0012201374 
 2146000    321.99239   -127.24074   -34.061282   -1132.0395    280.49779    2909.9721 0.0012507406 0.0011809078 0.0012190046 
 2148000     300.5641   -128.24231    254.79092     403.3688   -1806.8882   -718.29674 0.0012517347 0.0011819237 0.0012179743 
 2150000    296.40253   -127.90702   -1526.9768    2112.7212   -328.77897    848.66675 0.0012541941  0.001180657 0.0012177637 
 2152000    322.32651   -127.91629    1545.8074    1191.6492   -464.18549    -148.9547 0.0012524713 0.0011800142 0.0012189136 
 2154000    292.61561   -127.78596   -813.95082   -1480.0868    780.82966   -274.45867 0.0012528496 0.0011791572 0.0012205713 
 2156000    341.60561    -126.8247    685.89427    1448.9988   -503.04871    -93.74576 0.0012526972 0.0011780363  0.001219906 
 2158000     305.6028   -127.72748    1107.6721   -1908.8857   -1050.5512    331.91076 0.0012527558 0.0011771579 0.0012191056 
 2160000    294.05621   -127.78546   -1338.5117     6.138727   -555.35562   -638.87964 0.0012547704 0.0011774226 0.0012187849 
 2162000    290.92055   -127.42921    1104.9389     730.8547   -282.97269   -774.58042 0.0012543238 0.0011769766 0.0012188843 
 2164000    296.38192   -127.65135   -626.00962     -29.6869   -864.28944    149.92919 0.0012576122 0.0011761698  0.001217445 
 2166000    303.47383   -127.49683    324.54258       639.03    256.19913   -176.74331 0.0012593407 0.0011750688 0.0012169168 
 2168000    321.64341   -127.51259    781.67936    39.391006     1944.197    1159.2981 0.0012595048 0.0011753878 0.0012177466 
 2170000    275.09852   -127.60299   -675.24961   -107.75782     544.4794    111.43912 0.0012582996 0.0011765213  0.001217448 
 2172000    305.43649   -127.69934    782.10628    237.48103    661.94872   -598.69593 0.0012570524 0.0011752845  0.001216495 
 2174000    323.76904   -127.65782   -1585.2619   -1530.5229    321.18381     444.4893 0.0012564094 0.0011740312 0.0012151243 
 2176000    318.28953   -127.77638    1278.2749   -782.62849   -505.61758   -989.79316 0.0012582363 0.0011729102 0.0012139019 
 2178000    275.43177   -127.74828    575.30686   -379.86296    -477.9641    1092.4662 0.0012596273 0.0011718599 0.0012139962 
 2180000    289.31151   -128.07579    105.30399    409.29243   -917.75971   -748.24066 0.0012583535 0.0011709782 0.0012135684 
 2182000    288.38513   -127.33085    1943.5173     55.70685   -34.950137   -453.79105 0.0012594578 0.0011699862 0.0012128126 
 2184000    279.70039    -128.0586    -225.5103    166.68359     -1007.86    2189.9849 0.0012583444 0.0011692561 0.0012116744 
 2186000    323.41321   -128.04927    687.24084   -1408.4961   -488.22344    420.97804 0.0012574532 0.0011685957 0.0012106985 
 2188000    297.86072   -127.23085    324.71098   -516.23612   -690.60741    1303.1977 0.0012562388 0.0011690993 0.0012096227 
 2190000    274.84733   -127.40723    8.0416353    366.43365   -733.12855   -467.61165 0.0012553392 0.0011716816  0.001208357 
 2192000    281.27784   -127.89482    944.33157   -1593.4954   -251.71522   -441.91594 0.0012537582 0.0011735546 0.0012073778 
 2194000    307.68323    -127.6415   -1127.6825    628.99714   -307.42222     23.14275 0.0012519734 0.0011739697 0.0012069916 
 2196000    304.25481   -128.32379    649.29584   -970.84796    241.92969   -2553.3974 0.0012511696 0.0011734508 0.0012061267 
 2198000    315.95179   -127.23285   -906.24946    180.33437    481.17513    476.79201 0.0012504209 0.0011736904 0.0012051264 
 2200000    319.90688   -127.56015    -1232.916    989.41542    -286.8995    418.18035 0.0012501693 0.0011745445 0.0012077141 
 2202000    310.44087    -126.6502    1670.7895   -1312.3191    248.57943    1089.8357 0.0012493564  0.001173906 0.0012095023 
 2204000    296.49375   -127.73706    -830.4428    534.41791   -258.52394     -124.973 0.0012486673  0.001174376 0.0012083284 
 2206000     325.7755   -127.27924    1438.4268   -1515.6412    234.57103    951.52377 0.0012473756 0.0011740316 0.0012072326 
 2208000    282.22386   -127.00215   -788.16798    1736.2636   -1237.4241    752.20087 0.0012471652 0.0011735696 0.0012078054 
 2210000    303.88446   -127.52315   -108.29404    1987.2016   -1179.1313   -1400.8099 0.0012457629 0.0011736959 0.0012195045 
 2212000    328.65628   -127.20111    1039.6651    29.660927   -1124.8834   -1246.3378 0.0012451582 0.0011728149 0.0012272355 
 2214000    293.64637   -126.65199   -274.57589    322.65264   -137.23898   -1363.1927 0.0012442963 0.0011720619 0.0012266472 
 2216000    332.26858   -127.35556    1683.3787    4.6666992   -1.5319692   -441.85637  0.001243355 0.0011716604 0.0012265262 
 2218000    287.41977   -127.34955    71.229078    -470.1877     55.32985   -957.39915 0.0012426814  0.001170433 0.0012253699 
 2220000    282.61322   -127.87201    222.81968   -219.08474    961.74126   -2237.9248 0.0012421061    0.0011694 0.0012246911 
 2222000    323.14073   -126.69175    981.13772   -2416.8392    654.70572   -1247.2541 0.0012414181 0.0011703935 0.0012239334 
 2224000    295.12414   -127.39445   -1122.8254    1310.2761    -466.7236   -954.64503 0.0012410661 0.0011693806 0.0012225992 
 2226000    304.54337   -126.85984    655.89216   -762.80926   -675.76198   -1260.9464 0.0012428605 0.0011693407 0.0012216051 
 2228000    307.80171   -127.25315     -1610.95    459.83925   -585.87877   -161.08859 0.0012432406  0.001168576 0.0012206518 
 2230000    294.80543   -126.53548    219.22778   -836.14389    1157.7744   -791.77861 0.0012434418 0.0011674908 0.0012196985 
 2232000    313.95533   -126.91245    212.29899    41.438902   -1498.7215    745.98336 0.0012433593 0.0011664794  0.001220555 
 2234000    284.03486    -127.0188   -19.168333   -883.20456   -486.14966    421.32352 0.0012432932 0.0011654598  0.001218415 
 2236000    301.07111   -126.65629    2060.7387   -42.828106    877.46625    1552.0129 0.0012426001   0.00116469 0.0012184717 
 2238000    319.25283   -127.25302   -643.67223    2404.4353   -1831.7598    356.28665 0.0012416672  0.001163925 0.0012176575 
 2240000    283.03709   -127.31428    1083.3471    -1058.348    48.141714    -790.4391 0.0012405541 0.0011638643 0.0012173691 
 2242000    298.37915   -126.98371    561.04912    1501.8455   -1059.3008   -1452.9978 0.0012398785 0.0011640966 0.0012163417 
 2244000    307.16024   -127.97669    16.044389   -62.888321   -1094.1958   -1228.0264 0.0012403235 0.0011639745 0.0012159919 
 2246000    301.87238   -127.60549    1417.5546   -610.01462   -977.21809    780.93232 0.0012400773 0.0011656815 0.0012183497 
 2248000    328.58038   -126.81947    54.623016    481.70909   -850.28503   -1528.4485 0.0012386373 0.0011654548 0.0012171051 
 2250000    318.05415    -126.7522    498.69546   -1066.4176   -400.99705    1658.3626 0.0012375372 0.0011652812 0.0012169883 
 2252000    278.70824   -127.02168   -63.442665    27.615742   -906.88869    502.92291   0.00123666 0.0011661787 0.0012193587 
 2254000    300.41886   -127.59598   -1883.1062   -2228.8097    672.60925   -684.92096 0.0012355166 0.0011653585 0.0012190215 
 2256000    298.08177   -127.21509   -137.64428    1554.9765    281.16828    987.26751 0.0012348138 0.0011645764 0.0012210388 
 2258000    298.21131   -127.20935   -1349.4259    723.98167    159.47442    -96.27761 0.0012337917 0.0011646836 0.0012193721 
 2260000    297.69249   -126.74347    821.23249    1405.3433    137.85768   -605.79811 0.0012331294 0.0011636941 0.0012197927 
 2262000    282.23212   -126.94048   -155.83274     520.0875    1199.9525   -127.70569 0.0012322187 0.0011648457 0.0012185412 
 2264000    272.43862   -127.57319   -601.04451    411.32456    1220.1302    1882.4266 0.0012314155 0.0011643156  0.001218202 
 2266000    304.98753   -127.10758    1660.7706    2227.2607    623.36053   -9.2593637 0.0012318678 0.0011635133 0.0012197905 
 2268000     306.5885   -127.84317   -1989.3553    1795.4743     903.9046    606.51703 0.0012311029 0.0011631133 0.0012226326 
 2270000    259.20146   -127.17521    782.66351    815.39137   -187.15753   -609.08777 0.0012306087 0.0011623778 0.0012211644 
 2272000    286.29538   -127.42416   -387.09362   -537.87126    1578.1353   -1726.0435 0.0012300494 0.0011617366 0.0012211998 
 2274000    311.02575   -127.08231   -594.03945   -345.81782   -710.59521   -1075.8196 0.0012290414 0.0011620002 0.0012198168 
 2276000    287.19226   -128.41248    1277.8145     1397.113   -184.26256    305.73721 0.0012278609 0.0011624235 0.0012187213 
 2278000    336.10086   -127.18298   -1292.9974    161.09545   -650.52658    1151.2341 0.0012261998 0.0011618183 0.0012179307 
 2280000    321.39802   -127.99237    1742.5913    105.91488    138.11635    2148.7848 0.0012251118 0.0011620151 0.0012174995 
 2282000    313.29649   -127.59645   -100.18363   -920.94182    868.31946    1924.8432 0.0012239784 0.0011615913 0.0012169498 
 2284000    322.39906    -128.3286   -2321.1535   -618.91372   -338.84537    78.961752 0.0012234341 0.0011610306 0.0012170241 
 2286000    320.97608   -127.32981    1305.0465   -1333.4141    1369.7638    614.33514 0.0012216759 0.0011624641 0.0012163539 
 2288000    285.36539   -127.62639   -2352.6351    1683.2479    1518.2111   -1582.8734 0.0012211204 0.0011598003 0.0012160155 
 2290000    278.29139    -127.1591    1449.4707    362.39498    1068.0426   -964.28878 0.0012199791 0.0011586522 0.0012151223 
 2292000    256.67361   -127.41276    1221.0834    1717.5886    255.45525   -396.16375 0.0012187505 0.0011575254 0.0012179501 
 2294000    270.76018   -127.23676    353.69496    1769.7065    -667.1916    1896.7606 0.0012176888 0.0011564101 0.0012192252 
 2296000    325.69724   -127.15427    2781.1711   -121.61964    259.09368    889.75402 0.0012166251 0.0011554292 0.0012196953 
 2298000    278.40291   -126.80142   -667.68929    658.03964   -209.59819    2666.1253 0.0012175221 0.0011566509 0.0012183391 
 2300000    291.17665   -127.33006    1488.0139   -1566.4734   -912.80831    310.42641 0.0012159694 0.0011565946 0.0012175539 
 2302000    315.52212   -127.37188    216.57749   -161.83154   -1709.9622    1322.0301 0.0012147628 0.0011557175 0.0012178142 
 2304000    286.04845   -127.66193   -430.54286   -688.19763   -997.41844    1273.1107 0.0012143585 0.0011545657 0.0012187259 
 2306000    261.69611   -127.16994    2262.7509   -1417.4234   -66.581475    1509.6995 0.0012158616 0.0011535307  0.001217018 
 2308000    317.49877   -127.68297   -2614.6412   -79.142999    1945.4126     1240.251 0.0012148715 0.0011575608 0.0012182209 
 2310000    281.59819    -127.6714    596.20486    681.13742    359.44159   -77.694134  0.001214181 0.0011561124 0.0012180017 
 2312000    352.20098   -127.11532   -617.74926    1346.1647    2121.8384   -956.01255 0.0012138959 0.0011551828 0.0012168658 
 2314000    288.60924   -127.12846   -1125.2269    1103.6444    828.62198   -1187.7004 0.0012128876 0.0011544898 0.0012159893 
 2316000    325.81197   -127.49956    2115.1189   -763.92646    1051.8753   -1003.9293 0.0012118366 0.0011551398 0.0012148564 
 2318000    312.76282   -126.64948    -1004.365     1166.142    2326.9638    -3464.723  0.001211869 0.0011575696 0.0012141254 
 2320000     280.6865   -127.31992    2842.9466    317.34007   -4.9900108   -2485.0872 0.0012125944 0.0011574746 0.0012128014 
 2322000     292.3264   -127.21914    865.05317   -259.60983    2914.4331   -2310.5307 0.0012122161 0.0011560166 0.0012120249 
 2324000    284.34425   -127.35707   -784.44924    1686.3324   -304.73235     468.4834 0.0012114739 0.0011566049 0.0012109808 
 2326000    296.69656   -126.81207    1909.6792   -450.47132    36.464646    2014.7163 0.0012103456 0.0011590619 0.0012100309 
 2328000    288.96165   -127.85667   -3389.1953   -1600.0081    1314.6221    1922.7183 0.0012092476 0.0011586313 0.0012109252 
 2330000    270.50781   -127.65945    306.78726    307.77725   -1151.8205    1569.7794 0.0012079511 0.0011577362 0.0012139118 
 2332000     286.5905   -127.89779   -700.73655   -133.99175    954.66487    1281.8553 0.0012084003 0.0011581245 0.0012168188 
 2334000    294.73707   -126.18533    107.32584    448.66119   -654.98316    1710.1749 0.0012079403 0.0011615103 0.0012226639 
 2336000    287.36153   -126.89416    2837.8521     713.0003   -2044.5462    42.768621 0.0012069522 0.0011617391 0.0012291522 
 2338000     292.9421   -127.04783     -1991.63    1218.7481   -3199.8711   -111.27561 0.0012059712 0.0011609131 0.0012339805 
 2340000    295.46953    -127.7029    1076.7907    135.20526   -335.50354   -768.97446 0.0012056059 0.0011619783 0.0012408939 
 2342000    305.12718   -127.89704   -1404.8812    1131.6685   -215.41483   -450.62719 0.0012054524  0.001162228 0.0012456289 
 2344000    285.70975   -127.11659   -223.40572    -1186.256     1142.598    1018.3015 0.0012059345 0.0011611852 0.0012474907 
 2346000    263.31588   -127.69881    2033.7759    93.582709    2946.4976    -614.6461 0.0012050475 0.0011602414 0.0012483126 
 2348000    310.59876   -127.25709   -1459.4222   -945.91472    1323.5584   -303.91054 0.0012039697 0.0011595843 0.0012473975 
 2350000    290.62431   -127.88482    2057.3818    18.682649    1930.0973    1326.2537 0.0012028196  0.001158806 0.0012464113 
 2352000    334.43131   -126.95085   -196.34915    1177.2775   -205.19239    347.78097 0.0012022135 0.0011580153 0.0012452631 
 2354000    301.34719   -127.23143   -1083.8777    290.84083   -1560.6004    575.60477 0.0012021209 0.0011576126 0.0012451691 
 2356000    273.19038   -127.57608    1379.8751    257.15304    122.17412   -593.48461 0.0012047599 0.0011563568 0.0012449423 
 2358000    310.40707   -127.69881   -3144.7447    1486.4526   -1996.5148    683.70464 0.0012046852 0.0011550753 0.0012445316 
 2360000    377.23808   -127.09285    2257.6601    1182.5375    668.74092    187.13594 0.0012039129 0.0011544662 0.0012437085 
 2362000    312.20575   -127.54534   -142.87028    1827.8563    -601.7868     643.9156 0.0012050258 0.0011535669 0.0012443846 
 2364000    304.40074   -127.72264   -782.35779    366.48991    920.30038    1351.3943 0.0012040414 0.0011530853 0.0012453428 
 2366000    301.47227   -127.19882    3186.0438    952.05522    2024.5219     1861.694 0.0012038243 0.0011524121  0.001244187 
 2368000    326.44962   -126.98744    -2546.517    1737.3672   -516.29018    3318.9886 0.0012065718 0.0011515376 0.0012431111 
 2370000    291.42686   -127.51805    1020.3594   -990.32122    2116.0425     1044.513 0.0012049619 0.0011533929 0.0012420288 
 2372000    286.78937   -128.46368   -1681.1728   -415.04036   -458.30444    405.64352 0.0012039616 0.0011530236 0.0012414654 
 2374000    318.20657   -127.20135   -513.24603   -702.08351    872.00434   -1668.7202 0.0012031278 0.0011532644 0.0012414347 
 2376000    310.57381   -126.24756    3745.3299    122.86944   -785.23886   -2194.1001 0.0012027196  0.001154058 0.0012408487 
 2378000    280.15191   -127.80629   -2497.1726    572.17597   -2351.3093    877.68859 0.0012037938 0.0011525968 0.0012416792 
 2380000    286.46486   -127.46176    3070.2271   -1677.9442    287.40961   -410.85334 0.0012038033 0.0011536128 0.0012429746 
 2382000     329.5028   -128.23941   -1336.5942    938.22474    47.441574    2039.2339  0.001205487 0.0011526891 0.0012467674 
 2384000    289.46078    -127.3964   -1361.3144   -1043.6422    -224.4786    270.34328 0.0012050127 0.0011514221 0.0012492709 
 2386000    347.35573   -127.18049    2231.4572     2796.153    424.01897    2331.2563 0.0012041491 0.0011504969 0.0012481333 
 2388000    318.07027    -127.0423   -2410.8703    1749.2893   -960.66646    982.21485  0.001203303 0.0011506972 0.0012481179 
 2390000    308.14903   -127.18705    3081.7536    -355.0518   -873.06727   -69.491181 0.0012022844 0.0011490984 0.0012471595 
 2392000     339.9761   -126.55098    409.16822   -124.31063   -1002.8552    1856.4047 0.0012012118 0.0011481827  0.001249514 
 2394000     281.3322   -127.20987   -866.39815   -1298.8556   -1970.6065   -1584.1719 0.0012003325 0.0011473954  0.001251685 
 2396000    284.14392   -126.87294    2529.0892   -679.55817   -2262.3473    398.61769 0.0012013224 0.0011466364 0.0012513393 
 2398000     296.6795   -127.39019   -2976.4259   -639.78691   -2139.8093    -1192.752 0.0012001555 0.0011456261 0.0012502131 
 2400000    300.97406   -127.23478    2009.6752   -500.73774   -1533.1821   -249.43542 0.0011992923 0.0011453139 0.0012489245 
 2402000    309.45579   -127.20369   -1064.9033   -1322.8972   -1344.7709    -134.7274 0.0011985325  0.001144727 0.0012492557 
 2404000    328.52153    -127.8428   -636.76885    571.34138   -687.66292   -1092.3687 0.0011976618 0.0011446846 0.0012481201 
 2406000    275.38343   -128.18111    1727.2086    130.75188   -159.46004    1431.4917 0.0011969898 0.0011456945 0.0012470685 
 2408000    321.47754   -127.98054   -2915.2094    1145.9413   -997.22612    638.65695 0.0011967507 0.0011437575 0.0012461383 
 2410000    320.20228   -127.73752    2207.1021    949.40523     1616.405    59.811518 0.0011967345 0.0011442166 0.0012450144 
 2412000     329.5692   -128.12783   -2617.6065    186.59565    193.07183   -354.89591 0.0011961592 0.0011425124 0.0012438807 
 2414000    313.51787   -128.30593   -1411.2363   -606.63686    811.33007    -467.1117 0.0011953196 0.0011420141 0.0012432039 
 2416000    321.69299    -128.1035    1533.0038    949.49768    846.93706     1845.532  0.001194427 0.0011407062 0.0012417996 
 2418000    290.31384   -127.42279   -1923.3736   -1944.1521    90.075444   -239.83275 0.0011939522  0.001140956 0.0012409069 
 2420000     320.2111   -127.06071    3785.5565   -657.20819    -631.3865    1442.8012 0.0011939193 0.0011402998 0.0012396194 
 2422000    300.60626   -126.66544   -1139.5411    -2735.884   -69.656454    1921.4429 0.0011953581 0.0011387264 0.0012388694 
 2424000     288.7888   -127.13938    -11.58788    -1746.125   -1238.6624    749.38505 0.0011955917 0.0011393173 0.0012385998 
 2426000    289.88346   -126.98864    1044.8905   -2002.4213   -373.37114    1238.2427 0.0011955817 0.0011392208  0.001238438 
 2428000    292.92298   -126.75914   -3389.8078   -664.81135   -111.50078    643.46808  0.001196073 0.0011385608  0.001238551 
 2430000    293.51809   -127.41688    2032.3401    75.664103   -257.60023   -89.855384 0.0011973582 0.0011375505 0.0012378776 
 2432000    273.69377   -126.39825    -1316.043   -1172.3298    168.23133   -780.21135 0.0011974447  0.001136915 0.0012368975 
 2434000    296.23973   -127.10023    287.42545    203.09003    569.46636   -1941.5936 0.0012024887 0.0011362223 0.0012361129 
 2436000    312.44776   -127.45614    3360.0054    745.21603   -886.76946   -268.87416 0.0012013292 0.0011347519 0.0012362234 
 2438000    318.92129   -127.49749   -2876.9695   -2793.4941   -1923.9649   -799.76765 0.0012004429 0.0011338053 0.0012358476 
 2440000      281.563   -127.19778    2840.7386    385.90617     165.2788    873.39933 0.0011999466 0.0011338994 0.0012352772 
 2442000    295.11649   -127.72232   -2060.3799   -1093.0908    383.05017   -8.6650129 0.0012038962 0.0011328953 0.0012358668 
 2444000    262.13652   -128.73825   -1440.2322   -2762.0908   -55.005283   -305.16699  0.001204098 0.0011316387 0.0012377758 
 2446000    359.94464   -127.43599    2231.0975    824.34145   -895.20468    925.65406 0.0012042162 0.0011309812 0.0012397031 
 2448000    286.68434   -128.08711    -3293.652   -590.57659    680.85215    318.65094 0.0012034117 0.0011301398 0.0012396038 
 2450000    322.53241    -127.3154    3002.6073   -707.83032   -455.03439    330.21455 0.0012036166 0.0011292236 0.0012385414 
 2452000    275.95545   -126.93773   -1927.9812   -435.13708   -1497.1899   -1385.1364 0.0012036626 0.0011289335  0.001237726 
 2454000    285.95415     -128.217   -2118.7203    110.92931     114.1022     102.4474 0.0012049509 0.0011289266 0.0012391743 
 2456000    289.78037   -128.20451    374.16469    -333.6124    -362.8447    846.38948 0.0012041616  0.001128634 0.0012424967 
 2458000    279.67466   -127.26757   -3253.2856   -1460.0247   -876.65086   -484.55876 0.0012042483 0.0011276739 0.0012433187 
 2460000    297.47731    -127.6335    2956.8666    449.04138    1576.6344    1628.1476 0.0012046625 0.0011288403 0.0012431147 
 2462000     281.7613   -127.50627   -1563.4474   -900.91216    1315.2124    22.729288 0.0012037954 0.0011300802 0.0012417198 
 2464000    290.58171    -128.0061    1073.4307   -1073.3886    524.50569   -459.39519 0.0012027109 0.0011348069 0.0012408366 
 2466000    301.29938   -127.19003    2738.4555   -515.83134    234.92872    78.572464 0.0012017789 0.0011386249 0.0012423935 
 2468000     288.2076   -127.63394   -2575.7751   -605.06795   -699.09245   -147.02934 0.0012015551 0.0011368252  0.001242759 
 2470000    326.54369   -128.10652    2906.0397   -753.80805    -1661.196   -38.775952 0.0012008295 0.0011358016 0.0012420082 
 2472000    340.90499   -127.86454    -1883.945   -8.9630951    3.2682744   -1344.3087  0.001199413 0.0011357154 0.0012422406 
 2474000    295.29883   -128.08919    40.699074   -306.91311   -954.44905    202.34958 0.0011986035 0.0011349047 0.0012447527 
 2476000    305.40152   -127.66195    1636.0748    948.13137    1168.0402   -1059.6768 0.0011989018 0.0011344322 0.0012436719 
 2478000    316.12954   -128.71416   -3738.9251    530.38177    591.05505   -436.25231 0.0012010631 0.0011339182 0.0012426407 
 2480000    297.43588   -129.10199    1592.0824   -46.326587    715.24583    583.24368 0.0012013052  0.001133055 0.0012428126 
 2482000    342.09059    -127.7664   -2714.7477    1365.2887   -1047.7869   -1588.3225 0.0011999262 0.0011330214 0.0012422774 
 2484000    337.34935   -128.18145   -724.93329   -451.01523   -1264.4036   -1006.0945 0.0012014234 0.0011317858 0.0012413737 
 2486000    312.39023   -128.06452    1639.6423    41.262833     545.7549   -45.629649 0.0011998407 0.0011309988 0.0012404105 
 2488000    310.28774   -127.52816   -2948.0428   -1176.4273   -1320.5939   -379.19211 0.0011997766 0.0011303508 0.0012402992 
 2490000    306.71871   -127.78013    4424.6107   -392.88101    487.31788    2400.9119  0.001198656 0.0011294898 0.0012392061 
 2492000    303.10718   -127.95267   -1268.8036    404.45041   -382.27774   -436.69936 0.0011982197 0.0011289075 0.0012384937 
 2494000    334.58517   -127.77311     125.1871    -40.04425   -386.16598     2466.883 0.0011976961 0.0011279643 0.0012381058 
 2496000    314.17888   -128.56638    1146.5599    1160.0131    258.54119    274.80044  0.001198773 0.0011270095 0.0012380474 
 2498000    287.78188   -127.92516   -4200.3612   -616.00708   -385.74367   -1153.5457 0.0011981373 0.0011261132 0.0012372773 
 2500000     267.7199   -127.86216    2416.6187    1277.3565    905.31144    695.72212 0.0011974767 0.0011251966 0.0012367569 
 2502000    299.63966    -128.1794   -3448.1115   -646.83123    1152.5745   -302.99898  0.001196558 0.0011241723  0.001237182 
 2504000     314.8184   -128.16583    241.60948    132.02615    404.18424   -719.31793 0.0011958363 0.0011235571 0.0012371834 
 2506000    326.72773   -127.96878     1426.068    242.44207    812.74865    1754.0094 0.0011948066 0.0011226117 0.0012375743 
 2508000    291.16412   -127.33839   -2035.1901   -1765.6907   -1901.9404   -324.78854 0.0011946602 0.0011221108 0.0012371722 
 2510000    315.76536   -128.37079     3038.276    -118.3372    448.98351    1550.7475  0.001194557 0.0011217797 0.0012362404 
 2512000    295.85179   -128.26337   -2464.9364   -639.13113    621.41966    508.87396 0.0011935628 0.0011220369  0.001235209 
 2514000    303.63541   -127.28857    890.37074   -1621.2809    623.95359    3561.4202 0.0011929116  0.001121803 0.0012362254 
 2516000    303.30559   -126.71616     2034.522    1026.2981    575.55727    2432.9108 0.0011921082 0.0011221118 0.0012383918 
 2518000    309.81435   -127.26774   -3168.8006    2361.9512    467.24275     168.3287 0.0011908827 0.0011217481 0.0012377073 
 2520000    315.88079   -127.08318    2986.2475     2439.948    1812.3295   -753.71616 0.0011901551 0.0011202462 0.0012373865 
 2522000    315.71109   -127.83674   -4185.6687    405.16173   -1.8982597   -3128.0689 0.0011893283 0.0011194045 0.0012362366 
 2524000    324.17695   -128.23692   -686.76999   -87.963255    417.19448   -992.88917 0.0011902978 0.0011190605 0.0012351916 
 2526000    295.96431   -128.10004     489.8406   -1208.1125   -382.26813   -500.83779 0.0011914315 0.0011182085 0.0012341804 
 2528000    280.17167   -127.86556   -2874.7986   -449.83607    589.18785   -1831.6395 0.0011904781 0.0011174012 0.0012331939 
 2530000    330.17582   -127.33401    4123.8993    732.02045    -3042.317    409.46871 0.0011900864 0.0011165893  0.001232029 
 2532000    269.03071   -127.69961   -1189.8521   -517.42335    334.21588    1887.5656  0.001189241 0.0011158347 0.0012308943 
 2534000    282.90989   -127.63339    2062.5722     890.1638    972.23845     719.4592 0.0011894316 0.0011161423 0.0012298774 
 2536000    261.88537   -128.06735    1792.3239   -1156.2305   -75.190856    949.99378 0.0011891199 0.0011159954 0.0012300498 
 2538000    320.60393   -128.22013   -2707.6896    1491.7624     815.0603   -463.16638 0.0011880537 0.0011155842 0.0012300979 
 2540000     291.6807    -127.6031    2628.3489    1247.7139    150.26024    61.966614  0.001187233 0.0011146709 0.0012309034 
 2542000    276.14995   -127.35084   -3227.3254   -959.04566   -747.68392    1903.2092 0.0011865439 0.0011138432 0.0012299282 
 2544000    300.35249   -127.81505   -616.93603   -452.82677   -1922.0304    2110.8353 0.0011855804 0.0011156183 0.0012290224 
 2546000    288.44049   -127.05362    -912.1753   -1067.2814   -1393.3046    948.42728 0.0011844991 0.0011164067 0.0012281361 
 2548000    280.26785   -126.66624   -2630.0181    56.370868   -3038.9718    -125.8452 0.0011839243 0.0011190401 0.0012274539 
 2550000    301.49972   -127.57014    774.33677    2505.1505    882.65938   -1293.1044 0.0011829882   0.00112767 0.0012265585 
 2552000    297.94396   -127.58354   -2369.2924    1813.6793   -152.80422     -2586.17 0.0011839699 0.0011309097 0.0012289361 
 2554000    316.93882   -127.46757    1165.8824    4944.7301    2968.8639   -638.46562 0.0011824464 0.0011298091 0.0012295522 
 2556000    308.08087   -127.65996    722.41107   -223.76854   -1530.8514   -1301.1938 0.0011813454 0.0011286628 0.0012289191 
 2558000    301.09201    -127.5062   -310.46757    1457.1734    96.861488    499.99369 0.0011817026 0.0011291844 0.0012280272 
 2560000    270.90977   -127.62791    2092.9029   -633.86264   -983.98043     474.5679  0.001181313 0.0011281192 0.0012277166 
 2562000    344.25784   -127.06417   -842.54602   -323.44694   -1477.5585    1146.1345 0.0011827078 0.0011275096 0.0012302974 
 2564000    279.63616   -127.48041    301.06978    -464.8495   -1044.1504   -448.50607 0.0011816122 0.0011265091 0.0012320969 
 2566000    329.57042   -127.47818   -943.13037   -2355.3022   -1269.7548    2080.3674 0.0011823964  0.001126122 0.0012323072 
 2568000    293.48997   -128.27505   -2445.5301    494.36005    1396.1846   -102.59428 0.0011831298  0.001126864 0.0012316404 
 2570000    333.08053   -126.91906    627.32705   -587.62992    1061.4762    571.18524 0.0011840694 0.0011280228 0.0012312594 
 2572000    290.38134   -127.78165   -2060.6945   -517.63109    973.99845    624.39767 0.0011875543 0.0011267972 0.0012304044 
 2574000    307.80831   -127.25784    814.53832    1138.8214    1152.6057    689.54114 0.0011875748 0.0011255275 0.0012295487 
 2576000    309.30979   -128.01775   -881.15655    -1545.253   -845.82598    -252.5937 0.0011882095 0.0011247766 0.0012299351 
 2578000    331.46806   -126.95836   -219.36708    1184.5859    3325.5658   -1150.7528 0.0011872988 0.0011270574 0.0012288539 
 2580000    297.61168   -127.96163    2170.1403    831.38451    -1453.215   -928.55452 0.0011865308 0.0011304648 0.0012279391 
 2582000    318.56894   -127.61022   -661.03192   -1380.3939    968.58105   -1513.9972  0.001185492 0.0011366317 0.0012274042 
 2584000    323.62839   -127.28018    1820.7107    808.61387    2656.4685   -1750.6865 0.0011847311 0.0011367384 0.0012272047 
 2586000    312.46368   -127.99205   -216.44706   -1624.5536    1056.7565    835.80401 0.0011836152 0.0011361172 0.0012262708 
 2588000    321.81018   -127.22164   -29.009998    1561.8073    2092.2123    -1679.371  0.001183005 0.0011370579 0.0012269505 
 2590000    332.07265   -127.63855    962.00035    -515.5987   -76.703662     1913.541 0.0011845147 0.0011451206 0.0012259406 
 2592000    310.66792   -127.23091   -2266.7829    196.85186    2321.0106    1915.8379 0.0011834759 0.0011474151 0.0012262462 
 2594000    316.42491   -127.64974   -265.12701    262.61185   -1473.1191    453.80275 0.0011832621 0.0011492704 0.0012267723 
 2596000    312.61999   -127.33846   -1331.6874     1662.016    14.855936    -113.5875 0.0011823753 0.0011538167 0.0012266419 
 2598000     280.9414   -127.33335   -1307.3009    3345.2355    545.14918   -553.15004 0.0011816681 0.0011536413 0.0012257769 
 2600000    267.54672   -127.52342     666.5578    2202.6508   -1660.2315    1003.3979 0.0011811759 0.0011539725 0.0012245479 
 2602000    285.82793   -127.44709   -741.03541    715.40852   -186.42965    430.98109 0.0011799971 0.0011553014 0.0012235919 
 2604000    263.66315   -128.00474    1630.1127    80.665827   -1350.7288   -349.62465  0.001179503 0.0011577433  0.001222744 
 2606000    279.92721   -127.98085   -206.29904      1217.75    2075.7283   -180.19117 0.0011794686 0.0011588371 0.0012217993 
 2608000    298.22215   -127.81724    1259.8499    248.56488    127.01239   -1089.2821 0.0011831465 0.0011619004 0.0012208554 
 2610000    282.88767   -127.03599    1489.3005    502.97115    527.72245   -2310.9556 0.0011856804 0.0011643772 0.0012197619 
 2612000    310.43393   -127.57184   -569.40071    -696.8327    138.38729   -969.44482 0.0011876705 0.0011685791 0.0012193187 
 2614000    278.41106   -128.16854    788.26659   -1841.9785   -533.03539   -1751.2072 0.0011865221 0.0011686869 0.0012184307 
 2616000    286.40975   -127.89619   -179.19138   -1808.8379   -1202.6082   -1405.7782 0.0011856194 0.0011682711 0.0012174947 
 2618000    286.50054   -127.71003   -329.66621   -775.92645   -1117.0239    822.25037 0.0011847222 0.0011675991 0.0012161524 
 2620000    274.75525   -127.53253   -622.31109   -673.61099     536.4608   -876.30848 0.0011837607 0.0011669431 0.0012158351 
 2622000    279.18696   -127.01258   -1430.8958    130.36865    -738.9419    1938.5712 0.0011874471 0.0011671358 0.0012150768 
 2624000     308.8651   -127.94081    250.86653    3385.3722    786.40215    1367.2707 0.0011918786 0.0011664207 0.0012140843 
 2626000    322.89353   -126.89801   -1120.6597    2796.6563    1191.4888    3008.6559 0.0011920813 0.0011654298 0.0012135846 
 2628000    298.21165   -126.84462    1503.7305    2733.1038    704.32623    913.23808 0.0011977463 0.0011659354 0.0012124531 
 2630000    315.45353   -127.46905    1047.2317    1957.1973   -126.45543   -1239.3511 0.0011993521 0.0011664339 0.0012132289 
 2632000     315.8307   -126.75308    540.91537   -624.22774    535.80214    1722.9935  0.001199656 0.0011699499 0.0012150791 
 2634000    298.34456   -127.35095    2591.8828   -474.55165   -1210.2919    398.71519 0.0011988894 0.0011713654 0.0012166718 
 2636000    297.17537   -127.47593   -901.69687   -2583.7348   -1772.0269   -882.77213 0.0011981279 0.0011721229 0.0012158221 
 2638000    272.65776   -127.29392    612.95682   -1063.4047   -1651.0333   -1070.2518 0.0011971202 0.0011731751 0.0012156978 
 2640000    312.15908   -127.46517   -1197.8409   -2271.9537   -1995.2989   -125.03006 0.0011980823  0.001171799 0.0012150328 
 2642000    319.10366   -127.57558    -2029.756    381.75351    164.24294    183.00399 0.0011972054 0.0011708655 0.0012156781 
 2644000    281.99966   -128.16556   -695.56713    -1370.482    1189.6313    266.00191 0.0011971447 0.0011699371 0.0012156357 
 2646000    257.78088    -127.5207   -1182.0139   -394.33067     160.1557    1526.6909 0.0011962313 0.0011692999 0.0012206119 
 2648000    276.20974   -127.40564    960.52004    924.64189   -649.27904    -226.2032 0.0011966462 0.0011684153 0.0012233218 
 2650000    330.68972    -127.0965   -12.453715   -384.16692    150.11344   -899.82348 0.0011960369 0.0011679244 0.0012240105 
 2652000     298.1774   -127.76885    876.13088    2579.3707   -920.23782    309.91507 0.0011954075 0.0011670739  0.001222751 
 2654000    274.94906   -127.63591    1142.3188    94.837699    1281.9209   -1529.8905 0.0011944154 0.0011666472 0.0012217102 
 2656000    299.87754   -127.78577    -1469.984    947.64045    1469.4619    1061.6668 0.0011935961 0.0011657156 0.0012207957 
 2658000     285.6999    -126.4327    1935.5106     1577.929    2060.1353     213.8854 0.0011926882 0.0011653201 0.0012203899 
 2660000    288.41658   -127.21393   -1689.9278   -290.16111   -775.32782   -3481.4505 0.0011919841 0.0011648846 0.0012206248 
 2662000    296.09052   -126.90539    829.19928    400.77289    -704.0157   -1520.2894 0.0011949941  0.001165358 0.0012197096 
 2664000    291.74589   -127.16433   -713.09285   -774.83657   -3111.0868    52.982223 0.0011987595 0.0011649698 0.0012188857 
 2666000    328.15264   -127.07555   -1925.9588   -629.62406   -1957.7789   -1063.5656 0.0011998701 0.0011646982 0.0012181788 
 2668000    296.95543   -127.03411    214.27081   -544.68036   -2421.8306    835.25858 0.0011987379 0.0011650598 0.0012201258 
 2670000    311.41757   -126.95909    -2237.856   -152.01181   -2917.1415   -1519.5474 0.0012032362  0.001164732 0.0012187563 
 2672000    301.10944   -127.69587   -728.39635   -57.067097   -118.48458    2326.1494 0.0012030725  0.001164204  0.001217914 
 2674000    296.92414   -127.01677    821.74043     895.6247     854.7641    1719.2645 0.0012031663 0.0011640906 0.0012169806 
 2676000    301.19699    -128.2236   -1107.6727    74.268258    1801.9126    50.843813  0.001202128 0.0011627718 0.0012165515 
 2678000    326.12905    -128.2765    1367.3682   -1026.0067    1842.7005    314.94923 0.0012018486 0.0011624946 0.0012174916 
 2680000    288.32788   -127.39352   -577.70277   -160.92112    904.78006     150.9812 0.0012009289 0.0011634107 0.0012167218 
 2682000    295.44647   -126.62022    884.33485   -113.58822     1797.454   -266.28404 0.0012016912 0.0011633104 0.0012179289 
 2684000    302.06174   -127.52681    -470.8034    1380.4861    192.31757   -1756.8912 0.0012001811 0.0011629098 0.0012189958 
 2686000     303.3631   -127.38117   -1073.4913    131.84255   -752.05166   -1016.0379 0.0011998399 0.0011626928 0.0012184244 
 2688000     314.5122   -127.94433    860.01307   -425.81456   -426.87647   -984.82753 0.0011989714  0.001163167 0.0012178925 
 2690000     321.8026   -127.57472   -860.35109    74.635314   -2232.9003    79.214085 0.0011984222  0.001161089 0.0012177363 
 2692000    314.41781   -127.82164   -268.90146     354.7135   -1292.2686    803.23588 0.0011985468 0.0011613811 0.0012170312 
 2694000    310.48669   -127.90708    480.55865    265.77713    -1325.956   -615.32949 0.0011979427 0.0011635594 0.0012161875 
 2696000    322.30738   -127.13068    97.751413    1176.5068    2602.3441   -301.18956 0.0011982547 0.0011632975 0.0012149216 
 2698000    295.23409   -127.22302    343.40073   -618.31963    909.31542   -973.95728 0.0011974601 0.0011625555  0.001215032 
 2700000    284.06635   -127.43597   -2084.3511   -40.909494    2307.1437     37.37397 0.0011965273 0.0011620193 0.0012157242 
 2702000    301.26804   -127.06717    400.39026    -319.5963    1104.7238    532.39093 0.0011961214 0.0011610684 0.0012150698 
 2704000    317.70079   -127.28088   -556.65872    147.60239    1774.4934    1290.8736 0.0011958237 0.0011603066 0.0012138459 
 2706000    263.45419   -127.18938    -240.3247    1798.2583   -88.972651    369.01932 0.0011962502 0.0011593594 0.0012131348 
 2708000    296.08743   -126.53694    1590.7741    726.63357    206.56491    181.31885 0.0011955003 0.0011582198 0.0012122975 
 2710000    305.68697   -126.22835   -632.00907    12.074051    753.79345   -1511.7242 0.0011947971 0.0011571695  0.001211166 
 2712000    307.12418   -126.91881    398.49524   -1304.9241    225.16584    664.28288 0.0011968083  0.001156787 0.0012106853 
 2714000    300.74063   -126.69206    345.66306   -287.67762   -3419.0005   -388.02932  0.001197994 0.0011557107 0.0012118067 
 2716000    298.92779   -127.56602   -1083.2233   -1487.2149   -2992.6731   -306.03159 0.0011978828 0.0011553205 0.0012106856 
 2718000    312.85346   -128.22633    223.57925    -1524.932   -166.05164    448.81533 0.0011972368 0.0011554757 0.0012098668 
 2720000    265.80765   -127.94166   -1712.6447   -2494.0525   -2084.5098   -2314.4093 0.0011968972   0.00115773 0.0012090478 
 2722000    295.59884   -128.20582   -235.81234   -592.22736    1061.6744   -1303.4382  0.001196185  0.001158278 0.0012098738 
 2724000    315.79482   -128.65305   -357.49201    309.87654    1856.2273   -1668.3923 0.0011952843 0.0011575524  0.001212555 
 2726000    301.83746   -127.91468   -2230.7518    998.77319     1463.612    1942.4975 0.0011984163 0.0011564265 0.0012152965 
 2728000    347.27854   -128.47743   -7.2504332    1286.7068    3601.5009    688.28863 0.0012002422 0.0011556626 0.0012158745 
 2730000    276.99536   -127.68987   -711.00285   -294.88169    369.67457   -343.83866 0.0012003368 0.0011552676 0.0012174001 
 2732000    320.75625   -127.68914    739.50147   -1085.5801    380.28567    1324.2026 0.0011993022 0.0011548105 0.0012212964 
 2734000    290.00707   -128.18767    1368.4036   -991.11255    647.53504    1078.3239 0.0011984726 0.0011566504 0.0012208185 
 2736000    308.86303   -127.53797   -864.68921   -960.71132   -1837.6895     468.5046 0.0011974704 0.0011555147 0.0012206385 
 2738000    323.06814   -128.30403    1061.1447   -1160.4429    998.47136    1695.7239 0.0011965125 0.0011546769  0.001220775 
 2740000    325.20619   -127.48897   -748.25628   -1841.4543   -1942.0248    391.30436 0.0011957735 0.0011539333 0.0012205918 
 2742000     299.3668    -127.4942   -302.22551     173.0476    1761.1777    1518.9192 0.0011950298 0.0011539902 0.0012202344 
 2744000    315.58078   -127.79407    745.82092    -62.77585    75.493954    -1958.128 0.0011943764 0.0011528068 0.0012192883 
 2746000    300.16461   -127.80884   -1692.0774    1840.4152    -1082.897    987.98447 0.0011947115 0.0011517643 0.0012195559 
 2748000    280.52009   -127.06506    1177.2283   -2344.9397    974.86572   -1030.7164 0.0011941509 0.0011510876 0.0012186254 
 2750000    298.66293   -127.60624   -863.13429   -524.40684   -920.64151   -702.67524 0.0011943327  0.001150938 0.0012175246 
 2752000    299.40258   -127.89279   -6.7929774    -1324.478   -709.66625    870.23123 0.0011947157 0.0011527153 0.0012167691 
 2754000    318.57299   -127.73474    1139.5055   -320.08599    143.21485   -1829.8207 0.0011937473 0.0011530218 0.0012165346 
 2756000    293.32852   -127.70687   -907.54042    814.56594   -1134.0427    280.25413 0.0011937239 0.0011521289 0.0012159093 
 2758000    306.38094   -128.00626    1754.2136   -1606.8232    1744.0774   -864.54854 0.0011928016 0.0011514744 0.0012147941 
 2760000    280.36095   -128.14595   -841.42937     184.0704   -2802.3072   -537.72406 0.0011919398  0.001151435 0.0012147035 
 2762000     310.8074   -127.37361    175.59147    -1289.273    1274.6025    912.55569 0.0011917162 0.0011535077 0.0012138828 
 2764000    285.01097   -128.19878    614.19561   -1640.2979   -479.90874   -950.90823 0.0011911599 0.0011537708 0.0012136877 
 2766000     323.4768   -127.77721   -1481.8236   -77.431193   -1047.3517    -1034.623 0.0011912822 0.0011536977 0.0012160216 
 2768000      291.213   -127.82192    468.76067   -631.39166    1070.4154   -977.02096 0.0011907896  0.001154632 0.0012181646 
 2770000    320.73938   -127.28592   -743.36214   -1486.3528   -1200.4263   -2441.5381 0.0011915474 0.0011535057 0.0012183117 
 2772000    283.54737   -126.84511   -385.83393   -1240.5014   -2368.7231   -692.77195 0.0011919372 0.0011545329 0.0012193948 
 2774000    313.49776   -127.80794    512.50081   -1716.9339   -441.21995   -659.06749 0.0011913038 0.0011559523 0.0012186507 
 2776000    299.44546   -127.54597   -1870.6273   -388.59816    770.22329     620.3472 0.0011905196 0.0011565935 0.0012188697 
 2778000    316.21266   -127.66377    698.06397   -594.56187     1117.859   -549.03867   0.00119149 0.0011620664 0.0012179001 
 2780000    256.88828   -127.51574   -194.01092    1043.1616   -755.90013   -842.43943 0.0011911291 0.0011661608 0.0012170503 
 2782000    263.77142   -128.29875   -493.17854   -990.40044   -262.06415   -715.58862  0.001190252  0.001165686 0.0012161578 
 2784000    294.02397   -127.74276    746.42072    551.72675    623.11718   -1261.0899  0.001189986  0.001164902 0.0012175599 
 2786000     307.8915   -127.51476   -1930.1173    302.17545   -515.52837     1285.276 0.0011896795 0.0011640738   0.00122161 
 2788000     292.6961   -127.45778    918.98064    435.65971   -559.85035    847.78362 0.0011904467 0.0011635044 0.0012220612 
 2790000    268.58516   -127.58981    -958.1208    1100.1434   -1915.9236    2340.3082 0.0011904501 0.0011657027   0.00122204 
 2792000     326.7303   -127.95359   -985.91467   -755.88863   -3732.4973    1589.9051 0.0011896068 0.0011734788 0.0012238449 
 2794000    283.06169   -127.52682    601.28917   -607.82921   -2899.8178   -21.514526 0.0011887557 0.0011758647 0.0012232058 
 2796000      307.403   -127.52845   -1944.8535   -2459.0138   -1768.9411   -1662.3592 0.0011879905 0.0011753343 0.0012231274 
 2798000    325.58992   -127.63068     1320.913   -2095.9634    1329.6796   -4036.2484 0.0011872284 0.0011752517 0.0012218267 
 2800000    263.52949   -127.16475   -620.85096   -266.05027     1190.705   -3064.1152 0.0011865328 0.0011747467 0.0012209038 
 2802000    284.50611   -128.01202    -909.3601    1240.1601   -149.18768   -1390.6406 0.0011854247 0.0011744116 0.0012194952 
 2804000    334.57025   -127.73662    1349.0227    1727.0665    442.72815    1004.9561   0.00118744 0.0011740606 0.0012190813 
 2806000    306.36104   -127.69807   -1276.4941    2866.4829    -920.8988    -98.89285 0.0011872424 0.0011733105 0.0012182555 
 2808000    307.32824   -128.55574    1127.3076    1391.3161   -13.543846    4377.7788 0.0011892424 0.0011722167 0.0012168866 
 2810000    291.98803   -128.28753   -809.74066    1787.0304    228.61729    3154.0452 0.0011888004  0.001171728  0.001215563 
 2812000    272.00699   -128.67204   -1138.3957   -648.15117   -88.680327    1267.4584 0.0011888185 0.0011709106 0.0012143679 
 2814000    296.66597   -127.84845    542.76013    343.50322    518.62581    2888.7068 0.0011886654 0.0011702622 0.0012146944 
 2816000    306.61986   -127.03203    -1559.161   -110.32389   -108.26018    866.02712 0.0011913486 0.0011720731 0.0012145111 
 2818000     277.5802   -127.41096    1059.9107   -1505.7417    548.22549    1652.6209 0.0011928289 0.0011725476 0.0012142222 
 2820000    297.07384    -127.2932   -339.56518    550.83113   -1390.0163   -1516.9856 0.0011935568 0.0011719336 0.0012131999 
 2822000    316.30987   -128.29703    499.94076   -84.394486   -280.47311    -1352.946 0.0011925534 0.0011710107  0.001212765 
 2824000    360.57998   -127.40498    1722.2591    -1686.954    715.99626   -2678.9016 0.0011932106 0.0011700962  0.001212313 
 2826000    281.45287   -128.28925    -1552.007    349.16848   -404.28446   -436.41542  0.001193491 0.0011694173 0.0012115639 
 2828000    282.17412   -128.91752    1242.9819   -106.61687    2723.0192    603.92038 0.0011934803 0.0011682158 0.0012106767 
 2830000    275.40933   -128.22715   -1687.3295    1711.2863    2594.9027    159.88625 0.0011928631 0.0011672787 0.0012099091 
 2832000    293.95597   -126.87032    593.22851    46.946716   -290.21171   -32.836507 0.0011926874 0.0011669714 0.0012091496 
 2834000    344.50934   -128.66575    1.8017713    629.81967    877.70151   -444.41326 0.0011934423 0.0011666386 0.0012089025 
 2836000    270.97025   -128.44367   -2352.0158    1154.5966   -316.95316    762.60759 0.0011931752 0.0011658813 0.0012082763 
 2838000    318.76848   -128.05526    555.60945    623.01118   -380.38507    641.78274 0.0011924755 0.0011657934 0.0012109534 
 2840000    289.13096   -128.33678   -1910.6296    445.42904   -1258.9167    267.64706   0.00119192 0.0011657215 0.0012114259 
 2842000    286.17793   -127.80275   -518.74148    1867.2822    478.20739    783.71672 0.0011911019 0.0011649891 0.0012133469 
 2844000    259.18377   -128.07652    351.46987   -1081.7004    1225.5886    8.4167005 0.0011901859  0.001166995 0.0012171674 
 2846000    281.71317   -128.05989   -1391.9417   -958.77918    1719.1969    166.45322 0.0011891638 0.0011664022 0.0012194372 
 2848000    294.96885   -128.26812    929.29824   -2661.9217    726.16592   -1130.3769 0.0011880428 0.0011652973 0.0012199615 
 2850000    320.21332   -128.76303   -477.51097   -1118.3617   -473.28869   -1418.1877 0.0011873188 0.0011644422  0.001223397 
 2852000    280.86935   -128.50086    237.52233   -287.57716   -502.04045   -1582.4968 0.0011865171 0.0011635831 0.0012253747 
 2854000    287.23114   -127.84117    647.44959   -989.83522    512.39897    578.32654 0.0011855256 0.0011630244 0.0012275427 
 2856000    345.82827     -127.721   -1306.7795    1942.1393    -1256.101    986.14537 0.0011844464 0.0011630542 0.0012270187 
 2858000    315.63653   -128.06776    240.78298    52.196602    -1231.963    762.04128 0.0011846056 0.0011624605  0.001226142 
 2860000    313.99683   -128.03176   -1121.7009    2511.1458   -299.16971   -160.37288 0.0011839019 0.0011619546 0.0012253886 
 2862000    299.15582   -128.12912    42.374567    814.47471   -147.99386    767.42887 0.0011841041 0.0011614205 0.0012248704 
 2864000    297.16496   -127.44261   -295.39754    494.15196   -1861.2256   -183.21319 0.0011835835 0.0011633168 0.0012241205 
 2866000    300.67005   -128.66572   -1013.5925   -759.63858    518.12038    1514.5644 0.0011836791 0.0011629447 0.0012233541 
 2868000     258.3861   -127.09092    648.86242   -224.74136    525.88268    740.44962 0.0011856484 0.0011616022 0.0012226361 
 2870000    301.36957   -128.26079   -1208.6758    975.77676    676.41164    988.45794 0.0011867171 0.0011607839 0.0012217697 
 2872000    306.74751   -127.20009    232.46402    101.47931   -647.67601    2082.4846 0.0011897339 0.0011601701  0.001220968 
 2874000     313.3925    -126.8589    681.05333    2038.0669    1216.3501   -469.74105 0.0011896749 0.0011595056 0.0012204099 
 2876000    285.20048   -127.54192   -13.455847    939.94413   -1173.6032   -1989.5959 0.0011895133 0.0011582778 0.0012205913 
 2878000    272.99624   -127.99466   -318.21679    1129.5846    1321.7496    224.22502 0.0011883511 0.0011582227 0.0012217287 
 2880000    328.72986   -127.73386   -446.10104    129.72553   -3004.8531   -809.97961 0.0011875181 0.0011596925 0.0012222144 
 2882000    290.71093    -127.4015   -792.27923    578.68334   -192.38402    2154.7657 0.0011868804 0.0011607352 0.0012223965 
 2884000    308.40638   -127.91798    305.62245    1751.8892    129.54444    903.24905 0.0011862432 0.0011597721 0.0012222578 
 2886000    301.10065   -127.97127    -396.5268   -2124.5996   -689.99609   -851.20635 0.0011853038 0.0011592127 0.0012217726 
 2888000    324.17909   -127.73429    449.73048    1510.1884    2251.1962    426.06701 0.0011844831 0.0011583912 0.0012214749 
 2890000    289.67677   -127.97026    270.33846    1253.8028    860.35492   -1200.5886 0.0011838708 0.0011575473 0.0012205222 
 2892000    295.94755    -127.7236   -1232.9317    1425.3126   -174.19131     1011.873 0.0011844717 0.0011568262 0.0012198103 
 2894000    293.44926   -126.81614    184.69927    3807.3655    2222.3589   -903.52572 0.0011843751 0.0011571435 0.0012204273 
 2896000    254.98473   -127.53386   -808.61718    2493.2871    378.55567   -669.82652 0.0011835868 0.0011572764 0.0012196261 
 2898000    317.18285   -126.83479   -310.79271    781.29693    1077.8443    1034.2444 0.0011827875 0.0011568539 0.0012195168 
 2900000    310.45841   -126.93673   -209.98404    3218.0755    -1153.975   -715.03963 0.0011824703 0.0011561201 0.0012188273 
 2902000    296.69152   -127.20698   -392.44781    1069.6539   -424.23829    1011.2917 0.0011819242  0.001155193 0.0012186045 
 2904000    274.39387    -126.9878    1037.4239   -457.37753   -66.787421   -744.03572 0.0011819415 0.0011549066 0.0012193047 
 2906000    307.29671   -127.88356     -219.027   -376.09827   -856.94654     -164.472 0.0011808605 0.0011574532 0.0012217047 
 2908000    293.84026   -128.34842    103.95325   -50.453218    2126.7431    912.27217 0.0011800222 0.0011597097 0.0012258136 
 2910000    296.34966   -127.47887    254.94098    1658.5501   -1206.0613   -262.31516 0.0011791698 0.0011589401 0.0012280749 
 2912000    327.11702   -127.68885   -714.32069    2260.0424    423.00036    134.24374 0.0011785378 0.0011584286 0.0012332141 
 2914000    322.59767   -127.59267    935.54416    1888.9751    469.64372   -426.77324 0.0011782222 0.0011578433 0.0012356468 
 2916000    292.71354   -127.75262   -1429.7007    3427.1625   -1117.5845    1144.6328 0.0011782637 0.0011575447 0.0012379571 
 2918000    294.14001   -126.61749     145.3163     2494.567    572.49041   -1937.9594  0.001177034 0.0011568436  0.001239314 
 2920000    280.16561   -128.52534   -1279.1849   -34.936654    418.74109    2127.7391 0.0011762949 0.0011559836 0.0012440545 
 2922000    322.71321   -127.09264   -822.16941    358.75316     1215.361   -1.8062064 0.0011764803 0.0011553523 0.0012445427 
 2924000    287.65218   -127.52365    559.91755   -3896.1018   -827.98492   -1863.9705 0.0011765176 0.0011552082 0.0012442255 
 2926000    270.79825   -127.29396    -618.8691   -3014.9917   -1045.0486   -926.16872 0.0011761119 0.0011548665 0.0012435621 
 2928000    303.69874   -127.63755    1274.8079   -3549.7788    888.28132   -1297.5393 0.0011752287 0.0011541851 0.0012427058 
 2930000    299.72701   -128.08639    180.94945   -3552.6091   -1257.3301    -1034.049 0.0011741204 0.0011534684 0.0012418297 
 2932000    321.39783    -127.3341   -351.01928   -187.55639    552.27342    1087.8614 0.0011736959 0.0011529882 0.0012415246 
 2934000     286.6924   -127.48359    1524.5205    1188.1025   -1757.8112   -482.53971 0.0011727003  0.001152064 0.0012438884 
 2936000    339.61953   -127.37809   -1488.7862   -423.98496    72.379072   -305.87442  0.001172545 0.0011523202 0.0012452403 
 2938000    269.68823   -128.08685   -817.24401    1499.3712    1724.1387   -758.92032 0.0011738268 0.0011534836 0.0012447495 
 2940000    288.41125   -128.26658   -1488.0658    289.54943    577.22415   -137.92509 0.0011731522 0.0011534221 0.0012441099 
 2942000    317.10258   -127.85938   -1189.3985   -519.79833    734.23426    1406.0191 0.0011723589 0.0011530015  0.001243381 
 2944000    313.00221   -127.39647    741.90384   -1940.3729   -71.836481   -256.45782 0.0011725802  0.001154041 0.0012429593 
 2946000    270.34346   -127.43238    -918.2747   -1270.9055   -1880.8159    819.28345 0.0011724124 0.0011534284 0.0012421042 
 2948000    283.62297   -127.21804    665.85674   -529.91801    670.22337    287.80047 0.0011732645  0.001153464 0.0012412672 
 2950000    302.54921   -127.71889   -1740.7759    398.32503   -2894.7675   -634.63278  0.001175207 0.0011527548 0.0012404397 
 2952000    294.00456   -127.62189   -1212.9654    5409.9085    469.97528    3017.2196 0.0011788685 0.0011545781  0.001239695 
 2954000    254.71855   -127.48017   -85.259326    2429.7652   -1697.2061    380.10115 0.0011810128 0.0011546582 0.0012396477 
 2956000    372.84783   -127.07151   -1548.6452    2039.2235   -1888.2826    1919.4702 0.0011843707 0.0011537397  0.001238739 
 2958000    309.02338    -127.4021    1721.2716   -978.65123   -270.41667    365.27197 0.0011839785 0.0011529257 0.0012390227 
 2960000     340.6082   -127.14345    655.89785   -1032.7841   -1226.3925    168.39861 0.0011833886 0.0011527765 0.0012384753 
 2962000    335.15283   -127.74525    256.17376   -1381.2584   -835.50639   -3328.3893 0.0011841667 0.0011516272 0.0012379994 
 2964000    321.82904   -127.38933    2072.0156   -3123.1671    1203.0252      273.107 0.0011845527 0.0011508436 0.0012369018 
 2966000    285.60462   -127.52758   -1330.3823   -517.58504    961.21801    534.57248 0.0011845274 0.0011502407 0.0012359619 
 2968000    281.32055     -127.498    1197.8555   -1001.9962    1062.5861   -126.30718 0.0011839303  0.001150057 0.0012349599 
 2970000    305.89896   -127.32664   -505.14175    1042.3055   -79.817544    2719.4094 0.0011830941 0.0011508451  0.001235339 
 2972000    323.29405   -127.90997   -1188.9348    835.01934    95.768954    240.35125 0.0011824613 0.0011544099 0.0012350607 
 2974000    318.67336   -127.37351   -46.981711 0.0044805218   -1273.8603     564.0137 0.0011819382 0.0011553178 0.0012351214 
 2976000    292.59448   -128.23187   -2957.1686    1059.0791   -2429.6459     74.75177 0.0011809736 0.0011551788 0.0012361008 
 2978000    288.81152   -127.39118    915.13853     344.0861   -1565.5898   -259.45331 0.0011802612 0.0011545179 0.0012364564 
 2980000    277.99605   -127.60904   -1606.3925   -895.86243   -677.21365     1609.895  0.001179811 0.0011541928 0.0012407974 
 2982000    301.29085   -127.93746    -717.2784   -1190.4696    381.48271   -570.84518 0.0011792733 0.0011563726 0.0012443861 
 2984000    282.82603   -127.35297    1353.0903   -282.10694    987.13537     143.1884 0.0011785144 0.0011588081 0.0012431109 
 2986000    301.07294   -128.07286   -631.28605   -40.718234    1027.9576    228.18418 0.0011778835 0.0011630274 0.0012453495 
 2988000    324.62931   -127.37672    2373.0827     932.3991    1068.1256   -1960.7557    0.0011778 0.0011628116 0.0012454909 
 2990000    269.51416    -127.4939    460.12884    1262.0401    185.75554    2101.3014 0.0011776222 0.0011627062 0.0012450557 
 2992000    258.82079   -127.11432    635.40917    1091.9955    428.05823    1508.7477 0.0011781047 0.0011617958 0.0012461221 
 2994000    310.42118   -127.46483    504.12713    493.45178    180.52893    2679.1358 0.0011788746 0.0011636501 0.0012457325 
 2996000    277.83418   -127.67284   -1682.9477    90.938194    613.21225    4148.7371  0.001178578 0.0011677894 0.0012454802 
 2998000    312.30443   -128.01017    232.99264    364.44169   -1489.1244    -270.2258 0.0011784448 0.0011721867 0.0012447758 
 3000000    306.95794   -127.29423   -838.77283   -2046.8217    390.63074    1636.6482 0.0011811082 0.0011755137 0.0012447254 
 3002000    283.20939   -128.00091    283.69037   -1025.6097    1703.9086     1174.611 0.0011808506 0.0011772245 0.0012478725 
 3004000    253.32172   -127.68851    306.40423   -1133.4691    -543.5012   -673.29895 0.0011804795 0.0011768993 0.0012502012 
 3006000     289.8756   -127.98525   -1091.6145   -1159.8256    523.51135    1445.6106 0.0011797713 0.0011764029  0.001251121 
 3008000    329.06143   -127.11144    1162.6582    1917.8357   -475.90529   -1290.8526 0.0011792841 0.0011779576  0.001250346 
 3010000    289.08187    -128.4254   -1855.7543   -385.62618    708.71227    3069.1182 0.0011783899 0.0011800332 0.0012500571 
 3012000    277.36086   -127.12906   -774.06791   -39.782029    425.88852    2500.2059 0.0011776254 0.0011795656 0.0012492302 
 3014000    302.26856   -127.73904     191.9165    565.82667    361.36443    601.66333 0.0011766664  0.001178832 0.0012481751 
 3016000    313.04055   -127.23317   -1738.5924    193.13729       1036.6    -552.8699 0.0011760659 0.0011798522  0.001247454 
 3018000     286.9826   -128.24007    643.23912    2058.3166   -760.18232   -1916.6318 0.0011751408 0.0011799304  0.001247274 
 3020000    324.08007   -127.69363   -2060.7818    968.29511    -123.5897    99.425146 0.0011745453  0.001179127 0.0012459055 
 3022000    280.93757   -127.47207    510.87073   -796.50243   -725.41623    573.77346 0.0011746237 0.0011785367 0.0012462813 
 3024000    302.03699    -127.6377    60.972844   -348.98559   -231.70488   -2147.5316 0.0011769348 0.0011789753 0.0012481189 
 3026000    310.45468   -127.72379   -1217.4229   -1601.2636    516.48599    1453.4728 0.0011765556 0.0011813831 0.0012529528 
 3028000    313.47013   -128.20446    1861.4868    128.81118    543.67824   -1009.4838 0.0011756448 0.0011857577 0.0012551981 
 3030000    308.68066   -127.94215   -966.46246    1839.6823    716.37824    549.24451 0.0011751381 0.0011861117 0.0012552857 
 3032000    299.58449   -127.34545    1001.0683   -145.17037     2614.942    429.96407 0.0011748284 0.0011851284 0.0012548216 
 3034000    315.95641   -127.25862     613.0668     877.8231    304.88114    578.48421 0.0011740707 0.0011869031  0.001253922 
 3036000    270.20206   -126.95749   -1490.7138   -1454.3951    1122.0558    1585.9644 0.0011734018 0.0011877578 0.0012540207 
 3038000    316.89015   -128.02779    291.42184   -63.011009    516.20978    1942.9088 0.0011729347 0.0011872351  0.001253409 
 3040000    290.21238   -128.52856   -2316.7502   -358.67803   -319.99593    3084.3563 0.0011723763 0.0011861875 0.0012534253 
 3042000     305.0934   -127.77406    504.02615    1337.6862   -1665.0718    1976.5268 0.0011716875 0.0011860904 0.0012523902 
 3044000    285.69407   -127.79982    484.42786   -602.93331   -102.86787    235.98309 0.0011710382  0.001187576 0.0012517383 
 3046000    292.81486    -128.0834    -910.6905   -1275.2995    571.96287    1569.7786 0.0011703436 0.0011875729 0.0012511743 
 3048000    314.49013   -127.52075    1603.2044   -2105.4207    1567.1551   -1724.2861 0.0011695635 0.0011872376 0.0012552529 
 3050000    311.57716    -127.8928   -1878.9476   -209.03124    1167.5379   -736.75738 0.0011691021 0.0011867872 0.0012553403 
 3052000    329.30495   -128.08733    130.30665   -940.94481    853.48624   -611.99788 0.0011694183 0.0011861845 0.0012544104 
 3054000    292.06207   -127.45591   -768.47207    59.376135    2580.2849    1185.1924 0.0011690695 0.0011871878 0.0012538097 
 3056000    314.24903   -127.32051   -589.07048    804.32459    1074.7046   -277.73554 0.0011684353 0.0011877699 0.0012546398 
 3058000    308.85844   -127.87236    886.84831   -242.18992     310.0207   -989.95132 0.0011686729  0.001187335 0.0012545596 
 3060000    331.25721   -127.58716    -584.9092   -722.53698   -1291.7799    3016.1098 0.0011677163 0.0011867895 0.0012538576 
 3062000    313.65684   -128.08944    445.11816   -1089.4292    996.86157    1858.7225 0.0011670358 0.0011859028 0.0012531894 
 3064000    285.63482   -126.65721    771.56291   -2052.5355   -1416.0186    2412.9265 0.0011665931 0.0011857031 0.0012519491 
 3066000    303.01629   -127.09905   -322.61574    1106.6236    426.33924    1446.4208 0.0011664132 0.0011854328 0.0012520836 
 3068000    309.57799   -126.82769    2312.4373   -209.02144    661.30795   -763.39639 0.0011655837  0.001186344 0.0012513187 
 3070000    264.75681   -127.33728   -794.19564    -2818.644    555.95169   -2118.7429 0.0011648981 0.0011855772 0.0012506555 
 3072000    296.98275   -127.71386    1156.4281   -2557.1381    344.31871   -1663.5364 0.0011639825 0.0011848849 0.0012520662 
 3074000    270.55754   -128.18102    -832.0752   -2476.7123    871.52823    618.46531 0.0011631563  0.001187023 0.0012515394 
 3076000    303.59782   -127.57568   -2865.9501   -708.21675    1463.2731    1113.4136 0.0011631752 0.0011862144 0.0012506697 
 3078000    279.38922   -127.96098   -1222.2174    -1434.711    1230.3311     1475.363 0.0011631033 0.0011854595 0.0012503519 
 3080000    322.90756   -127.75092   -3149.5041    672.54225     -89.6253    3135.9303 0.0011625807 0.0011848457 0.0012530093 
 3082000    276.65092   -127.65776    299.81698   -471.84415   -308.81382   -1687.1349 0.0011618938 0.0011849721 0.0012531692 
 3084000    302.93992   -127.19922    130.34824   -255.49465    -341.4516    1310.9785 0.0011605675 0.0011858611 0.0012521206 
 3086000     308.5612   -127.04482   -1012.5039    1891.5623   -2430.9986   -2360.0221 0.0011601109 0.0011856036 0.0012512219 
 3088000    300.92235    -127.8457    973.74467    2151.1094    -475.2568   -2069.4968 0.0011595432 0.0011849909 0.0012503203 
 3090000    303.47181   -127.20952   -1686.7284   -971.50485   -826.10496    301.88832 0.0011607887 0.0011865376   0.00124963 
 3092000    285.53671   -127.47885    744.09464    32.292645    -352.2184   -2290.8258 0.0011605085 0.0011867475 0.0012488178 
 3094000    314.36627   -127.19622   -395.70155   -2096.2715    2002.3344    747.23149 0.0011598569 0.0011860578 0.0012480827 
 3096000    307.35719   -127.29781    -855.0365   -396.80229     861.9663   -584.92834 0.0011595844 0.0011860679 0.0012479959 
 3098000    300.03533   -127.40943     1672.286    249.41984   -2095.8212   -1390.6426 0.0011590372 0.0011855955 0.0012477093 
 3100000    297.46968   -127.14842   -1396.6705   -1117.4773   -2139.1778    607.25916 0.0011585683 0.0011850032 0.0012478358 
 3102000    322.42095   -127.02382     2392.661   -267.61742    687.03345   -357.53854 0.0011578976 0.0011854698 0.0012493559 
 3104000    311.70871   -127.48786   -365.13221   -720.38921   -190.33822    857.37976 0.0011570687 0.0011844331 0.0012496128 
 3106000    320.50696   -127.38594   -1069.5169    341.18036    564.04045    283.73903  0.001156159 0.0011834363  0.001248999 
 3108000     295.3594   -127.09937    173.57354    175.69142   -119.21773   -520.52907 0.0011554863 0.0011826522 0.0012504989 
 3110000    323.60947   -127.71103   -3397.1601    617.79582    742.01409   -58.154892 0.0011552616 0.0011822013  0.001249981 
 3112000    293.81007   -127.03562    972.75868    875.48786    1140.3026   -731.71038 0.0011543712 0.0011819262 0.0012496258 
 3114000    345.89599    -127.5568   -858.67951    118.94523   -949.53657    1058.3869 0.0011539372 0.0011816918 0.0012489544 
 3116000    306.55931   -126.70705   -114.82524     685.2737    973.30301     751.8433 0.0011531795 0.0011814259 0.0012482083 
 3118000    298.64583   -127.30836    765.70514    -193.0627    199.38942   -138.98094 0.0011543464 0.0011837299 0.0012495911 
 3120000     277.6401   -127.00755   -1076.9359    750.42442   -12.245165   -914.51461 0.0011571059 0.0011843061 0.0012492016 
 3122000    291.32295   -127.32069    772.61803   -1838.4101    1199.2721   -255.18579 0.0011560145 0.0011833263 0.0012488127 
 3124000    322.32543    -127.1969   -555.49928   -2270.1175   -162.06095    780.94722 0.0011550002 0.0011829577 0.0012480619 
 3126000     312.3669   -127.39538   -1653.9508   -1295.6032   -2642.4321   -1136.3759 0.0011546986 0.0011823609 0.0012474373 
 3128000    319.82436   -127.07136    1825.1677    292.59591   -3092.0156   -3790.0028 0.0011542039 0.0011815879 0.0012467272 
 3130000    298.94985   -127.57557   -736.37255   -806.46012   -5193.3081     -706.368 0.0011540013 0.0011809033  0.001246105 
 3132000    294.82587   -127.66313   -82.760333    1714.1896    226.59619   -543.83396  0.001153552 0.0011800711 0.0012455926 
 3134000    254.44088   -127.31382   -490.66672    1353.6847   -2176.7672   -1414.2686 0.0011528285 0.0011814376 0.0012453966 
 3136000    317.37578   -127.88412    -2090.351    1305.7217      874.761    1406.2724 0.0011523154 0.0011810238 0.0012448818 
 3138000     267.6487   -126.80854    277.59953    1182.8222    727.84427    1525.0071 0.0011517899 0.0011809027 0.0012442571 
 3140000    305.40296   -128.07808   -1456.1566    1654.5986   -349.83367    1577.4326 0.0011510944 0.0011805277 0.0012436156 
 3142000    316.93805   -128.01517    1495.0065     1896.583    2234.9312     1647.591 0.0011504319 0.0011800867 0.0012427704 
 3144000     283.7871    -127.8043    330.02992    797.48921    1299.7089   -127.76148 0.0011495482 0.0011803101 0.0012420777 
 3146000    307.01212   -128.76293   -220.15771   -614.02183    2094.1352   -793.48209 0.0011486652  0.001180077  0.001241362 
 3148000    301.69586   -127.48573    1882.5396   -586.54874    1024.3782   -1566.6872 0.0011480789 0.0011792568 0.0012404861 
 3150000    297.59986    -127.9313   -285.35406    345.15272    776.49794    414.54241 0.0011476342 0.0011790805   0.00123975 
 3152000    316.56415   -128.20211   -916.85815   -376.93949   -610.10274   -77.713994 0.0011471592 0.0011793994 0.0012389609 
 3154000    292.57997   -127.66051   -1608.1613    76.841088   -1404.3213   -511.43999 0.0011467408 0.0011787621 0.0012386021 
 3156000    309.88346   -127.49434   -1597.2606    1969.0706   -1418.1729    1323.4812 0.0011468895  0.001178273  0.001237766 
 3158000    309.30456   -127.76696   -655.75086    -63.07308   -1020.1551    898.71941 0.0011486625 0.0011774609 0.0012376357 
 3160000    323.15077   -127.60267    -2021.279    611.27744   -1161.7759    238.90878  0.001147947 0.0011780109  0.001236813 
 3162000    311.54356   -126.76765    923.21051    798.98005   -2500.7564   -197.68106 0.0011485774 0.0011775658 0.0012358846 
 3164000    309.57194    -127.6544   -10.005001    738.43172   -98.490614   -1847.3974 0.0011492612 0.0011787729 0.0012368822 
 3166000     298.5246   -127.49544    575.61583   -1825.5663    795.06394   -775.92656 0.0011482333 0.0011779238 0.0012401844 
 3168000     319.2802   -127.90161    1430.9035    118.30936    1282.1117   -1084.6241 0.0011474132 0.0011775898 0.0012418674 
 3170000    311.20592   -126.94192   -218.58899    1081.3878    2139.2356   -422.08556 0.0011468768 0.0011795303  0.001243822 
 3172000     270.1404   -127.84791    501.56386    255.72163    883.64669    1484.4049 0.0011459797 0.0011794148 0.0012435286 
 3174000    298.41127   -128.00677   -888.14481    1165.5807    1230.0776   -802.44408 0.0011452613  0.001178457 0.0012427035 
 3176000    325.97473   -127.54311   -1895.4606    681.26552    882.34007    2897.4564 0.0011446461 0.0011777925  0.001242103 
 3178000    316.12098   -127.53767   -760.53726    1018.6907   -8.3994816    823.74153 0.0011451184 0.0011771391 0.0012416121 
 3180000    313.32952   -127.26181   -2187.2932    -157.2739   -362.52974    425.84672 0.0011458957 0.0011763348 0.0012413995 
 3182000    287.28716   -127.32999   -117.62557    645.16445   -207.25279    723.36169 0.0011462011 0.0011757565 0.0012413041 
 3184000    295.68231   -127.47124   -716.96881    1026.8864   -1176.7846    63.410788 0.0011469259 0.0011775488 0.0012441543 
 3186000    293.08505   -127.47032   -591.12775     -199.981   -502.68075   -221.78636 0.0011463517 0.0011778888 0.0012456412 
 3188000    317.72425   -128.02256    950.63073   -365.44375   -1094.0705   -1223.8963 0.0011482221 0.0011770368 0.0012460434 
 3190000    295.63953   -127.61969    -724.7494    170.67622   -2086.3382    68.576494  0.001148796 0.0011764477  0.001246137 
 3192000    276.11612   -127.65126    1390.3447   -2047.9447   -1075.5765   -1849.3436 0.0011480373 0.0011764986 0.0012478296 
 3194000    317.39966   -127.32247    82.234176   -1516.5787    1693.6206   -3118.8206 0.0011479723 0.0011758096  0.001246469 
 3196000    314.91004    -127.9589   -423.38854   -57.356402    1405.2978    941.93331 0.0011474224 0.0011748964 0.0012458274 
 3198000    289.14032   -127.59936     899.7864    316.50111    1656.9037   -1555.5598 0.0011496072 0.0011739798  0.001244812 
 3200000    267.65637   -127.08734   -2014.5748    1769.1532    1010.1491    1976.2094  0.001149606 0.0011731706 0.0012453797 
 3202000    305.93805   -127.41046   -56.303294   -542.68142    934.51934    270.39756 0.0011492649  0.001172466 0.0012449229 
 3204000    265.22014   -128.41182   -1551.0399    2125.0039    62.508438    592.37682  0.001149989 0.0011757777 0.0012496387 
 3206000    348.34562   -127.32736   -776.95843    73.859445    2650.7513    938.89052 0.0011507401 0.0011751681  0.001250203 
 3208000    272.26706   -127.70132    740.56526    973.51469   -192.16029   -1424.6986 0.0011505545 0.0011752514 0.0012494385 
 3210000    259.39038   -127.37686   -1269.0109    1831.2239   -1855.9771    501.69003 0.0011513542 0.0011752184  0.001248971 
 3212000    285.10432    -126.8661    2342.4566    874.95512   -1286.3084   -1827.4515 0.0011533493 0.0011757341 0.0012480098 
 3214000    290.40265   -126.46007    237.05407    643.57405   -1442.2479    -2010.612 0.0011554299  0.001176878 0.0012492234 
 3216000    317.38807   -126.51518    45.550187    1901.4296    113.77545    141.39764 0.0011561017  0.001176686 0.0012482649 
 3218000    295.85866   -127.07778    987.30257   -2411.7836   -2275.3218   -1929.4778 0.0011577219 0.0011759465 0.0012476852 
 3220000    271.92546   -126.64145   -1927.6464    769.53602    1156.3816    60.398771 0.0011583132 0.0011752799 0.0012467809 
 3222000    267.29829   -127.29134     686.9702   -431.27419   -801.73188   -769.50383 0.0011584485 0.0011757507  0.001246499 
 3224000    302.82038   -128.21343   -1235.3632   -1385.2253    1529.7841   -401.75188 0.0011578307 0.0011775251  0.001246409 
 3226000     271.8497   -127.33386   -1625.6608   -506.61034    257.44879   -112.99688 0.0011590531  0.001176713 0.0012461841 
 3228000    300.13866   -127.68743    454.49961     -1001.43    606.41673   -835.84222 0.0011599458  0.001176317 0.0012457886 
 3230000    271.90955    -127.4909   -3216.5535    173.70442    1313.4361   -1170.1879 0.0011585978 0.0011761657 0.0012452442 
 3232000    289.17518    -126.9816     181.3816   -716.39551   -1479.7193    1463.2655 0.0011583319  0.001177865 0.0012444633 
 3234000    306.56155   -126.74394   -369.77117    2012.6505     -1598.64   -1678.3864 0.0011576987 0.0011784776 0.0012441938 
 3236000    289.55962   -127.38971    62.152531    1106.2104   -2482.7282   -540.59078 0.0011570705 0.0011778268 0.0012440977 
 3238000    302.63631   -127.52282    2465.2663    210.78359   -2407.7804    1940.6353 0.0011563678 0.0011772334  0.001246737 
 3240000     300.5467   -127.66186    -1189.219    1805.1861   -2435.2816    -1495.464 0.0011558128 0.0011763195 0.0012473724 
 3242000    304.45107   -127.10213    2436.9644   -626.81996   -1349.3654   -2417.8601 0.0011557833 0.0011765396 0.0012467317 
 3244000    293.06148   -127.48898   -215.76677    -1235.813   -681.92034    711.46132 0.0011554152 0.0011767305  0.001245892 
 3246000    289.00499   -127.68021   -1409.0544   -738.30706    2720.7442   -2394.4989 0.0011550655  0.001176218 0.0012487056 
 3248000    283.60476   -127.46718    488.28144   -707.80912    1995.5045     691.6276 0.0011540271 0.0011750887 0.0012487597 
 3250000    300.22617   -127.26448   -3353.1272   -2539.3441    2851.6267   -2349.1438 0.0011566901  0.001174137 0.0012481332 
 3252000    294.49041   -128.44737    342.95019    653.90934   -180.12464   -844.62153  0.001156349 0.0011735163 0.0012490526 
 3254000    297.28211   -127.67863   -1961.6834   -993.26679    1901.5352    2062.9131 0.0011570935 0.0011739531 0.0012492663 
 3256000    271.61765   -126.82539   -496.39064   -1188.4312   -967.77958    2715.9791 0.0011590573  0.001174342 0.0012496012 
 3258000    331.54776    -126.8776    1643.9228    1949.7364    458.86675     1065.632 0.0011589673 0.0011738746 0.0012502954 
 3260000    284.15087   -127.54648   -936.38693   -374.78576   -2015.8135   -1088.2201 0.0011588685 0.0011731611 0.0012497772 
 3262000    304.96127   -127.73926    2330.6204    3200.2058   -237.03767    1625.5958 0.0011582696  0.001173197 0.0012490885 
 3264000    306.28032   -127.50802   -485.27691     519.6332   -216.82409    132.02276 0.0011575401 0.0011728338 0.0012483373 
 3266000    328.70626   -126.67238    1498.0953    409.46937   -1908.9862   -629.47371 0.0011584089 0.0011719397 0.0012477687 
 3268000    270.75618   -128.18917    798.34709    485.16831   -614.94741   -1188.8327 0.0011574288 0.0011715919 0.0012469624 
 3270000    283.73946   -126.95893   -1049.2368   -742.33864   -1290.3559   -3909.5232 0.0011567322 0.0011724603 0.0012460093 
 3272000    275.78907   -127.44625   -132.86532   -159.39342    1759.0178    598.52015 0.0011561063 0.0011752614 0.0012458485 
 3274000    281.72507   -127.11717   -1896.6569    1022.8578    97.923245    1529.0206 0.0011557383 0.0011798955 0.0012453919 
 3276000     301.4879   -127.11647   -301.89349   -688.24566   -931.15337    1083.9677 0.0011558665 0.0011793948 0.0012463344 
 3278000    302.46451   -127.19713    165.29696    2428.3344   -1159.8787    2615.5298 0.0011615691 0.0011786292 0.0012476534 
 3280000    283.99791   -126.93315   -1224.7797    3014.7698    675.78145    3613.5326 0.0011628189 0.0011778773 0.0012503248 
 3282000    282.51156   -128.20821     745.4017   -344.88307    490.09188    1039.3301 0.0011625864 0.0011775936 0.0012522584 
 3284000    306.56648   -127.09301   -1446.3306    1134.8472    454.43858    -1309.116 0.0011621401  0.001176844 0.0012529063 
 3286000    286.25267   -127.67183    415.84077   -2072.8974   -1321.4683   -2181.2014 0.0011617296 0.0011768137 0.0012518962 
 3288000    280.12781   -127.39714    377.68274   -1519.3187   -2022.8718   -2393.0487  0.001161535 0.0011763355  0.001250555 
 3290000    308.88655    -127.4322   -1008.3076   -1287.1338    898.23708    -4655.093 0.0011605664 0.0011757106 0.0012503716 
 3292000     286.9341   -127.51657    2675.7537    863.80261    1920.3215    92.440725 0.0011615921 0.0011751018 0.0012495157 
 3294000    291.33545   -127.25594    -1711.019    1687.7805    1485.8314    -1806.489 0.0011605743 0.0011756941 0.0012484888 
 3296000    288.08686    -128.0379    2.9836455   -142.13782    3096.2233    -185.1964 0.0011601614 0.0011759062 0.0012477956 
 3298000    317.97594   -127.69672    -229.6396    2660.8093   -479.04076    1078.6758 0.0011603544 0.0011759572 0.0012469702 
 3300000    276.14399   -128.36925   -2577.6237   -507.83031    812.12433    1411.7154 0.0011598039 0.0011772193 0.0012461147 
 3302000    312.04059   -127.38896    1219.1641   -884.23096   -497.55197    2753.1314 0.0011591994 0.0011791453 0.0012457081 
 3304000    309.95582   -127.06387   -1151.6888   -574.74525   -1242.9287    1004.1897 0.0011597544  0.001181152 0.0012443597 
 3306000    279.89933   -127.61409    1070.1178   -2997.6213   -266.48694    -233.2757 0.0011599583  0.001181204  0.001243629 
 3308000    274.69971   -127.50113    509.44102   -186.40649   -1359.8231    940.99301 0.0011604345 0.0011804593 0.0012438186 
 3310000    278.89977   -127.70665   -1075.2387   -270.30737    559.82989   -2333.9937 0.0011596159 0.0011803102 0.0012437626 
 3312000    340.76574   -126.64234    2213.5276   -794.62068   -703.19736    -2816.175 0.0011597252 0.0011804467 0.0012431498 
 3314000    331.50504   -127.07995   -1376.8172   -26.701077    876.72817   -254.68762 0.0011596141 0.0011799322 0.0012430695 
 3316000    313.45415   -127.45866    2007.8858    1921.4739    947.60735   -1627.2736 0.0011590998 0.0011803681 0.0012422717 
 3318000    315.15511     -127.311    546.39531   -1797.0443    1704.0881    882.59503 0.0011585482 0.0011800608 0.0012416651 
 3320000    323.95988   -127.67723   -1814.3451   -200.87713   -203.34035    152.32402 0.0011579169 0.0011792492 0.0012406791 
 3322000    324.60993   -127.58721    1888.7078   -365.68462   -761.28376    2452.5131  0.001157588 0.0011783797 0.0012431243 
 3324000    287.73374   -127.98161   -3440.3605   -1449.2588   -1685.0239    1266.0094 0.0011575172 0.0011777166 0.0012458452 
 3326000    295.87345   -127.86712   -892.98179    891.16435   -1847.5212    1357.7975 0.0011569096 0.0011775205 0.0012461804 
 3328000     321.0256   -127.63928   -1284.3691   -2124.5797   -1298.1225    1702.5361 0.0011560924 0.0011770299  0.001245697 
 3330000    303.77502   -127.30422   -1253.5308    1770.6472   -834.87629    1823.0364 0.0011560672 0.0011765185 0.0012449733 
 3332000    311.04777   -128.07681    1615.0569    782.48844     1614.966   -1350.0438 0.0011569301 0.0011758381 0.0012444768 
 3334000    316.55252   -127.16066   -864.82023   -1308.4395    1877.8928    2147.0344 0.0011577912 0.0011752207  0.001243984 
 3336000    306.05148   -128.00085    2287.9862    1694.6442    1898.5381    -1379.398 0.0011572774 0.0011759478 0.0012432037 
 3338000    308.59615   -127.48782     671.3107    1613.2457    2046.2569    2304.6008 0.0011565059 0.0011757907 0.0012425484 
 3340000    266.02084   -128.42966   -940.34252    2161.7072   -426.53473    75.890622 0.0011560437  0.001177453 0.0012416508 
 3342000    322.85749   -127.65615    2008.5736    3483.1175    1685.8653   -1612.6151 0.0011557675  0.001179016 0.0012413059 
 3344000    298.23784   -127.19094   -1900.7757   -365.97112   -671.81203   -306.54095 0.0011559511 0.0011783515 0.0012406646 
 3346000     308.8949   -127.69163    202.66016    2541.4279    379.62627   -3432.5729 0.0011564142 0.0011782667 0.0012408466 
 3348000    324.09928   -127.47819   -1978.3267   -571.56781    912.05946   -499.89786 0.0011558568 0.0011783171 0.0012403085 
 3350000    319.28341   -127.36537   -2346.7951    726.59393   -2259.1854    489.67986  0.001154935 0.0011844056 0.0012395789 
 3352000    329.71369   -127.58574    959.45518   -1238.1585    444.74866   -342.32361 0.0011551407  0.001187174  0.001238951 
 3354000    312.13569   -126.55917   -2252.5707   -1011.8213   -3388.2412    2769.2749 0.0011544236 0.0011911462 0.0012379635 
 3356000    328.43012   -127.80459    1228.7616   -2540.6509   -1545.5851    2862.2654 0.0011542495 0.0011954063 0.0012379888 
 3358000    299.03325   -127.50826    752.87833   -1426.4194    2728.3852    1729.3288 0.0011541525 0.0011993514 0.0012378696 
 3360000     311.8519   -127.80658    343.26574   -1258.0633    1043.5087    1016.9022  0.001153236  0.001204431 0.0012374451 
 3362000    263.62541   -127.13812    2567.4369    504.73726    2971.9255    50.893906 0.0011526015 0.0012120564 0.0012391467 
 3364000    278.85813   -127.48253   -2139.2777    405.69621    343.71577   -1920.3647 0.0011517821 0.0012127229 0.0012422587 
 3366000    276.18902   -126.99158     1410.553     1946.765   -4.2375955    -3204.314 0.0011510267 0.0012186483 0.0012425106 
 3368000    294.73469    -127.3093   -1566.1868     1390.908   -884.09218   -956.60634 0.0011517714 0.0012212123  0.001242284 
 3370000     338.5688   -127.37328   -625.16937    2607.8078   -199.22044    927.01247 0.0011512396 0.0012208856 0.0012415211 
 3372000    318.12465   -127.28494     933.3773   -1213.1177   -109.40211    28.930804 0.0011505049 0.0012233795 0.0012409639 
 3374000    308.45344   -127.38789   -1751.2653    1015.1397   -1526.0445   -561.28952 0.0011498619 0.0012239983 0.0012408474 
 3376000    330.90032   -127.29168     969.4069   -247.14068   -1687.8364    -80.03719  0.001149476 0.0012233571 0.0012398885 
 3378000    268.14541   -127.41847   -1556.7866   -1290.8955    2155.6341    705.57771 0.0011494018 0.0012225776 0.0012394897 
 3380000    319.88713   -126.80931    749.76067   -291.56772     1973.514    1839.9455 0.0011501318 0.0012219776 0.0012387074 
 3382000    320.44375   -126.58761    913.78241      -2403.9    2240.6029    1816.0295 0.0011498633 0.0012223556 0.0012380725 
 3384000    311.13524   -126.62304   -1938.4012    963.78892    1217.5477    1861.5675  0.001149326 0.0012231687 0.0012390838 
 3386000    294.02357   -127.02746    1956.6567     202.3325    2497.8359     1506.132 0.0011490654 0.0012243376 0.0012385097 
 3388000     282.7573   -126.99531   -1095.5076   -1121.5558    523.05683   -473.15259 0.0011483194 0.0012285366 0.0012386883 
 3390000    287.76566   -126.34648    907.27044    9.9539537   -1964.3905   -251.88717 0.0011481204 0.0012319584 0.0012380153 
 3392000    288.31668   -127.32375    566.13157   -399.14835   -536.47697      1058.68 0.0011493565 0.0012317222 0.0012371464 
 3394000    270.34645   -127.47321   -1650.4205   -663.86137   -1256.1639   -450.92343 0.0011489833 0.0012319813 0.0012390876 
 3396000    290.20727   -127.05396    2292.7551   -1197.3959   -444.60007    1237.6782 0.0011481772 0.0012322227 0.0012444044 
 3398000    318.89409   -126.65222   -2157.4923   -1215.1112   -2634.3686   -289.60158 0.0011484182 0.0012318292 0.0012443946 
 3400000    287.92909   -127.74586    519.20815   -1903.5368   -20.137422    737.42112  0.001147872 0.0012309118 0.0012439055 
 3402000    303.41836   -127.06596    988.06915    436.35322   -384.46162   -3036.0742 0.0011471607 0.0012327513 0.0012432936 
 3404000    291.05274   -126.93325   -823.19897   -783.66799   -1353.7389   -2480.8015  0.001146466 0.0012313302  0.001245186 
 3406000    301.20034   -127.49096    2253.2484   -1327.0711    2529.1726   -3220.3312 0.0011459892 0.0012310835 0.0012439782 
 3408000    291.99366   -127.11003   -1778.7618   -50.357322    2549.1912   -1994.6011 0.0011452519 0.0012300062 0.0012445657 
 3410000    321.61953   -126.68941     1150.629    183.97758    2053.0592    2366.9669 0.0011445839 0.0012294271 0.0012474982 
 3412000    301.97688   -126.25578    -607.5424    1700.8188    1007.1377    1695.6691 0.0011439072 0.0012287532 0.0012501454 
 3414000     301.4287   -127.39945   -1414.2408    4463.9708    521.05577    11.292643 0.0011433431 0.0012291172 0.0012497768 
 3416000    310.31725   -127.15328    1930.3668    1497.9199    260.37577    -1454.291 0.0011433755 0.0012283883 0.0012491013 
 3418000    310.95828   -126.67425   -1603.9928    1519.2343   -3600.6793    25.390048 0.0011429183 0.0012273535 0.0012482028 
 3420000    318.55735   -127.48422    1410.7838    693.15931   -716.81337   -825.64343 0.0011422435 0.0012273016 0.0012475713 
 3422000     318.2611   -126.98898   -111.43263    677.65433   -1717.1869   -609.40494 0.0011416447 0.0012265545 0.0012468756 
 3424000    298.20591    -127.6168   -592.80668    1476.8398   -1308.7791   -582.58728 0.0011408997 0.0012265716 0.0012463315 
 3426000    337.14635   -127.94257    1965.1605    742.87246   -1117.4949   -2736.6497 0.0011405722 0.0012259561 0.0012454205 
 3428000    288.47138   -127.63727   -1562.7156    1893.9383   -539.31844   -393.05413 0.0011401973 0.0012251677 0.0012448498 
 3430000    320.16822   -127.69916    2227.0737   -1049.1874   -393.34742   -3082.2685 0.0011393559 0.0012250753 0.0012441341 
 3432000    312.26294   -127.94175   -1560.6713    672.56705    2732.4167   -897.26441 0.0011389407 0.0012242584 0.0012432022 
 3434000    321.33846   -127.88012   -104.34361   -262.18836    1895.3036    -907.4609 0.0011384564 0.0012236527 0.0012430229 
 3436000    301.57888   -128.11471   -135.14063   -546.28818    966.05426   -1017.1131 0.0011379552 0.0012230382 0.0012421559 
 3438000    320.28976   -127.20972    -3041.648    1707.5937    997.32358    835.07055 0.0011376958  0.001222238 0.0012416157 
 3440000    307.41339   -127.79172   -320.00576   -1304.7493    1230.1567    1812.2308 0.0011374919 0.0012224993 0.0012408778 
 3442000       315.99   -128.27247   -2278.7924    1088.8751    757.34504    515.77989 0.0011382923 0.0012259102 0.0012403604 
 3444000    294.14043   -127.80928   -396.74911   -343.11151   -1827.9262    1263.0441 0.0011381762  0.001228884 0.0012394812 
 3446000    330.05959   -126.64927    2183.0975   -276.51268   -6.1202489    557.32656 0.0011393425 0.0012290509 0.0012389897 
 3448000    300.37715   -126.51413    159.96561    668.45119    453.88657   -2762.9451 0.0011391606 0.0012282633 0.0012385283 
 3450000    274.22437   -127.31751    2075.7288   -1738.6668     -1057.47    1433.9936 0.0011386009 0.0012286827 0.0012384794 
 3452000    313.56928   -127.68997    253.03201    2033.4785   -1827.4051      542.948 0.0011382493 0.0012280584 0.0012379163 
 3454000    333.04756   -127.85869   -531.46778   -1026.0381   -1925.7851    1980.5793 0.0011371812 0.0012273768 0.0012371302 
 3456000    296.14121   -127.73586   -290.24589   -579.01698   -1558.0235    2543.8709 0.0011364943  0.001227164  0.001236363 
 3458000    301.38394   -127.54046   -774.23279   -620.68415    1283.4348    1228.7528 0.0011361293  0.001226119 0.0012359422 
 3460000    279.31253   -127.24975    -585.2558    88.013839   -625.27068    2203.2053 0.0011367406 0.0012253868 0.0012365169 
 3462000    294.20541    -127.1555   -1487.6481    2358.1654   -1335.6018   -164.30046  0.001135767 0.0012247429 0.0012375372 
 3464000    306.88127   -128.45166   -1156.4792    98.962099    1113.1302   -943.97911 0.0011357539 0.0012244965 0.0012365538 
 3466000    279.72561   -127.92462   -1503.4551    1949.6039   -1898.3868   -1821.3958 0.0011344675 0.0012232716 0.0012361197 
 3468000    321.75538   -128.09914   -691.60542   -934.26868    921.06639   -2667.2799 0.0011345445 0.0012224367 0.0012361864 
 3470000    305.55159   -127.97814     99.31128    1943.0653   -934.46921    533.71334 0.0011339567 0.0012217418 0.0012362261 
 3472000    321.07813   -127.67286   -762.28602    499.25292    3205.3905   -2091.0992 0.0011337344 0.0012215619 0.0012354261 
 3474000    335.61369   -127.56504    1673.1128    41.158149    833.63092   -1722.6918 0.0011345078 0.0012211488 0.0012347709 
 3476000    315.44029   -126.43067    924.82204     1731.789   -351.92607   -1413.5385 0.0011340545 0.0012212774 0.0012352714 
 3478000    279.71305   -127.31317   -516.76027    321.88089    1384.4365   -263.21706 0.0011343769   0.00122072 0.0012372097 
 3480000     302.9839    -127.7866     207.7239   -1243.2572    956.27455    1111.7036 0.0011337485 0.0012199445 0.0012377662 
 3482000    270.35316   -127.99449   -2764.8141    1112.4737    3596.6674   -255.15794 0.0011337053 0.0012197958 0.0012373274 
 3484000    314.36069   -128.11727   -125.27605   -2872.1106     2912.781    -67.13374 0.0011331517 0.0012192196 0.0012367671 
 3486000    344.02278   -127.48771   -1114.6331   -872.12538    2101.9569    545.99108 0.0011329096 0.0012183817 0.0012362595 
 3488000    364.70554   -127.03528   -454.22961   -910.47826   -438.55817   -218.12831 0.0011321362 0.0012209173 0.0012366249 
 3490000    313.49863   -127.52113    1447.8207   -1615.8872   -2269.1533    804.04386 0.0011331477 0.0012204215 0.0012358486 
 3492000    324.78106   -127.55647   -1789.6275   -236.45337   -740.25668    583.97995 0.0011321847 0.0012199413 0.0012348487 
 3494000     299.2933   -126.80649    2239.7411   -893.28346   -506.92396    4178.9285 0.0011318893 0.0012210302 0.0012344904 
 3496000    300.16255   -127.75022   -876.35318    375.93069   -3544.4775    2535.7266 0.0011312039 0.0012273214 0.0012337829 
 3498000    302.59579   -127.82435   -169.09748   -895.74167   -1647.4513    1569.3758   0.00113048 0.0012272468 0.0012329804 
 3500000    299.99651   -126.49519    2388.0033    2398.8176   -1581.8046   -1280.7715 0.0011298919 0.0012266831 0.0012323562 
 3502000    295.54286   -127.53427   -1398.4785    1134.9993    1373.8082   -416.87923 0.0011292355 0.0012267335 0.0012332688 
 3504000    286.46809   -127.41357    1990.2747   -2289.7864    2895.4372   -2872.7057 0.0011286639 0.0012254497 0.0012332785 
 3506000    288.27435   -128.05061    -1112.908    621.66511    2184.0275    73.808664 0.0011289428 0.0012251531  0.001234338 
 3508000    317.61652   -128.12096    124.86648    -126.9581     2009.782    372.67571 0.0011283597 0.0012248084 0.0012335692 
 3510000    315.62281   -127.11201     694.1626   -1131.7091    694.90041   -64.586143 0.0011279893 0.0012243467 0.0012329889 
 3512000    300.28021   -127.42933   -2145.7177   -1687.3358   -488.29422    -1127.493 0.0011274398 0.0012234841 0.0012326308 
 3514000    332.27922    -128.2599    1272.9486   -1316.7988   -193.70629   -413.63778 0.0011269916 0.0012226595 0.0012327536 
 3516000    294.72936   -127.01596   -2062.6681   -983.47692    -229.0037    267.75998 0.0011268623 0.0012219147 0.0012316923 
 3518000    313.06864   -127.88078   -20.254553    2235.6727   -2410.7644   -1668.7511 0.0011271921 0.0012223928 0.0012308359 
 3520000    297.39515   -127.21054    510.49068    1946.6609   -1831.8175   -14.104177 0.0011271599  0.001221709 0.0012315001 
 3522000    240.20501   -127.51027   -1183.7636   -555.12555    115.10953    1193.0705 0.0011265753 0.0012213132 0.0012336913 
 3524000    308.57009   -127.75175    1498.8598     2956.252    166.14297   -431.19173 0.0011258833 0.0012206517 0.0012339578 
 3526000    342.07301    -127.6964   -1126.3308    1321.6244    1644.2422    1124.4408  0.001125191 0.0012204329 0.0012333217 
 3528000    300.27365   -127.93442    881.96179    -66.17999    -354.3231   -1019.5787    0.0011245 0.0012239108 0.0012328084 
 3530000    311.91405   -127.81112    1162.5977   -1580.3981    1643.6042    78.995674 0.0011238631 0.0012237863 0.0012323336 
 3532000    280.39334   -127.51916   -460.80754   -1779.5557   -354.27463    1853.6028 0.0011232799 0.0012238352  0.001231723 
 3534000    307.60398   -128.10169    2251.0501    1028.1096   -879.61891   -247.06171 0.0011225826 0.0012238028 0.0012314621 
 3536000     313.7634   -127.20826    -975.6353   -962.84308    546.24271    1214.2321 0.0011220819 0.0012231907 0.0012302785 
 3538000     313.7499   -128.03601    633.00372    1270.1948   -967.91075   -1192.6248 0.0011216468 0.0012224676 0.0012298082 
 3540000      285.278   -127.50092   -378.36803    157.80844   -145.82791   -49.661277 0.0011210661  0.001221981  0.001229184 
 3542000    306.83843    -127.9224   -2979.6823    85.730521    2551.6165   -2909.1187 0.0011206953 0.0012212991 0.0012285923 
 3544000    286.35918   -127.15778    800.91044    315.53621    265.95727   -93.632448 0.0011203825 0.0012205956 0.0012278786 
 3546000    291.70211   -128.13007   -2586.5466    24.241335    2964.1596    337.00598 0.0011197231 0.0012197139 0.0012273873 
 3548000    279.36612    -127.8229     805.9163    2359.6297    1973.4288   -1271.0283 0.0011192157 0.0012201532 0.0012268034 
 3550000    268.61289   -127.43867    886.15586   -1495.5639   -628.55383   -379.19304 0.0011184564 0.0012197345 0.0012272656 
 3552000    271.39562   -127.86032   -1328.5851   -114.30785    746.48778   -33.848317 0.0011196858 0.0012189003  0.001226246 
 3554000     315.3188     -128.456    2191.3721    1619.1019   -1661.4169   -1321.0593 0.0011204048 0.0012181634 0.0012256125 
 3556000    278.25942   -127.71395   -1749.1939    1299.9911   -688.93166    603.25497 0.0011214864 0.0012174395 0.0012250893 
 3558000    315.94087   -126.87615    1889.5928    2008.1888   -2074.3377   -1252.4916 0.0011212874  0.001217592 0.0012242974 
 3560000    315.93205   -127.68165    773.87264    112.44243   -1451.3521    1750.0337 0.0011219486 0.0012171034 0.0012236143 
 3562000    289.53109   -127.40233    -1094.388    291.39927   -78.171865    306.68912 0.0011229551 0.0012163948 0.0012246995 
 3564000     334.9946   -127.22512    2216.1375      444.061    421.30771    417.65113 0.0011225736 0.0012161181 0.0012248582 
 3566000    296.88257   -127.02529   -2442.4231    1190.0601     -177.467    -1060.187 0.0011220071 0.0012160118  0.001226349 
 3568000    285.55472   -127.54356   -341.38189   -1072.2259    8.6720638    329.25258 0.0011221803 0.0012158863 0.0012274428 
 3570000    281.06519   -127.92855   -1270.6338   -77.416905     239.5633   -852.85372 0.0011217919 0.0012159244 0.0012269773 
 3572000    339.68674   -128.44635   -2556.5136    594.76208    2174.5678    352.38941 0.0011212731  0.001215224 0.0012262614 
 3574000    324.23742   -128.21828    1929.6529    206.43855     1387.026   -426.92888 0.0011212897  0.001214795 0.0012260717 
 3576000    317.57383   -128.44492   -2961.7931   -311.04274   -673.49526    -1121.076  0.001120881 0.0012141815 0.0012256196 
 3578000    319.75764   -127.60459    322.23333   -386.94978   -298.30223   -1299.7996 0.0011204888 0.0012139936   0.00122509 
 3580000    298.57091   -127.33583   -471.65829   -936.13711   -721.97093   -746.22338 0.0011204417 0.0012132434 0.0012258451 
 3582000    259.11473   -127.93858   -1808.8259   -1382.9897   -2057.7475   -82.698027 0.0011209086 0.0012132143 0.0012258023 
 3584000    312.28302   -128.29359    1658.5374     68.77306   -218.68288    2293.2792 0.0011205271 0.0012147664 0.0012260331 
 3586000     333.0018   -128.16445   -2342.3393   -2005.9093   -244.09805    149.23007 0.0011197316  0.001214135 0.0012250734 
 3588000    267.76674   -128.31179     496.8745    526.95468   -1070.7579    833.17846 0.0011191805 0.0012164691 0.0012243768 
 3590000    322.79927   -127.78701   -460.16622   -1895.1253    1100.5195    488.16166 0.0011188904 0.0012158591 0.0012242718 
 3592000    290.33239   -128.09574   -1593.1717    203.46602   -411.87633    367.09217  0.001119212  0.001215153 0.0012236373 
 3594000    298.04297   -127.54238    1467.6908    -333.9578   -1225.2584     1237.912 0.0011186876 0.0012143771 0.0012235922 
 3596000    311.20041   -127.58881   -2448.5319    1697.0687     -1660.25   -711.61172 0.0011181462 0.0012137817 0.0012237742 
 3598000    281.06734   -127.32188    1312.6775    2521.3497   -1256.2784   -665.38047 0.0011177764 0.0012131741  0.001224065 
 3600000    324.40786   -127.45777     248.0066    914.05734   -758.53673   -335.94944 0.0011178791 0.0012125415 0.0012238744 
 3602000    265.85586    -127.2274    163.04596    1486.8312   -2234.7647   -2974.2602 0.0011170357  0.001211913 0.0012233977 
 3604000    287.10237   -128.07563      2627.96   -2106.9961    1342.5382   -945.19423 0.0011171517 0.0012113787 0.0012226728 
 3606000    336.13231   -127.97814   -1952.2852   -2161.4215   -775.01975   -357.24259 0.0011163898 0.0012109503 0.0012222436 
 3608000    308.01598   -127.92687    715.51157   -946.66346   -1098.7447    819.92751 0.0011156798 0.0012103879 0.0012217482 
 3610000    305.14305   -127.58937   -1694.7346   -449.45691   -1413.5342   -706.45582 0.0011157418 0.0012102355 0.0012217582 
 3612000    331.93756   -127.42297     -1987.94   -1921.2129     1294.046    2404.4714 0.0011150818 0.0012095029   0.00122178 
 3614000    303.39977   -128.16008   -4.2259527   -726.97694   -221.26456    1369.8495 0.0011145605 0.0012088217 0.0012214791 
 3616000    304.15445   -127.87217   -2682.9927    1601.9193   -6.0847735    390.58647 0.0011149344 0.0012085838 0.0012211686 
 3618000    281.05767   -127.72894    1385.3344    442.02998    1347.7516   -939.37395 0.0011141561 0.0012084684 0.0012209713 
 3620000    311.56671   -127.39359   -1179.5469     1179.786   -413.66198    118.69229  0.001113571 0.0012082917 0.0012205377 
 3622000    320.15833   -127.96922   -625.57083    711.72742    1138.3816    746.49445  0.001112853 0.0012082691 0.0012203776 
 3624000    294.05101   -127.61814    1394.1691   -2126.8623    2336.9729   -1945.2042 0.0011121999 0.0012073977 0.0012205336 
 3626000    350.91126   -127.85344   -2167.4619   -1385.7785      584.397   -2297.2612 0.0011116567 0.0012092985 0.0012201859 
 3628000    291.34645   -128.36398    2461.4633   -275.41768    34.090027    163.36422 0.0011110568 0.0012102846 0.0012195203 
 3630000    310.46511   -127.65921    -1212.096   -1581.5934    388.89895    1482.6755 0.0011107351 0.0012105874 0.0012188417 
 3632000    324.33937    -127.8587    363.33489    592.42147    -1611.537    1308.7568 0.0011103079 0.0012097568 0.0012184754 
 3634000    314.40425   -128.13771    360.99095    383.67039    -206.1324   -263.41712 0.0011102305 0.0012094905 0.0012189152 
 3636000    311.87871   -127.73153    -2953.167    1672.4433    -743.5514    375.17667 0.0011096124 0.0012090938 0.0012182569 
 3638000    321.40132    -127.6456    1225.6548    1628.2612   -536.31675     698.5265 0.0011097043 0.0012089898 0.0012176626 
 3640000    302.60481   -127.02928   -1576.3853   -161.19806   -1212.0961    829.98955  0.001110335 0.0012080932  0.001217858 
 3642000    304.74781   -127.94721   -593.20807    -4.393933    97.048881    338.26645 0.0011095215 0.0012079456 0.0012209334 
 3644000    281.48038   -127.19567    1702.3273   -123.35313    2838.7032   -809.61448 0.0011089129 0.0012069579 0.0012237117 
 3646000    274.04664    -126.2867   -1067.7995   -1438.2045   -1777.1804    144.55656 0.0011091036 0.0012065729 0.0012237776 
 3648000    299.05641   -127.95212     2258.424   -1168.8666    396.64334   -2269.7644  0.001111021 0.0012089246 0.0012239085 
 3650000    279.79104   -127.99381   -2280.7128    -367.1944   -330.13263   -1364.9162 0.0011100897 0.0012112631 0.0012267547 
 3652000    299.97294   -127.04718    109.54774    496.40109      -1557.6    1009.0383 0.0011099759 0.0012127584 0.0012280216 
 3654000    272.74358   -127.80652   -21.953536    2379.8368   -2231.2075    1395.7505 0.0011094119 0.0012119556  0.001227651 
 3656000    281.79074    -127.6236   -2542.6748   -313.07695    -2059.553    1703.1674 0.0011119963 0.0012126791 0.0012279702 
 3658000    312.50009   -127.15615    1377.4842   -1336.9541    662.36632   -2299.1309 0.0011117643 0.0012121263 0.0012276745 
 3660000    270.40165   -126.83769   -1771.5762    1149.5377   -1184.5908    1627.6176 0.0011115294 0.0012120486 0.0012279119 
 3662000     275.5552    -126.9958   -347.18373    -1980.934   -987.49585   -212.85536 0.0011110925 0.0012118649  0.001230044 
 3664000    269.46608   -126.73965    780.69103   -608.30103    704.25995   -131.78249 0.0011098584 0.0012114849 0.0012310987 
 3666000    326.71817    -127.2966   -1008.0258   -2612.1772   -1824.8919    628.03162 0.0011103468 0.0012108992 0.0012322406 
 3668000    291.26208   -126.47874    2948.3464    42.415454    356.97244   -1.3250777 0.0011102601 0.0012103619 0.0012315362 
 3670000    322.14108   -127.32765   -52.193473    -1605.251    322.64227    2705.3463 0.0011112617  0.001211313 0.0012310357 
 3672000    325.67537   -126.93665    1368.8355   -786.15572     1137.139   -554.92188 0.0011124912 0.0012114632 0.0012339266 
 3674000    300.62195   -126.37029    2059.6328    2862.1655    1231.1679    -74.62631 0.0011134594 0.0012108236 0.0012322586 
 3676000    294.65665   -127.13277   -1025.6769    2156.6087   -284.30262   -1955.4185 0.0011136952 0.0012143202 0.0012314003 
 3678000    277.77863   -127.12073    280.02122    1034.0078   -1138.9763    -789.9638 0.0011156137 0.0012143669 0.0012306647 
 3680000    293.39207   -127.10508   -2323.7785    754.98209    104.47911    35.702144 0.0011173889 0.0012141601 0.0012300768 
 3682000    266.53659   -127.63762   -1841.1211    754.99828    1079.9135    145.72488 0.0011203482 0.0012143786 0.0012294251 
 3684000    283.30555   -127.76311   -845.86888    2416.2256   -2463.2501   -1041.7104 0.0011200933  0.001214389 0.0012288344 
 3686000    294.69164   -126.89859   -1280.9015   -302.08918    632.64333   -998.78597 0.0011195661 0.0012137708 0.0012293238 
 3688000    283.26137   -126.77199    2050.7125    -24.47476   -1546.0899   -1537.2673 0.0011196489 0.0012137189 0.0012293045 
 3690000    303.43347   -127.28294   -18.830452    -1101.807    -2241.251    1675.2605 0.0011224805 0.0012134398 0.0012290404 
 3692000    292.51583   -127.76903    591.83326   -459.73149   -975.05647     469.9918 0.0011236887 0.0012132462 0.0012285694 
 3694000    286.89334   -128.56776   -281.49012   -1033.7525   -1411.6358    421.20216 0.0011279088 0.0012143974 0.0012279716 
 3696000    327.97346   -127.82158   -1978.7202   -1478.4789    1865.2575    1114.0932 0.0011319988 0.0012136872 0.0012273788 
 3698000    339.18615   -127.09634    1448.3949   -280.79303    516.11806    292.31163 0.0011420146 0.0012131925 0.0012266156 
 3700000    324.23888    -127.4351   -1156.3668   -2262.8587   -404.86413   -827.31119 0.0011481685 0.0012124961 0.0012265929 
 3702000    269.42401   -126.70356    1150.2101    1381.2171    1916.0687   -1548.8516 0.0011513304 0.0012128528 0.0012271501 
 3704000    277.12254   -127.27218   -970.03913   -321.86138    -1105.385    1695.8568 0.0011525671 0.0012130026 0.0012278754 
 3706000    271.57737   -127.01615   -2352.9769    1137.3041   -990.47097   -583.50537 0.0011536087 0.0012124714 0.0012270065 
 3708000    293.33016   -127.26441   -776.38146    680.28755   -197.89611   -1782.6852 0.0011574945 0.0012122052 0.0012277289 
 3710000     313.3248   -126.55295   -2420.8496    647.54108   -110.61649   -1284.8542 0.0011641201 0.0012131353 0.0012270857 
 3712000    292.16727   -127.17154   -323.44588    771.40321    1867.9057    113.28229 0.0011640974 0.0012121173 0.0012263907 
 3714000    280.22467   -127.34584    502.78348   -2496.2904   -2781.7208    2212.9861 0.0011650573 0.0012132146 0.0012258309 
 3716000    295.01419   -126.80077    300.84681   -717.67175    182.89433   -1035.7295 0.0011650835 0.0012125422 0.0012251917 
 3718000     267.0737   -126.72504    2913.6553   -1242.2239   -679.67799    1878.0087 0.0011644842 0.0012117017 0.0012254282 
 3720000    309.20452   -127.51593   -371.90056   -1473.4743   -589.27606   -1314.8903 0.0011637417 0.0012109644 0.0012254958 
 3722000    308.02873   -127.00827    990.99581    1382.5671    376.74235   -403.77923 0.0011631546 0.0012105241 0.0012251299 
 3724000    307.95173   -127.09371    55.490595   -33.917359   -1193.6913    -570.9938 0.0011625436 0.0012098981 0.0012252271 
 3726000    301.69549     -127.581   -1226.4854    495.84671    588.32539   -804.47728 0.0011625628 0.0012097142 0.0012250913 
 3728000    288.88869   -128.33042   -237.91063    813.58113    -455.8939   -945.40585 0.0011624485 0.0012102564   0.00122453 
 3730000    315.81142   -126.83891   -1790.0283    1155.3191   -2061.6192   -2031.8991 0.0011618653 0.0012095581 0.0012245672 
 3732000    294.56771   -127.29347   -236.44756   -663.46303    1355.3712     1742.695 0.0011613491 0.0012090864 0.0012254454 
 3734000    273.47514   -126.74384    212.86425   -1808.1115   -1364.7331   -349.83611 0.0011613059 0.0012088762 0.0012248883 
 3736000    305.96241   -127.29993   -2383.5749    404.81747    727.17187     1055.999 0.0011606444 0.0012104669 0.0012256273 
 3738000    298.28724   -127.61801    145.35145   -1294.3301   -1671.2871    2559.0583 0.0011601485 0.0012127993 0.0012250071 
 3740000    276.16012    -126.8279   -962.30105    303.01838   -1472.2962    3520.0846 0.0011600141 0.0012140813 0.0012247198 
 3742000    298.06667   -127.38476   -78.870101    653.45842   -1249.5063     2120.233  0.001159423 0.0012138085 0.0012247229 
 3744000    296.24603    -127.0159     1156.123    -77.02682   -447.56892   -278.94778 0.0011586105 0.0012136732 0.0012242313 
 3746000    304.80233   -127.98216   -1243.9018    1224.2657    669.32281    475.16714 0.0011580835 0.0012135659 0.0012244234 
 3748000    285.26051   -128.52629   -60.609963   -117.31356    946.50728    317.71124 0.0011576543 0.0012134882 0.0012248214 
 3750000    304.57162   -128.41162   -1058.7235    411.10667    345.04147   -361.77026 0.0011578255 0.0012127641  0.001224621 
 3752000    297.65998   -127.42625   -1804.7213    1895.5073    961.09222   -137.35137 0.0011583973 0.0012122196 0.0012251167 
 3754000    303.22435   -127.20063    793.13779   -1455.2877   -1045.4012   -3355.5155 0.0011588789 0.0012118751 0.0012251555 
 3756000    303.21667   -127.63252    -1380.134   -1501.6856    720.97972    102.98872  0.001158511 0.0012114116 0.0012277531 
 3758000    303.81263   -126.76053    1793.1467   -870.41348    1125.9063    614.91662 0.0011581218 0.0012112056 0.0012283872 
 3760000    295.90053   -128.13573    1030.5184   -459.26195    1359.8042     -656.433 0.0011580598  0.001210459 0.0012277787 
 3762000    254.21285   -127.58732   -798.31876    175.76065    1330.3018    862.97635 0.0011581014 0.0012107018 0.0012281346 
 3764000    295.57885    -127.2261    1062.3139   -628.49894     -338.358     667.0973  0.001158003 0.0012101005 0.0012276812 
 3766000    310.49023   -128.14362    -2180.118   -222.31389    551.95052     2000.345 0.0011572577 0.0012110152 0.0012306215 
 3768000    271.46549   -128.18202   -1215.5029   -1534.0895    191.72558    1343.7292 0.0011567358 0.0012122952 0.0012328765 
 3770000    279.97139   -127.24454   -375.93319   -375.87169    1614.5913   -1322.4214 0.0011561767 0.0012140984 0.0012336401 
 3772000     298.9867   -127.11367   -1541.1694   -1073.5007    984.08587   -298.89873  0.001155882 0.0012134601 0.0012333088 
 3774000     328.5723    -127.2871    2361.1641   -653.33806    57.145889   -2329.4734 0.0011560345 0.0012136184  0.001234578 
 3776000    320.15332    -127.7295   -1121.6312    2833.4625    484.61987     707.8339 0.0011560151  0.001212997 0.0012345888 
 3778000    290.31444   -128.15827   0.33039121    103.16036   -339.61646   -1234.5013 0.0011562375 0.0012159188 0.0012340977 
 3780000    279.20012   -127.27583    911.59094   -1100.8445    1631.6473    1199.6139 0.0011554529 0.0012166918 0.0012345548 
 3782000    282.91886   -127.59832   -1596.6219   -2299.3183    657.69271     1547.337  0.001154848 0.0012165199 0.0012349053 
 3784000    264.02837   -126.86893    1767.6096   -2512.5117   -982.20047     -2004.66 0.0011542537 0.0012161766 0.0012343283 
 3786000    271.54806   -127.25896   -622.85858   -2340.1029   -947.23358    1098.3268 0.0011536489 0.0012157517 0.0012340275 
 3788000    303.92212   -127.25939    166.96264    -1852.823    1004.5664    2311.3347 0.0011536517 0.0012155235 0.0012343315 
 3790000    306.38305   -127.49397    332.25771   -1842.4384   -275.32091    1787.6217 0.0011533921 0.0012184399 0.0012347221 
 3792000    289.88683   -127.28697   -1218.2613   -49.815835    -489.7991   -1439.0922 0.0011542412 0.0012195464 0.0012337224 
 3794000    286.14728   -127.85875    475.42248   -1689.2553    1776.1597   -1594.8078 0.0011536866 0.0012189871 0.0012334071 
 3796000     324.8372   -126.53341    -1131.907   -245.11243    96.185008    133.36409  0.001153008 0.0012183544 0.0012347755 
 3798000    261.45304   -127.11432    473.36926    469.41589     1915.106    466.29887 0.0011521002 0.0012176763 0.0012344296 
 3800000    307.51346   -127.73729    2438.0816   -526.60271    139.30365    223.28763 0.0011520889 0.0012172031 0.0012337841 
 3802000    287.34046   -128.16755   -39.579911   -268.25781   -547.59943   -73.729551 0.0011523797 0.0012165994 0.0012332686 
 3804000    301.67752   -127.82251    3188.3772   -1757.1079    470.95446   -1593.4957 0.0011517306 0.0012169193 0.0012327259 
 3806000    328.28984   -127.36114   -364.91142    3321.4806   -108.31388   -780.74416 0.0011525387 0.0012165633  0.001232071 
 3808000    316.12072   -127.43142     662.2052   -63.730473   -292.00522   -393.31788 0.0011555013 0.0012175161  0.001233126 
 3810000    284.42457   -127.33452    752.78524   -1654.3049    1399.0681    1248.5743 0.0011555435  0.001219515 0.0012325081 
 3812000    312.99765   -128.54007   -2146.7103    805.82999   -302.04405    716.42432  0.001155156 0.0012189722 0.0012318532 
 3814000    312.90309   -127.59687    1070.9746   -2719.9448    1122.0164    265.28228 0.0011545223 0.0012183662  0.001231596 
 3816000    288.65005   -127.35069   -549.82313    1632.5519    1305.3194    243.43473 0.0011539922 0.0012192225 0.0012307804 
 3818000    283.45035   -127.89915    -13.70148   -350.90191    2872.3207    -2411.066  0.001153452 0.0012185269  0.001231377 
 3820000    290.13389   -127.40273   -747.00567    871.05638    375.79396   -1555.9438 0.0011531375 0.0012204553 0.0012302929 
 3822000    303.07404   -127.87061     -1941.56    1451.0688   -105.83855   -3473.1767  0.001152955 0.0012216497 0.0012300404 
 3824000     331.7603   -128.17305   -1155.7345   -946.14459   -1027.5151    506.31178 0.0011541614   0.00122169  0.001232163 
 3826000    308.86894   -127.68592   -1824.4071    2486.5657    -2570.481    644.95119 0.0011538805 0.0012216427 0.0012349736 
 3828000    272.88268   -128.08301    876.79858    809.98962   -987.33511    224.89243  0.001153309 0.0012208666  0.001236859 
 3830000    300.05866     -126.998    884.67905    1330.2739   -1383.4648    2485.3621 0.0011534706 0.0012201594 0.0012373659 
 3832000    304.38219   -127.38719    1726.8469    3207.7257   -1365.3069   -485.71728 0.0011527265 0.0012197747 0.0012368121 
 3834000    310.22108   -127.40546   -414.42842    3919.8522   -432.89316    1894.5652 0.0011522103 0.0012196226 0.0012362509 
 3836000    329.12633   -128.01134   -321.71637   -1922.9236   -386.00947    336.58441  0.001152655 0.0012189845 0.0012357169 
 3838000     352.1695   -127.28535   -414.22503    670.39402     1997.952   -1796.8425 0.0011530232 0.0012184707 0.0012351452 
 3840000     278.5009   -127.95816   -2293.5494   -1428.0977   -1284.2442     509.4341 0.0011529356 0.0012179321 0.0012345113 
 3842000    272.45353   -127.46191     201.7238   -2324.4612    1159.9249   -139.03255 0.0011549675 0.0012176509 0.0012341698 
 3844000    289.33624    -128.0839   -1630.3245   -1632.9197   -101.36286    3253.6986 0.0011550579 0.0012170779 0.0012336365 
 3846000    286.61126   -127.67848    333.50031    211.45132   -63.139683    778.07177 0.0011557079 0.0012165485 0.0012332016 
 3848000    296.59814   -128.01827   -1277.2913    1849.7301   -929.54082    823.10833 0.0011558199 0.0012163629 0.0012332235 
 3850000    321.21282    -128.1725   -1842.0435    815.06562    1527.6154    3746.5669 0.0011562037 0.0012157225 0.0012334899 
 3852000    266.59552   -125.98354    137.82305    266.03554    1087.3263   -862.25453 0.0011554876 0.0012153114 0.0012331321 
 3854000    292.38242     -127.478   -911.76329    430.69991    190.48006    768.66225  0.001156711 0.0012147916 0.0012326435 
 3856000    314.59053     -127.772    697.03661   -1441.0067   -28.108979    -719.0108 0.0011566049 0.0012139656 0.0012324897 
 3858000     298.5322   -127.69737    22.071523    1417.1456   -3193.3233   -2230.1488 0.0011573555 0.0012135442 0.0012316771 
 3860000    316.55193   -127.29543    1225.3386   -1264.3067   -2864.9768   -1569.2856 0.0011602024  0.001215024 0.0012310657 
 3862000    300.15154   -127.66365    722.55506    -2586.927    -2379.893   -5555.8591 0.0011635506 0.0012145317 0.0012304911 
 3864000    305.63971   -127.45869   -1101.4619     339.1169   -261.03403   -64.855399  0.001162878 0.0012139018 0.0012296402 
 3866000    297.86968   -127.74455   -328.80799   -461.82295   -916.45738   -46.776966 0.0011630398 0.0012145659 0.0012291842 
 3868000    295.39401   -127.79722   -2127.4816    1089.2154    2618.2939     4058.012 0.0011627654 0.0012175386 0.0012285068 
 3870000    284.83871   -127.25766    924.40155    -912.3609    4725.3794    2796.3005 0.0011623533 0.0012167162 0.0012277765 
 3872000    300.85317   -127.59482    -380.5776    704.73188     193.5278    968.05606 0.0011617745 0.0012162693 0.0012270231 
 3874000    289.41672   -126.90132    130.92701    2445.8668     1445.051    1901.3524 0.0011613861 0.0012162581  0.001226228 
 3876000    306.98145   -127.85951    35.206034    2335.6501    146.72929   -409.42111 0.0011612838 0.0012155181 0.0012255233 
 3878000    319.97242   -127.00596   -953.88756    2379.6293   -1226.4864    395.26836 0.0011604247 0.0012149755 0.0012249751 
 3880000    301.07953   -128.11994    359.54878    1017.2595   -3672.1763    331.78606 0.0011597205 0.0012142455  0.001224421 
 3882000    284.31401   -127.72438   -1043.1629    3694.8019   -5076.2096   -236.50333 0.0011591119 0.0012141024 0.0012237444 
 3884000    280.37802   -127.02744    517.03862    -2360.753   -3106.5204    1532.0785 0.0011587427 0.0012139834 0.0012234808 
 3886000    292.26342   -127.43994   -144.94449   -2641.8682   -1996.7512   -579.34738 0.0011584679 0.0012135923 0.0012224249 
 3888000    295.35304   -127.33805    -215.3309   -425.16178    671.25465    1821.2407 0.0011579678 0.0012165413  0.001221826 
 3890000     306.1748   -127.46963    135.41591   -496.01578    553.49807    1808.9401 0.0011573557 0.0012178688 0.0012211103 
 3892000    281.65319    -127.2847   -1421.6033   -144.56749   -1602.3117    -452.0978 0.0011570413 0.0012198483  0.001220696 
 3894000    272.55992   -127.78712   -621.47861    837.32389    367.29796    460.51057 0.0011567418 0.0012234143 0.0012203477 
 3896000    298.10256   -127.60422   -871.03891    333.27776    609.83005    1157.5598 0.0011559644 0.0012263537 0.0012204087 
 3898000    278.45843   -127.79414   -877.85991     837.5644   -1807.7996   -1943.7211 0.0011553587   0.00122641 0.0012202709 
 3900000    310.69641   -127.53107     306.8573   -1027.4287    144.44221    651.13361 0.0011547912 0.0012267193 0.0012198809 
 3902000    297.63509   -127.23464   -320.80854    403.19357   -661.01418   -390.49455 0.0011544895 0.0012272984 0.0012190461 
 3904000    314.45211   -127.47698    932.64306   -103.63401    339.58895    268.53359 0.0011541203 0.0012266104 0.0012183827 
 3906000    289.55583   -127.96479    349.62331   -1231.8234   -35.614344   -1665.7032 0.0011544295 0.0012263703  0.001217645 
 3908000    288.78725   -128.05998   -1173.2504    544.46988   -406.53917   -1084.3527 0.0011553198 0.0012258742 0.0012168591 
 3910000    261.60836   -127.60299    965.33357   -2615.7208    2042.2038   -2067.6166 0.0011564828 0.0012252696 0.0012162441 
 3912000     321.9681   -126.99279   -870.74057    2014.8753   -1481.4303   -3768.4829 0.0011560844  0.001225311 0.0012155994 
 3914000    285.38579   -127.90942   -326.96614    1119.2007    912.23795    741.85958 0.0011564056 0.0012275584 0.0012155651 
 3916000     276.0083   -127.68606   -656.91127    655.47672    1425.8378    321.98923  0.001156553 0.0012273967 0.0012150153 
 3918000    287.08118   -127.42048   -1458.6747    923.57174   -2697.6343   -439.84165 0.0011560995 0.0012279978 0.0012147223 
 3920000    317.69741   -127.99038    -371.7618     390.6009    64.609029    468.23316 0.0011556223  0.001228071 0.0012146613 
 3922000    333.37427   -126.94432   -1020.2057    716.89268   -2298.4631   -426.07138 0.0011550848  0.001230292 0.0012153373 
 3924000    301.40471   -126.87859   -346.46257   -604.61297   -1733.2723    857.95172 0.0011546249 0.0012320191  0.001214689 
 3926000    302.94262   -126.91629   -262.57233    515.00648    -1359.797     325.9412 0.0011541688 0.0012313081 0.0012140647 
 3928000    282.03079   -127.62352   -1154.7685   -2434.0366   -1502.7916     3154.971 0.0011536733 0.0012318103 0.0012139022 
 3930000    275.55957   -127.83467    722.63249   -107.97932   -617.31751   -40.513638 0.0011532234 0.0012328482 0.0012130227 
 3932000      259.378   -127.88045   -360.86996     764.9713    68.868149   -363.38542  0.001152715 0.0012326275 0.0012124091 
 3934000     272.8135    -126.7522    912.97582    310.24852    649.17182   -2487.9883 0.0011525263 0.0012324419  0.001212214 
 3936000    269.83742   -127.30875   -753.42445    1815.3324    1607.7484   -244.14367 0.0011520359 0.0012319153 0.0012116176 
 3938000    293.43413   -127.29626   -674.32014   -2071.3897    1645.1976     856.2516 0.0011513082 0.0012313234 0.0012126922 
 3940000    317.42615   -127.76463   -428.21844   -11.289974   -2171.4831    3106.6632 0.0011515482 0.0012305128 0.0012128053 
 3942000    306.37173   -127.78288   -2872.7459    2062.8566   -616.68366    3086.5138 0.0011549587 0.0012302408  0.001212568 
 3944000    315.22792   -127.48932   -493.15975    1248.4224    960.80976    2614.6005 0.0011538711 0.0012312885 0.0012122331 
 3946000    324.35359   -127.94517   -769.09283   -102.36505   -1847.0781     1406.435  0.001153261 0.0012311195 0.0012116199 
 3948000    296.84911   -126.54536   -1106.3048   -79.446136   -1193.2567    54.851716 0.0011530373 0.0012338158  0.001212342 
 3950000    288.75373   -126.89518    1999.5313    1181.1825   -2447.2523   -1208.4333 0.0011526037 0.0012345925 0.0012121337 
 3952000    301.25558    -126.8448   -1648.1234    1352.8647   -1413.2243   -912.96047 0.0011519713 0.0012340323 0.0012116793 
 3954000    297.78827   -127.71399     1059.546   -897.76676    1529.7808   -234.11413 0.0011517113  0.001233581 0.0012110972 
 3956000    295.53163   -127.30102    1251.7134   -455.43571   -1038.0151   -1011.9994 0.0011520943 0.0012329242 0.0012111183 
 3958000    316.15788   -127.82106    264.20903   -2323.3907    668.71822    547.79088 0.0011515693  0.001232121 0.0012116396 
 3960000    291.68668   -126.15432    3434.0637   -2728.7384    2253.1296   -893.38629 0.0011510937 0.0012320883 0.0012117169 
 3962000    304.89728   -127.55218   -1889.0031   -1128.3604    309.04097   -597.08151 0.0011518778 0.0012316864 0.0012117543 
 3964000    301.42143   -127.18411   -409.03792     1202.374    416.99082   -1099.0018 0.0011527659  0.001230942 0.0012111442 
 3966000     271.4692   -128.47079   -1610.1761    1507.5122   -2152.0072   -1761.5183 0.0011525256 0.0012306102 0.0012105074 
 3968000    293.99441   -127.86627   -3182.4749    605.77754    1702.1694   -1150.4115 0.0011563346 0.0012297784 0.0012098669 
 3970000    281.74284   -127.61111   -361.96457    325.45723   -1562.8256     713.4013 0.0011608389 0.0012291118 0.0012092886 
 3972000    312.73967   -127.05806   -2000.1618   -7.8797734   -1962.5589   -1083.1786 0.0011682958 0.0012286488  0.001208733 
 3974000    274.13335   -126.90726    1108.2277   -1131.4291   -622.45905     3081.423 0.0011710821 0.0012281704 0.0012084892 
 3976000    320.81576   -127.48741    511.81428    692.24481   -2847.9069    -2686.027 0.0011711054 0.0012280139 0.0012081579 
 3978000    312.12039   -127.15081   -178.04581   -462.41215   -175.54531    775.34742 0.0011705018  0.001227427 0.0012076146 
 3980000    285.44016   -127.26321    3492.1784   -1163.9033    632.17477    1001.2897 0.0011699278 0.0012268997 0.0012084034 
 3982000    289.60562    -128.0462   -1508.7236   -1666.4023    2948.3509   -1861.0716 0.0011706125 0.0012262504   0.00120828 
 3984000    279.28348   -127.50653    1535.0435   -585.21165    2789.1103   -3.9537056 0.0011721961  0.001225967 0.0012077522 
 3986000    300.47678   -127.64492   -608.24092   -1314.6826    194.01734   -2826.7235 0.0011718876 0.0012253096 0.0012075428 
 3988000    292.50179   -127.57831   -1555.4969   -1108.8705    408.83207    1144.2122 0.0011716792 0.0012250131  0.001207779 
 3990000    277.80144   -127.57314    133.78732    246.81498   -312.65148    481.14003 0.0011739278 0.0012247869 0.0012070536 
 3992000    305.68135   -127.98132   -4086.4149     1346.378   -589.02718    943.30102  0.001173236 0.0012243998 0.0012077372 
 3994000     300.5819   -127.57621    569.12486    2537.2717   -514.66582    2177.5693 0.0011727984 0.0012242893 0.0012070229 
 3996000    274.73433   -127.54697    -1814.217    1778.3246   -1966.6797   -2302.0105 0.0011733165 0.0012237052 0.0012066167 
 3998000    300.81151   -127.74572   -1105.4421    1801.6633    3305.9183   -2437.4942  0.001172684 0.0012230605 0.0012068897 
 4000000    293.19681   -127.51749    1611.6582    563.80675    449.60007    128.04065 0.0011719335 0.0012226446 0.0012067613 
 4002000    317.62845   -127.89568   -2010.1692    329.93803     1194.511   -3665.8793 0.0011716634 0.0012226054 0.0012060063 
 4004000    317.50029   -126.87478    2408.4444    -683.6218   -761.69556    210.24699  0.001170956 0.0012239105 0.0012052548 
 4006000    329.58501   -127.56601   -132.40285   -3491.8059    236.49076    423.35949 0.0011702314 0.0012264124 0.0012054071 
 4008000    283.06267   -126.73782   -264.71326    -1516.318    436.69311    1695.7932 0.0011696498 0.0012262323 0.0012051009 
 4010000    319.12016   -127.07964     2308.865   -847.81775   -4726.7226    2049.6448 0.0011689652 0.0012257664 0.0012056472 
 4012000    279.87771   -126.88807    -3569.811    128.69236    301.24112   -1282.9276 0.0011684527 0.0012250348 0.0012059387 
 4014000    314.07347   -127.68884    297.21476   -319.71708   -1727.8261    295.91278 0.0011680784 0.0012251379 0.0012067762 
 4016000    286.63579   -127.25226   -1377.7829     849.9547    651.69856   -2181.2688 0.0011680381 0.0012252951 0.0012065439 
 4018000    312.34795   -127.89894   -2959.1027    3563.0232     2827.984   -1608.3883 0.0011682904 0.0012262507 0.0012063722 
 4020000    315.73005   -126.23061    3548.9488    158.16293    621.21555   -1266.8004 0.0011677747   0.00122816 0.0012062999 
 4022000    298.49131   -126.33088   -3366.3974    648.44846    2984.2343    238.04648 0.0011672806 0.0012312116 0.0012064614 
 4024000    263.84686   -127.16865    1301.7559    125.35489   -358.81738    3539.6808 0.0011666718 0.0012322438 0.0012056723 
 4026000    298.27173    -127.5567   -210.05027    313.52389    640.87845    836.73866 0.0011660652 0.0012329133 0.0012050563 
 4028000    279.46444   -127.42564   -2646.3409   -299.54661   -2720.4977   -151.62166 0.0011656598 0.0012331872 0.0012043735 
 4030000    288.89865   -127.23806    3923.7276    -892.8356   -1218.5087    1046.4251 0.0011669797 0.0012325501 0.0012038051 
 4032000    309.76365   -127.25936   -2563.8885    1890.5761   -2362.8351    209.81802 0.0011677242 0.0012319373 0.0012032851 
 4034000    309.48671   -127.62203    2430.5955   -1928.3463   -1890.5934   -112.18261  0.001167226 0.0012326865  0.001202716 
 4036000    238.15701   -127.18216     140.0463   -377.83715    1739.4889    -203.6693 0.0011669391 0.0012345061 0.0012023484 
 4038000    317.44831    -126.9059   -1453.8662    62.553874    -405.5893   -1504.3246 0.0011664708  0.001233806  0.001201967 
 4040000    327.45745   -127.32426    3488.5319   -1096.7472    216.45104   -65.416899 0.0011666417 0.0012332699 0.0012013038 
 4042000    321.99262   -126.79447   -3405.3903    2109.1634    323.27409   -3027.6396 0.0011659703 0.0012325351 0.0012007053 
 4044000    328.46802   -126.73159    2989.3429   -1022.3842   -2448.7938    932.15728 0.0011654901 0.0012318704 0.0012004362 
 4046000    314.39877   -127.59907   -711.60526    639.96355    104.76546    1435.6773 0.0011659633 0.0012315038 0.0012017872 
 4048000    285.84322   -128.11125   -2650.7487    1310.1124   -1142.9058   -2264.4451 0.0011659662 0.0012320188 0.0012019197 
 4050000    307.39457   -126.91439    3028.2789   -1114.1609     150.5549    2615.0147 0.0011664621  0.001232238 0.0012014815 
 4052000    321.45009   -127.11561   -4713.8147    107.05524    -118.3228    1123.0795 0.0011658142  0.001232833 0.0012014186 
 4054000    292.35652   -126.98896    1077.3728    252.72112    114.54252    3306.4234 0.0011654703 0.0012325369 0.0012020549 
 4056000    307.44137    -127.6076   -1536.9741   -49.274895    475.34071    3955.0429 0.0011648599 0.0012321122 0.0012014585 
 4058000    283.14889   -127.90873   -1420.6699   -112.17412    -852.0055   -526.24059 0.0011648656 0.0012337014 0.0012007248 
 4060000    298.16015   -128.48371     1911.044   -35.009831    171.30024     1218.512 0.0011653762 0.0012331023 0.0012003767 
 4062000    287.69683   -128.04173    -3327.577    1072.5761    396.20661   -1687.8983 0.0011648511 0.0012335068 0.0012000833 
 4064000    304.78868   -126.84648    2973.6167    -394.6568   -2274.5238    1686.3997 0.0011645503 0.0012338863 0.0011993494 
 4066000    287.55673   -127.39559   -1149.9236   -724.65645    963.10088   -1073.6058 0.0011649415 0.0012335467 0.0011992666 
 4068000    313.42273   -127.07083   -1343.8091   -136.64212   -1515.3893   -422.43529 0.0011657577   0.00123304 0.0011992344 
 4070000     303.5027   -127.15646    2230.5762    -861.8572    941.98428    1365.8133 0.0011659929 0.0012326744 0.0011987275 
 4072000    294.21235   -127.22602   -3457.6438   -190.87588   -2099.6142     2303.568  0.001166534 0.0012326969 0.0011990801 
 4074000    290.72717   -127.63548    1726.8527   -734.20906    1154.3836    4682.3556 0.0011665654 0.0012334877 0.0011981556 
 4076000    277.92827   -127.97138   -2739.8404   -1350.0394     2410.223    1203.8551  0.001166066 0.0012334134 0.0011979235 
 4078000    302.38328   -127.78497   -707.72935    745.06259   -2603.6657    2898.1534 0.0011656053 0.0012337386 0.0011971057 
 4080000    281.81429    -127.9188    1286.8492   -281.76024    395.22947   -1440.2362   0.00116504  0.001232657 0.0011964372 
 4082000    293.91574   -127.40312   -2223.3937   -2147.6797    1505.5067    -2494.378 0.0011652622 0.0012323311 0.0011969325 
 4084000     329.1607   -127.45254    3276.5913    197.73315    1066.6156   -490.85926 0.0011652083 0.0012323742 0.0011974083 
 4086000    298.88822    -127.1463    -814.9241    1752.5138   -1013.0059   -1612.7439 0.0011647763 0.0012328488 0.0011967943 
 4088000    308.76669   -127.47125    1640.1976    4504.0302   -2316.6582   -133.21768 0.0011650354 0.0012323747 0.0011967672 
 4090000    310.39438    -127.9657    489.05846   -626.06856   -978.73798    2595.3141 0.0011645391 0.0012317154  0.001198183 
 4092000    271.62217   -128.14968   -3471.4876    898.23241   -1971.7603    216.81092 0.0011639299 0.0012309891 0.0012020143 
 4094000    302.33166   -127.89277     1083.785    1803.7099    2146.3783    2415.3826 0.0011634357 0.0012307068 0.0012012323 
 4096000    288.44086   -127.63796   -4849.5391    499.07688    742.18696    2994.9901 0.0011629835 0.0012310388 0.0012005245 
 4098000    329.67635   -127.47807    493.03381     2105.108    634.40877    1730.5273 0.0011630894 0.0012316205 0.0012003862 
 4100000    289.66822   -127.88134    266.96624   -1006.5023    647.05444    1774.2972 0.0011630557 0.0012314328 0.0012002459 
 4102000    326.95023   -127.42017   -1406.0365    527.09686   -768.65612    -1475.758 0.0011630006 0.0012311232 0.0011995321 
 4104000    290.77727   -128.18601    3423.8958   -560.05116   -327.86115   -2241.2054  0.001162615 0.0012305049 0.0011989529 
 4106000    305.47457   -127.71062   -3196.9827   -131.45077    1241.6908   -2626.9453  0.001162051 0.0012299265 0.0011986442 
 4108000    298.12249   -127.85573    1351.2249    1766.4918   -1353.5603   -805.75987 0.0011617102 0.0012293279 0.0011984227 
 4110000    297.73486   -127.79939   -107.44675   -80.918996   -908.12333   -712.40122 0.0011611677 0.0012297733 0.0012011909 
 4112000    305.92029   -127.37433   -1802.7884     1925.346   -2314.7181   -1241.3399 0.0011616218 0.0012297774 0.0012042108 
 4114000    307.93416   -127.50688    3836.3716    862.10268   -1807.2126    775.41917 0.0011623005 0.0012292396 0.0012039343 
 4116000    305.78342    -127.9475   -3412.3058    2734.6473   -177.53626    4067.7509 0.0011618397 0.0012287828 0.0012056904 
 4118000    301.92701   -127.22607    1509.2617    78.889589   -3854.3285    1433.1583 0.0011619462 0.0012285403 0.0012062684 
 4120000    305.22068   -127.72042   -1938.2552   -562.55534    861.64763    3973.5183 0.0011615007 0.0012282264 0.0012070874 
 4122000    297.50342   -127.30947   -2845.7549     747.0952    705.74588    1418.9575 0.0011611179 0.0012276825 0.0012084398 
 4124000    303.57108   -127.66045    1823.8491   -1423.9893    1150.0824    1286.7451 0.0011611805 0.0012273214  0.001209186 
 4126000    329.80144     -127.084   -4080.1475    1993.6563     2517.735    2998.1081 0.0011606182 0.0012265966 0.0012087221 
 4128000    285.10909    -127.3367    2487.3963    2230.7971    279.34883   -667.48888 0.0011601687 0.0012260737  0.001208199 
 4130000    308.77721   -127.46053    2.2325411    2929.5058    64.346365    2610.0955 0.0011600036 0.0012251911 0.0012080455 
 4132000    307.82119   -128.17969   -1724.8502    3053.4171   -444.87791   -226.38252  0.001162079 0.0012250166 0.0012077879 
 4134000    315.06694    -127.8854     3569.404    654.27101   -1298.9922     1095.515 0.0011617894 0.0012244904 0.0012074147 
 4136000    287.92375   -128.09321    -3021.102    2933.3111   -196.71264   -1628.3479 0.0011614346 0.0012243757 0.0012071482 
 4138000    289.25135    -127.5739    3597.7635   -414.84055   -1337.3319   -1129.6478 0.0011613845 0.0012236234 0.0012065542 
 4140000    288.69985   -127.44432    321.57697    292.00286   -1940.0803    1859.3948 0.0011616958  0.001223459 0.0012058942 
 4142000    283.97152   -127.80946    -1899.021   -147.72935   -822.66161    2257.9169 0.0011610569  0.001222601 0.0012054713 
 4144000    287.26458   -127.50113    2500.7668   -1601.7114   -488.05004    4430.0914 0.0011625663 0.0012221371 0.0012053643 
 4146000    307.18831   -128.35878     -5949.57       1705.4    2186.9829    1752.5479 0.0011643038 0.0012220322 0.0012050246 
 4148000     313.9508   -127.26606    2161.6795   -2562.8623    995.31115   -33.105582 0.0011661042 0.0012216337 0.0012071465 
 4150000    353.16667   -127.32701   -1004.3314   -150.00095    1440.5432   -140.32386 0.0011651552  0.001221342 0.0012083712 
 4152000    269.51869   -128.30838   -3122.1695    1329.2316     802.3771   -638.14738  0.001164629  0.001220558 0.0012081422 
 4154000    274.47586   -128.16565    3528.4591   -846.59048   -345.94298    416.07731 0.0011650056 0.0012216014  0.001207989 
 4156000     260.2982   -128.47918   -4659.2139    2184.1237   -18.155218   -695.56307 0.0011641433 0.0012218056  0.001207387 
 4158000    267.75699   -127.23276    3085.9659    687.11926   -760.30961    925.89793 0.0011636115 0.0012214843 0.0012082682 
 4160000    285.71743   -127.33266   -720.99001   -2293.4503   -1506.7683   -923.64724 0.0011635841  0.001221845 0.0012085739 
 4162000     314.0236   -127.85357   -2050.0264    394.75657   -1003.4113    1729.6707 0.0011629922 0.0012230992  0.001208059 
 4164000    297.69905   -127.18214    3279.8162   -1585.8767   -1155.7827    2197.8097 0.0011623533 0.0012240727 0.0012074587 
 4166000    289.96184   -127.09553    -3588.638   -730.45063    806.91994    3187.9524 0.0011619791 0.0012235501 0.0012092315 
 4168000    321.61911   -126.64981    2508.6649    3992.6538   -2027.9118    1889.0092 0.0011620621 0.0012229001 0.0012108651 
 4170000    302.63228   -127.09132   -1131.6406   -815.01824    1499.5428    347.02643 0.0011614355 0.0012229443 0.0012108721 
 4172000    294.85371   -127.32637   -2485.1255    4475.3263   -72.987632    921.14886 0.0011608848 0.0012241425 0.0012105445 
 4174000    291.49693   -126.65407    3275.8767    580.42944    923.21311    407.25521 0.0011604098 0.0012232341 0.0012107795 
 4176000    293.38775   -127.22765    -2484.925   -903.49751    250.25566    1402.6544 0.0011598444  0.001222691 0.0012119513 
 4178000    317.26829   -127.61972    1813.4272    685.50961     1286.989   -130.58334 0.0011598923 0.0012221553 0.0012113921 
 4180000    309.83742   -127.50483    198.77486   -754.42862    2963.7353   -1008.2368 0.0011589629 0.0012217547 0.0012110432 
 4182000    281.29186   -127.78739   -2678.3417   -121.41419    802.80184    942.71056 0.0011587484  0.001221122 0.0012106347 
 4184000     286.7901   -127.63757     3494.544   -1006.2623    1903.4594   -113.92456 0.0011605452 0.0012205665 0.0012104429 
 4186000    257.14835   -127.77113   -2592.3651   -1109.8017    2217.1488    2023.5743 0.0011626742 0.0012200857 0.0012110656 
 4188000    297.38061   -126.90414    3106.5409    1203.3232   -1291.3081    378.93734 0.0011640747 0.0012194021 0.0012120596 
 4190000    303.47166   -127.08023    645.94838   -1213.3484    1070.3918    1460.7718 0.0011647127 0.0012188455 0.0012120868 
 4192000    287.34226   -127.19732    -1948.305    172.79412   -454.04618    -1364.841 0.0011675302 0.0012184042   0.00121221 
 4194000    296.81737   -127.27033    2562.0621   -1395.3537    -1000.966   -2265.7368 0.0011697822 0.0012196509 0.0012115787 
 4196000    336.80109   -127.62162   -3037.5814   -219.94356    4072.3191   -1531.7348 0.0011708284 0.0012187503 0.0012110888 
 4198000     299.0945   -128.03377     446.8037    137.31457   -665.09052    -284.8663 0.0011717437 0.0012181281 0.0012105377 
 4200000    297.98243   -126.84635   -182.17464   -2778.0456    516.57791    515.44166 0.0011734323   0.00121779 0.0012102508 
 4202000    275.56284   -127.73469   -2044.5781    637.32323   -1861.8073   -1790.7968 0.0011747517 0.0012180685 0.0012095831 
 4204000    309.26665   -128.71194    733.96002   -2188.5327   -1415.0129    142.63703 0.0011744204 0.0012172685 0.0012094321 
 4206000    350.94862   -126.89157   -3100.0463    1314.3213    2234.6104    419.86651 0.0011743166 0.0012167686 0.0012089223 
 4208000    304.24214   -127.90599    1301.3447   -1232.9325    1383.6431   -789.33831 0.0011751811 0.0012164945 0.0012091621 
 4210000     297.4144   -127.37872   -1495.4318    684.05224     1294.023    717.18177 0.0011781896 0.0012161552 0.0012086941 
 4212000    267.89267   -127.40401   -728.42645   -422.02726     323.4208   -2914.4939 0.0011794477 0.0012155604  0.001208125 
 4214000    309.22759   -127.40808    2677.6589   -3359.8161   -1848.1151    2710.9232 0.0011797647  0.001215106 0.0012077153 
 4216000    289.19825   -127.28173    -1744.124   -351.93431    582.94442    3.4645729 0.0011809454 0.0012154172 0.0012072707 
 4218000    316.88961   -127.47404    3137.5954   -2180.0765   -286.60881    748.90078 0.0011858681  0.001215122 0.0012067834 
 4220000    286.36093   -128.10299   -1840.9538    234.05236   -83.037818     956.8235 0.0011865305 0.0012162845 0.0012061115 
 4222000    311.51637   -127.90185    124.94623     194.7593   -2091.8583   -885.49563 0.0011864147 0.0012160136 0.0012055548 
 4224000    287.55767   -128.22958   -33.151727    1062.4116    2125.5751    1114.7952 0.0011867431 0.0012159544 0.0012052881 
 4226000    260.71942   -127.17037   -2450.2884    2711.1168   -552.56691   -1742.2663 0.0011861417 0.0012152438 0.0012050431 
 4228000    285.43498   -127.35455    2189.5589    1918.8525    484.93039    4309.4126 0.0011856164 0.0012152162 0.0012046759 
 4230000    284.07409   -126.96529   -3337.9333     3278.927    1628.8358    399.84292  0.001184975 0.0012155257  0.001204145 
 4232000    313.72646    -126.3154    1534.3389    310.07351    1543.4518    735.03118 0.0011853607 0.0012148936 0.0012037174 
 4234000    302.32773   -126.64736   -110.73423    1955.2782    2370.1948   -603.60748 0.0011860421 0.0012144201 0.0012037118 
 4236000    292.91836   -127.51531   -2427.5226    1245.0654   -958.31876   -2162.5346 0.0011857623 0.0012139281 0.0012042763 
 4238000     322.7777   -127.72865    1281.1912    1104.4068   -2438.7402    1061.7083 0.0011850485 0.0012132872 0.0012037492 
 4240000    316.13036   -127.31874    -2433.057   -2303.6904   -79.031667    -979.8989 0.0011845291 0.0012128052 0.0012033408 
 4242000    295.61925   -128.49143    384.05572    124.21395   -212.10861   -162.55008 0.0011836809 0.0012123055 0.0012029536 
 4244000    294.66674   -127.46685    -746.4159   -661.18763    1627.4634    2556.6916 0.0011832829 0.0012117864 0.0012020666 
 4246000    312.99048   -128.00633   -1251.4979   -1634.8214     269.8619   -511.05702 0.0011826976 0.0012119247 0.0012020598 
 4248000    309.15545   -127.44045     1775.106    2169.3875   -2076.6593    997.95571 0.0011831478 0.0012115459 0.0012013043 
 4250000    310.34384   -127.68429   -1506.5117    858.53338    1360.6469   -1921.0837 0.0011851411  0.001210972 0.0012008272 
 4252000    326.92767    -127.0213    1879.9695    1738.6958    13.571688     1494.493 0.0011853227 0.0012119309 0.0012005513 
 4254000    303.13387   -127.43421   -171.14478   -912.41098   -2237.7623   -1668.1383 0.0011855451 0.0012119892  0.001200145 
 4256000    309.31844   -127.50327    321.96532    761.94519    1588.7033     1592.374 0.0011848147 0.0012115761 0.0011997956 
 4258000    288.03461   -127.54653    663.26342    3054.8753   -1492.8251   -1439.5946 0.0011845697 0.0012117275 0.0012005702 
 4260000      294.641   -128.41694   -2375.3093   -399.83099    469.41057   -1292.4501 0.0011839244 0.0012114616 0.0012002097 
 4262000    319.30847   -127.67207    2367.8006    -826.0228   -469.55699    3105.2908 0.0011834845 0.0012109051 0.0011996231 
 4264000     269.3228   -128.20125    -1644.137    -3391.347   -592.17222   -337.54773 0.0011829889 0.0012111779 0.0011992757 
 4266000    328.54158   -126.90804    463.84454   -2272.0461   -1119.7537    2079.4384 0.0011826168 0.0012110151 0.0011998039 
 4268000    304.09584   -126.74711   -125.36813   -3023.6643     1089.228    2241.8004  0.001182033 0.0012112257 0.0011992363 
 4270000    295.03562   -127.00748   -2209.1017    -3251.299    750.70913   -1453.9966 0.0011812941 0.0012106939 0.0011996052 
 4272000    301.33954   -128.42574    349.81508   -886.24361    101.23969   -1126.9708 0.0011825164 0.0012108395 0.0011994498 
 4274000    287.52492   -127.31795   -1494.0974    -1272.171    447.59791   -2092.4975 0.0011827234 0.0012105203 0.0011988984 
 4276000    312.15899   -128.17524    657.51693   -393.22668    -792.2769   -1722.1503 0.0011821751 0.0012102256 0.0011984283 
 4278000    319.54492   -127.93094    290.90334     3710.015   -2005.7594   -629.27483 0.0011819575 0.0012102396 0.0011977959 
 4280000    327.59954   -127.81706   -543.82919    914.21922    549.72597   -2301.1083 0.0011814508 0.0012101867 0.0011972527 
 4282000    304.07921    -127.4838    2138.8207    859.43216   -1007.6386   -173.97797 0.0011808008 0.0012097736 0.0011977666 
 4284000    287.08234   -127.30199   -979.87074    677.77561    1524.9802   -819.02522 0.0011803417 0.0012091739 0.0011971474 
 4286000    314.81401   -127.25108    1223.5814    33.478616   -521.53019    996.95812  0.001180299 0.0012086617 0.0011967432 
 4288000    302.20811   -126.88695    78.205984   -920.14673     1912.234      -2594.5 0.0011818971  0.001208162 0.0011962237 
 4290000    325.90224   -126.87205   -1019.0313   -1899.6582    3439.3836   -263.71353 0.0011810219 0.0012076911 0.0011959231 
 4292000    340.20237   -126.91781    1670.3979    -2725.906    -89.80375    1490.4024  0.001180459 0.0012072446 0.0011957896 
 4294000     301.7889   -127.22547   -2550.1139   -1847.9368    1638.2625    364.42173 0.0011805097 0.0012067726 0.0011951604 
 4296000    293.92584   -127.52733   -948.65083   -1057.6749   -379.52045     2105.027 0.0011797301  0.001206359 0.0011945294 
 4298000    318.59484   -127.24107   -987.01115    677.11901    236.38306    1469.4893 0.0011792091 0.0012058851 0.0011943419 
 4300000    278.72126   -127.68745   -1561.7075    3532.7496    1605.9904   -310.34588 0.0011790035 0.0012054992 0.0011940785 
 4302000    287.15267   -127.73239    2077.4066    -981.2791   -1966.2961   -2251.0525 0.0011795579  0.001205075 0.0011935158 
 4304000    295.26796    -127.8269   -661.81703     344.3112   -448.95657    696.64436 0.0011789899  0.001204758 0.0011936072 
 4306000     293.8048   -127.43176    1673.3248   -238.37522   -3320.7284   -2335.0274 0.0011783432 0.0012047832 0.0011938663 
 4308000    295.55063    -128.2962    103.97473   -983.17602   -361.17325    897.89703 0.0011780924 0.0012053001 0.0011941752 
 4310000    290.60287   -128.00107   -1025.2843    1246.2806    284.50217   -188.97635 0.0011774908 0.0012046943 0.0011947161 
 4312000    303.34974   -128.25839    1420.3451   -1639.4467   -851.56016   -1093.0974 0.0011773345 0.0012041468 0.0011946464 
 4314000    276.94724   -127.75186   -2359.5932    940.27274    1713.1027    1296.4072 0.0011774218  0.001203611 0.0011946299 
 4316000    299.48226   -127.56548    351.83512   -570.19206   -1267.7646   -994.69172 0.0011776368 0.0012031704 0.0011953121 
 4318000    300.87838   -127.70286   -1132.1365   -989.98059    209.98792    454.81214 0.0011777214 0.0012025342 0.0011950607 
 4320000    245.09901   -127.77516   -1546.1176    2544.7762    1821.5571   -656.21591 0.0011773035 0.0012019694 0.0011944478 
 4322000    299.31641   -127.57939   -483.96905    264.18944    1792.4175   -2756.9822 0.0011769218  0.001201593 0.0011941472 
 4324000     318.1618   -127.50074   -2074.7314    3160.3072    1389.0757    2442.6671 0.0011764186 0.0012012418   0.00119431 
 4326000    296.71345   -127.96299     359.5578    3009.9342    1305.3959    1426.9344 0.0011770287 0.0012034012 0.0011950885 
 4328000    306.10445   -128.42945   -1226.3624    927.15309      348.687    914.59982  0.001178601 0.0012044606 0.0011945756 
 4330000    297.01279   -128.43442    170.75493    1097.1411   -2027.5258   -991.22961 0.0011813281 0.0012058076 0.0011944609 
 4332000    275.23946   -127.70066    549.42871   -922.13189   -707.44881    1022.5371  0.001183606 0.0012056117 0.0011935906 
 4334000    319.31979   -127.34813     148.2934    1921.4929   -1320.5161   -26.052462 0.0011841123 0.0012057782 0.0011933628 
 4336000    300.67356   -128.42628    877.01008   -2795.2962   -366.25583   -1348.2226 0.0011848074 0.0012054182 0.0011928678 
 4338000    306.37269   -128.01854   -25.258835    792.47073    -956.7151   -813.76784 0.0011891997 0.0012050254 0.0011924169 
 4340000    325.80013   -127.81441    464.49015    -204.5661    525.96254    752.61061 0.0011898221 0.0012045585 0.0011917978 
 4342000    266.40636   -128.06001   -654.85058   -1496.9151    1170.6356   -713.60549  0.001189769 0.0012039741 0.0011913025 
 4344000    308.95347   -127.56681   -1511.7001     1371.813   -268.11099    496.05782 0.0011893556 0.0012036616 0.0011914063 
 4346000    310.37472   -127.79918    518.31077    1011.8664    878.25737   -2683.0759 0.0011890676 0.0012030396 0.0011931821 
 4348000     330.8432   -128.15396   -2272.9707    2215.9057    1346.9355    553.22047 0.0011889872 0.0012026025 0.0011951309 
 4350000    330.92942   -127.72798    189.43871     798.2907    1440.1847   -920.40329 0.0011889888 0.0012021124 0.0011957205 
 4352000     291.9229   -128.09054   -540.17296    1650.5463   -120.58233   -781.37634 0.0011885362 0.0012023111  0.001195028 
 4354000    293.90698   -128.43911   -468.92141   -110.26248    779.55362   -316.54145 0.0011880044  0.001201331 0.0011946619 
 4356000    308.28499    -128.4891    1643.2119    613.66652   -599.88242   -989.84399 0.0011874331 0.0012008629 0.0011940916 
 4358000    312.44525   -127.88149    293.69425     696.2457    -866.1781    1104.3686 0.0011870067 0.0012003655 0.0011936324 
 4360000    329.66211   -128.21791    2071.7823   -1070.0129   -1321.9738   -536.10184 0.0011864478 0.0012002172 0.0011939473 
 4362000    268.79297   -127.87829   -43.650349   -2203.9843   -1481.8327   -157.81378 0.0011863129 0.0011997772  0.001194226 
 4364000    286.90792   -127.89752   -972.20986   -292.87788    863.46452    2892.9641 0.0011861971 0.0011992239 0.0011938874 
 4366000    264.08199    -127.7975   -586.02225   -1073.0966    1455.6544   -76.678623 0.0011856798 0.0011986043 0.0011936845 
 4368000     330.9504   -128.21949   -3276.5302   -1142.1501    1155.1035    3370.1447 0.0011853164 0.0011979171 0.0011930634 
 4370000    306.32658   -127.26977    958.02075    508.55513    2868.4563    497.87726 0.0011851461 0.0011974524 0.0011928796 
 4372000    290.68521   -127.14001   -1271.7116     3269.167    1762.4724    31.355732 0.0011845692 0.0011968094 0.0011922907 
 4374000    302.85396   -127.20658   -1758.0648    1390.6718   -640.59528    656.70182 0.0011845351 0.0011962089 0.0011928033 
 4376000    327.94972   -127.83064    847.96024    2742.9634    993.86457   -512.55167 0.0011841652 0.0011954716 0.0011920919 
 4378000    285.93468    -128.1008   -2059.1719    -1197.058   -1761.7828    284.40514 0.0011842293 0.0011962609 0.0011915273 
 4380000     283.8994   -127.51993    1612.2342   -1322.9299   -4486.8892    -1619.767 0.0011842373 0.0011979563 0.0011911794 
 4382000     298.9933   -127.56104    212.06676   -286.47803   -657.98273   -780.67144 0.0011836262  0.001198448 0.0011913969 
 4384000    317.18544   -127.50016    790.93841    212.55543   -1980.9356    129.18589 0.0011834132  0.001198481 0.0011903264 
 4386000     308.5372   -127.56439    1895.5085    1473.7145   -25.622311   -2003.3334 0.0011835606 0.0011976168 0.0011903371 
 4388000     278.1719   -127.41302   -671.47556   -324.83352   -2716.4434    144.73568 0.0011831733  0.001197153  0.001189579 
 4390000    295.02092   -127.25947    1694.7708   -779.50371    1972.6268   -346.14785 0.0011827304 0.0011967239  0.001189736 
 4392000     297.7531   -127.61438   -1519.4182     298.0246    1923.0042    38.073045 0.0011827177 0.0011965265 0.0011899947 
 4394000    271.48808    -127.6313   -1690.1028    245.35709   -376.01165    3637.1835 0.0011845506 0.0011965235 0.0011895547 
 4396000    270.54201   -126.94608    47.822279   -989.72803    687.26882    789.03263 0.0011850838 0.0011967073 0.0011891696 
 4398000    301.33312   -128.70828   -1821.2738    36.336555   -2551.1272    2122.8382 0.0011867106 0.0011965956  0.001188787 
 4400000     301.0112    -127.5591    632.02293   -1724.3188    824.94146   -2769.8344 0.0011871302 0.0011960694 0.0011883631 
 4402000    304.59656   -126.96937    531.28156    366.64754   -1746.9568   -2306.4519  0.001187861 0.0011963768 0.0011880601 
 4404000    325.99659   -127.81769    1057.9115    50.125768   -1140.4613   -1192.3273 0.0011875708 0.0011957641 0.0011874414 
 4406000    315.90219   -127.90486    651.65429    788.42915    1561.6485   -3502.1568 0.0011873101 0.0011951869 0.0011868624 
 4408000    323.07138   -127.66675   -563.20465    267.69002   -1375.6979    1129.1468 0.0011869238  0.001194781 0.0011865843 
 4410000    334.70066    -127.0459    795.90256    4280.2768   -984.91146    73.884105 0.0011871484 0.0011942464 0.0011864806 
 4412000    292.10524   -127.95709   -1078.9068    1605.8724   -2345.7769    946.89264 0.0011868415 0.0011937304 0.0011858619 
 4414000    315.91573   -128.31578    258.36061    873.12434   -1202.5142    3481.7997  0.001188204 0.0011932056 0.0011854245 
 4416000    312.83021   -127.62023    506.93176    3892.5848   -3370.2902    273.84235 0.0011873153 0.0011945119 0.0011858269 
 4418000    292.50094   -127.92381   -1171.4614   -3155.6271   -1838.5197    2096.7477 0.0011869156 0.0011931833   0.00118655 
 4420000    309.97823    -127.6006    190.13684    -831.6645    344.49574   -1256.6343 0.0011869959 0.0011927292 0.0011889794 
 4422000    280.40857    -127.7409   -877.88854   -555.69739    829.66994   -1132.6521 0.0011866381 0.0011928026 0.0011900036 
 4424000     320.1309   -128.06727    -888.2117    294.85575    2118.8329   -588.98764  0.001185992 0.0011924797 0.0011906627 
 4426000    252.89197    -127.8644   -1157.2832   -830.39933    432.11663    179.98888 0.0011874905  0.001192041 0.0011905039 
 4428000    323.50106   -128.06697    194.59306    438.40536     1474.454    1471.5746 0.0011868678 0.0011914605 0.0011902562 
 4430000    303.13846   -127.30795     1520.759    1756.3507   -2546.2957   -72.365279 0.0011864447 0.0011911731 0.0011909511 
 4432000    310.46831    -127.2194    974.16486   -741.95665   -1528.9624    1658.2048 0.0011858826 0.0011907473 0.0011922019 
 4434000     279.9945   -127.24221    1024.4167     2650.268   -1788.5917    -333.6255 0.0011857744 0.0011904062 0.0011922035 
 4436000    270.11987   -127.33183   -287.22763    1134.7103   -535.75348    -2138.511 0.0011856805 0.0011922014 0.0011920778 
 4438000    295.31542   -127.65515   -2113.2489    2059.1455    762.72402    1615.5944 0.0011861587 0.0011923517 0.0011917252 
 4440000    338.55774    -127.4258   -1233.8301    -229.2737   -602.43883   -1337.6007 0.0011856081 0.0011918004 0.0011913827 
 4442000    253.96022   -127.99785    -2234.001    389.54286   -558.89364    1388.0738 0.0011863785 0.0011918631 0.0011911476 
 4444000    291.91436   -127.89767   -87.324447    524.17373   -490.87322      1298.12 0.0011882654  0.001192513 0.0011905247 
 4446000    290.80347   -127.76997    1174.9261   -1764.6448    1070.7787     2325.914 0.0011886829 0.0011927022 0.0011900025 
 4448000    308.99686   -127.70176   -567.37767   -2104.7999    867.14954    1989.0234 0.0011883608 0.0011925959 0.0011899035 
 4450000    308.52356   -128.19335    313.40313   -2298.3703     571.1451    83.113557 0.0011881426 0.0011939434  0.001190001 
 4452000     299.2535   -126.61905     417.2985   -120.27997    1786.5792   -1753.0775 0.0011874673 0.0011939475 0.0011906724 
 4454000    316.45557   -127.52695    539.54773   -702.78433    -113.7249   -375.54195 0.0011869663 0.0011938015 0.0011935273 
 4456000    314.98981   -127.41871    260.34168   -2000.0631    236.83864    410.36357 0.0011867409 0.0011932404 0.0011944345 
 4458000    296.24706   -127.27273   -646.10803    -2587.766    2594.7202    1001.7266 0.0011874933 0.0011931117 0.0011959387 
 4460000    303.96974    -127.9045     160.2863    -867.3756   -932.32839    1878.5042 0.0011878787 0.0011927709 0.0011986578 
 4462000    321.33708   -127.40159   -1715.7256   -2327.2787     135.1187    2574.8702 0.0011873712 0.0011922175 0.0011980455 
 4464000    290.55963   -127.69447   -1319.5127   -1026.1564   -1365.7556   -254.14476 0.0011868433 0.0011921748 0.0011978625 
 4466000    280.97795   -127.56044   -2026.0995   -538.71941     2025.607    1487.7818 0.0011863213 0.0011949726 0.0011992437 
 4468000    324.19024   -128.01758   -1124.4052    703.19171    3100.3403   -50.197807 0.0011874006 0.0011969279 0.0012006339 
 4470000    280.86043    -128.1029    564.47506    968.83807   -459.16722   -139.84415 0.0011875259 0.0011968704 0.0012004907 
 4472000    315.93733   -127.20264   -27.750437    636.52799   -2174.8365   -662.17928 0.0011870016 0.0011971077 0.0012000018 
 4474000    305.78424    -127.4584     1016.905    827.80319   -1012.8523    248.93341 0.0011875139 0.0011967512 0.0011996554 
 4476000    305.74277   -127.07666    642.83243    217.63703   -558.81607   -1757.0358 0.0011872456 0.0011963699 0.0011999782 
 4478000    291.99632   -128.14291   -967.20116   -1220.1702   -399.49119   -2677.7994 0.0011867919 0.0011959161 0.0011999432 
 4480000    284.80945   -128.81419   -64.433051   -1581.5575   -748.61664   -390.74597 0.0011862942 0.0011953506 0.0012000411 
 4482000    291.86679   -127.34609   -1164.2302    -325.2758    770.32395   -1120.6893 0.0011861124 0.0011954882 0.0011995194 
 4484000    295.89624   -127.23382    1463.4407   -1232.5912   -394.85359    596.34382 0.0011856379 0.0011950529 0.0011989246 
 4486000    304.99298   -127.90948   -769.51979   -404.05119    -2079.917    455.24635 0.0011852127 0.0011948557 0.0011983256 
 4488000    299.48535    -127.6911   -702.86056   -787.92593   -1104.2297    2604.6365 0.0011848014 0.0011943487 0.0011977396 
 4490000    280.96828   -128.05367   -300.56629    1979.5249   -979.74663     2021.072 0.0011843178 0.0011936967 0.0011973282 
 4492000    254.57738    -128.2511   -1562.1161   -10.297608    875.75619    2048.1765 0.0011842779 0.0011943302 0.0011975274 
 4494000    309.48284    -127.2166    383.25449    1410.4691   -1484.1852    2103.3793 0.0011840224 0.0011951498 0.0011978214 
 4496000    310.56886   -126.75042   -1004.3826    1885.9587   -576.66839   -1897.6574 0.0011837269 0.0011957388 0.0011974214 
 4498000    279.37202   -127.49351    116.14849    1189.2977    2125.4373    1134.0445 0.0011835665 0.0011962833 0.0011970765 
 4500000    282.23859   -127.91871   -202.13193   -662.19554    1588.1796    -102.7633 0.0011840384 0.0011958309 0.0011967573 
 4502000    288.54495   -127.80302   -136.52326   -126.23441    2152.6113    1044.4262 0.0011835613 0.0011967335  0.001196988 
 4504000    298.27162   -128.38708    985.88665   -659.62154    1685.2356   -2228.0656 0.0011829794 0.0011979871 0.0011974441 
 4506000    298.12302   -127.55677   -290.16504    271.03512    436.45665   -1254.8772 0.0011826135 0.0011974798   0.00119896 
 4508000    302.74335   -127.65322    579.86852    3148.8653    1047.0257   -90.274454 0.0011822366 0.0011987175 0.0012009041 
 4510000    313.14415   -127.36281    1452.6946    2111.6242    373.79349   -2940.6903 0.0011822748 0.0011994587 0.0012045061 
 4512000    282.91581   -126.65732    431.83947    1164.7346     626.2015    1697.9237 0.0011819887  0.001200326 0.0012067146 
 4514000    285.07561   -127.20223    1299.4164    2055.2976    1002.8253    2303.1274 0.0011813745 0.0012026684 0.0012060437 
 4516000    310.51605   -126.81063   -1556.2302    9.5226187   -2003.4678    2204.6285 0.0011807566  0.001202381 0.0012078747 
 4518000    271.95547   -128.04381    -1182.886    271.46061   -2350.5041    1966.3609 0.0011800734 0.0012021486 0.0012082102 
 4520000    308.12226   -128.11905   -1731.0749   -1878.5088   -2025.5489   -496.34566 0.0011794776 0.0012018114  0.001207866 
 4522000    282.73457   -127.66567   -2758.3391   -1982.8274   -1414.1691    1617.2202 0.0011793206 0.0012016842 0.0012072965 
 4524000     281.2434     -127.889   -434.96487   -9.4081344   -23.248412   -2542.4512 0.0011790742 0.0012027483 0.0012068193 
 4526000    304.33599   -127.57391   -1336.1988   -3654.1354   -1657.4065   -2151.1074 0.0011785981 0.0012024733 0.0012062859 
 4528000    322.05344   -127.03685    2535.3027    866.34191   -2117.5402    1103.3572 0.0011790819 0.0012020541 0.0012058687 
 4530000    280.42034   -128.12831    620.36999   -1235.7927   -1333.2898    454.79475 0.0011783697 0.0012016842 0.0012050577 
 4532000    307.18888   -128.16224    412.34031    485.14389     -4626.56    4002.1094 0.0011779843 0.0012012958  0.001205557 
 4534000    304.91838   -128.06669    1713.8085    120.34092   -3099.6349    2544.2372 0.0011775211 0.0012006824  0.001205593 
 4536000    294.55832   -128.11675   -2783.9284   -887.13335   -1988.9077    3217.9559 0.0011769669  0.001200238 0.0012059807 
 4538000    312.91855   -127.50868    843.65726    878.52273   -1909.8942    1388.1559 0.0011770061 0.0011998232  0.001204919 
 4540000    339.55317   -128.10503   -1674.3273    774.84416    2826.3188   -667.69911 0.0011770433 0.0011990818 0.0012046086 
 4542000    298.45431   -127.33643   -1742.8514   -2078.2761   -611.34859    1549.1177 0.0011771891 0.0011983541 0.0012039698 
 4544000    309.49287   -127.88988     1251.658   -1320.5046    2289.3031   -3075.7799 0.0011765018 0.0011979179 0.0012035485 
 4546000    302.67494   -128.28206   -3580.3254   -68.670711    1133.3041    -2557.051 0.0011762527 0.0011973089 0.0012038678 
 4548000     288.1392   -126.98764    1728.9053   -2248.3602   -1188.3402   -125.58141 0.0011769319 0.0011964921 0.0012040221 
 4550000    311.88722   -128.06638    -1962.498    267.74398     3336.928    -734.0975 0.0011763579 0.0011959042  0.001204255 
 4552000    277.32031   -128.25321   -1351.4648    422.65807   -562.91475    2289.6218 0.0011772914  0.001195462 0.0012037803 
 4554000    284.76393   -127.54022    2824.4238   -780.30789   -565.03714    339.42679 0.0011767677 0.0011950834 0.0012031939 
 4556000    298.12436   -127.91345   -2105.6047    870.18139    1106.1721    2432.4281 0.0011764258 0.0011946715 0.0012028906 
 4558000    301.11272   -127.63103    2829.0841    60.277407   -3808.3956    2717.5855   0.00117611 0.0011945114 0.0012024356 
 4560000    290.72659     -126.503   -954.30235   -502.06216    893.47085    350.76723 0.0011758155  0.001193749 0.0012017738 
 4562000    316.68843   -127.43818   -1875.0281   -840.88471   -2214.5676    100.33812 0.0011754753 0.0011931217  0.001201762 
 4564000     306.5489   -127.16328    1296.0723   -1192.7691    30.263343   -2265.3403 0.0011750021 0.0011934497 0.0012037373 
 4566000    265.57054   -127.22688   -2889.1437   -1176.2024    4134.6534   -687.38917  0.001175406 0.0011939749 0.0012032398 
 4568000    301.02121    -127.9175    2324.2891    2670.7398   -1669.7715   -3578.6061 0.0011758085 0.0011940749 0.0012026759 
 4570000    270.10806   -127.98885   -1020.4182   -23.233792    2523.6517   -1479.4629 0.0011754608 0.0011936285 0.0012020802 
 4572000    333.00346   -127.26021    177.81995   -496.81678   -447.31021   -733.27724 0.0011756649 0.0011932345 0.0012020061 
 4574000    277.26554   -127.95136     1616.743    1559.4382    255.65136    137.79802 0.0011750173 0.0011927242 0.0012016173 
 4576000     285.2693   -128.49438   -4572.5982   -1492.7335   -110.39437    866.23695 0.0011748806 0.0011926308 0.0012010394 
 4578000    310.86694   -127.80312    2149.6503    379.93879   -2664.8674   -542.23376 0.0011744367 0.0011919626  0.001200634 
 4580000    283.55344   -127.03138   -1606.1845     -1321.92   -750.62197     2646.218 0.0011745999 0.0011918121 0.0012001794 
 4582000    296.03141   -127.42377    11.718688   -375.10775   -3063.6963    88.427589 0.0011754068  0.001191589 0.0011995427 
 4584000    280.39369   -127.75682    2158.2413    394.15812    39.248181    1312.6775 0.0011767151 0.0011910792 0.0011989038 
 4586000    275.96396   -128.52698   -2639.1399   -2755.1682    1577.1692   -406.90969 0.0011760146 0.0011907836 0.0011981005 
 4588000    307.25581   -127.88139    1734.0302   -356.00537   -939.91931   -459.64391 0.0011757259 0.0011902414 0.0011977398 
 4590000     267.5342   -127.89663   -3170.0499    154.32815    3284.8851    565.17956 0.0011754787 0.0011896958 0.0011971378 
 4592000     311.0469   -127.81743   -1406.7001    -2273.892   -1106.7375    132.24617 0.0011761154 0.0011891648 0.0011967253 
 4594000    280.62932   -127.44426    627.49892    641.13181    857.76831    791.70139 0.0011762366 0.0011888629 0.0011963453 
 4596000    290.47352   -126.84026   -1692.1537   -997.93128   -445.91878    191.75951 0.0011760456 0.0011882304  0.001196111 
 4598000    314.67679   -128.13903    2098.4992    654.00094   -1662.3839    1767.5571  0.001175745  0.001187799 0.0011961757 
 4600000    319.29396   -128.83055   -1037.3262    494.64137    564.73113    1228.8674 0.0011760233 0.0011872377 0.0011961698 
 4602000    301.10785   -128.41575    355.90804   -636.10878   -1755.7917    314.35838 0.0011755884  0.001186663 0.0011960847 
 4604000     286.4914    -127.9944   -298.05146    1304.5726     2872.629    889.73966 0.0011751235 0.0011862596 0.0011959728 
 4606000    273.53307    -127.3903   -1566.1597    2709.7524    3447.5085    558.61857 0.0011746773 0.0011868082 0.0011955386 
 4608000    277.53103   -127.34177    671.02594    1775.6085    1554.8053    522.63621 0.0011747815 0.0011860651 0.0011956328 
 4610000    324.46385   -127.95129   -1348.5659   -2850.7848    36.783549    744.90719 0.0011742568 0.0011858049 0.0011946712 
 4612000     323.3502   -127.77627    44.004003   -1251.7487    335.70745    -288.8983 0.0011741402 0.0011850852 0.0011954224 
 4614000    282.39409   -127.63371   -405.74773   -367.44705   -143.07676    750.57569 0.0011737356 0.0011845741 0.0011952308 
 4616000    307.83472   -127.58736   -2086.8095   -1508.8344    1093.3275     68.23374 0.0011736738 0.0011841676 0.0011948281 
 4618000    307.38059   -128.28402   -709.00645   -1975.5282   -772.25897     1988.492 0.0011729103 0.0011837617 0.0011944939 
 4620000    320.40685   -127.16144   -2966.1127   -1827.7426   -2386.6449   -904.75815 0.0011723258 0.0011833603 0.0011946676 
 4622000    288.00087   -127.49085   -1040.8179    3008.4509    372.94401   -989.41438 0.0011716993 0.0011828429 0.0011954152 
 4624000    289.99723   -127.70335     326.3945    1376.8106   -393.76491    330.17702 0.0011710086 0.0011829733 0.0011952527 
 4626000    272.13799    -127.3041    36.773348   -357.29392    3874.1022   -493.83183 0.0011705965 0.0011820452 0.0011953826 
 4628000     310.2318   -128.24929    2505.1275   -775.34814    1029.8037    1312.0238 0.0011724229 0.0011821553 0.0011950313 
 4630000    291.28509   -128.12255    -909.4325    29.794197   -398.63899    36.534232 0.0011728272  0.001181245 0.0011945788 
 4632000    308.81287   -127.48627     718.9246    1840.6033    3258.9216    2707.2075 0.0011725633 0.0011809333 0.0011948345 
 4634000    276.63639   -127.28413     -43.4803   -1053.7762   -2508.9761    2682.6483 0.0011720729 0.0011806864 0.0011942419 
 4636000     289.3015   -127.97989   -1943.1644   -827.37176   -693.20681     244.5979 0.0011716018 0.0011804249 0.0011940827 
 4638000     307.6563    -127.5736    1279.1411   -2382.6722   -169.03701    2402.2122 0.0011712416 0.0011798887 0.0011937383 
 4640000    306.19242   -127.46632   -1880.7617   -2834.4262   -508.16363   -3247.1437 0.0011717948 0.0011793268 0.0011931878 
 4642000    306.70387   -127.59676    1347.4492   -1559.2796   -385.37773   -2198.5483 0.0011735102 0.0011788705 0.0011934394 
 4644000    270.82265   -128.01327   -836.81731   -3728.3999    204.71424   -1480.6759 0.0011741135 0.0011784872 0.0011928357 
 4646000    306.01077   -126.87625   -2269.5496   -1838.6516    2043.6864    -2111.275 0.0011746129 0.0011779022 0.0011924442 
 4648000    286.59204   -128.23505    -17.29711    179.21291   -181.28005   -863.72558 0.0011737123 0.0011774243 0.0011949855 
 4650000    328.76028   -127.14929   -2240.4624   -787.36113    1824.2308   -450.11272 0.0011729653 0.0011771166 0.0011947907 
 4652000    285.15908     -128.434    1122.4981     1518.631    2324.9588   -1065.6501 0.0011725639 0.0011772981 0.0011944337 
 4654000     286.9093   -128.25887    -75.71649    1581.7257     2077.792   -370.36215 0.0011725823 0.0011766795 0.0011946551 
 4656000    288.00931   -127.75326   -625.50288      3404.92     402.3116   -157.16968 0.0011720458 0.0011772117 0.0011943985 
 4658000    304.26101   -127.97091    2102.6223    3208.8821   -2357.8112    298.25979 0.0011718968 0.0011772105 0.0011939602 
 4660000    264.38851   -127.19807   -1495.2905    483.22863   -3796.3664   -2242.6195 0.0011714697 0.0011769056 0.0011935578 
 4662000    312.78706   -127.89997    57.412252    748.96256    435.69318    2254.1717 0.0011715038 0.0011764486 0.0011939316 
 4664000    309.65342   -127.00361   -1062.3191   -2463.4257    748.01388   -1441.5248  0.001171771 0.0011763272 0.0011936848 
 4666000    308.97246   -126.62845   -1470.7332   -1104.7501    832.71513     1580.924 0.0011712214 0.0011754738 0.0011940676 
 4668000    325.66283   -127.48598    719.22523   -2022.9464    76.799978    728.22837 0.0011709205 0.0011750793 0.0011934877 
 4670000    306.30285   -128.28226     -1685.62    735.38647    2416.2678    -723.6089 0.0011704562 0.0011746505 0.0011934051 
 4672000     294.6678   -128.30491   -141.91633    565.85991   -227.90303   -495.09953 0.0011700571 0.0011741477 0.0011930116 
 4674000    279.24487   -127.80077   -491.82893    837.72583    2652.2125   -563.63001  0.001169513 0.0011737068 0.0011929853 
 4676000     288.7464   -127.30046   -1304.5586    3923.6388    993.78737    286.03578  0.001169009 0.0011731889 0.0011923914 
 4678000     281.9172   -127.62979    206.49354    -99.09035    1508.3645    100.47059 0.0011707052 0.0011731252 0.0011926727 
 4680000    311.51192   -126.94382   -2091.4902     612.3595    -2495.972   -85.202794 0.0011713455 0.0011733017  0.001192318 
 4682000    309.59772   -127.12756    150.26957    2011.2761    2348.2774   -2292.2434 0.0011728067 0.0011729708 0.0011918938 
 4684000    286.95121   -127.83461   -776.01969   -1862.8309    34.455862   -1667.5043 0.0011732131 0.0011725293  0.001191581 
 4686000    284.29193   -128.20505   -17.544995   -940.85151   -653.25483    311.46078 0.0011746025 0.0011721096 0.0011910112 
 4688000    324.19162    -128.0884     237.1958   -503.51829    2135.5459    633.16287 0.0011747458 0.0011721561 0.0011905954 
 4690000     313.3952   -127.52092     -477.897    -1458.401   -1247.9686   -479.75704 0.0011747771 0.0011740676 0.0011900805 
 4692000    318.05483   -127.12836    711.99373    202.96836     1852.391    1224.3614 0.0011744315 0.0011751865  0.001189538 
 4694000    294.73785   -127.13138   -545.16219   -1914.1644   -1130.7657    2209.6161 0.0011743534 0.0011774075 0.0011889988 
 4696000    316.56143   -126.81863    95.470121    192.56272    183.97695    2048.9905 0.0011738138 0.0011779095 0.0011887299 
 4698000     266.8832    -127.0788    92.246924     349.8809     -210.238   -143.30319  0.001173347 0.0011787432 0.0011887884 
 4700000    309.44565   -126.61853   -922.57412    766.30966   -1682.1026   -413.63239 0.0011728372 0.0011792371 0.0011883275 
 4702000    297.57528   -126.59793    1205.9006    4948.9697    1112.3635   -1749.8024 0.0011722035 0.0011785224 0.0011890306 
 4704000    334.66208   -127.56125   -1939.7607   -102.23403    24.508001   -2140.2288 0.0011719509 0.0011788925 0.0011904905 
 4706000    280.26524   -127.88178   -525.67356    574.14378    2356.0493   -871.98891 0.0011713657  0.001178786 0.0011920245 
 4708000    278.02825   -127.54061   -1301.1061   -384.60179   -2005.0439    -1411.865 0.0011709039 0.0011784554  0.001191362 
 4710000    319.46002   -127.65146   -1834.0298    1244.4726   -2469.8885    235.79474  0.001170527 0.0011793175 0.0011913611 
 4712000      309.152   -127.62014    456.76907   -2294.1282    2107.3907   -1174.1199  0.001170143 0.0011788232 0.0011915079 
 4714000    280.76344   -127.80397   -1256.7781    693.35077    1072.7233   -243.46568 0.0011700469 0.0011785607 0.0011915553 
 4716000    335.73601     -127.123    920.21471    1112.9198    594.74137    2416.4076 0.0011698508 0.0011779642 0.0011918813 
 4718000    293.36871   -127.91476   -103.18409      1625.38   -6.1383027    184.34945 0.0011702619 0.0011775024 0.0011913062 
 4720000    309.65966   -127.53896     -363.305    1936.9312    -254.9625    1443.6818 0.0011698197 0.0011770831  0.001191309 
 4722000    307.50056   -128.25705    380.25148    2091.7637    2075.6714   -7.3766083 0.0011695422 0.0011765521 0.0011910499 
 4724000     298.2087   -127.30309   -150.74039    561.45761    159.13313   -632.39152 0.0011717094 0.0011761149 0.0011909104 
 4726000    289.27362   -127.76829   -29.066452    2297.7787    2454.6144   -1292.8504 0.0011717936  0.001175633 0.0011904648 
 4728000    282.39789   -127.78532   -737.29357   -745.15095   -2041.4872   -358.13382 0.0011713506 0.0011761037 0.0011904055 
 4730000    280.38174   -128.04829    -1659.336   -1382.8536   -1628.5139   -475.48195 0.0011711487 0.0011758685 0.0011900114 
 4732000    331.14972   -128.09599   -1029.1922   -710.05697   -1133.9897   -1607.8226 0.0011717485 0.0011754956 0.0011895155 
 4734000    327.36617   -127.33497    -2451.105   -830.27239    537.84217    1955.3271 0.0011717672 0.0011757237 0.0011890414 
 4736000    313.29298    -127.1811    37.982058    878.86858    2076.4008   -2696.2046 0.0011711691 0.0011752744 0.0011887481 
 4738000      303.212   -127.78772   -849.90947    1628.9463    -958.8711   -336.69734 0.0011707111 0.0011749577 0.0011881225 
 4740000    295.84643   -128.07093   -301.85744    1811.2403   -1084.4426   -1020.6374 0.0011702031 0.0011743307 0.0011875338 
 4742000    290.14815   -127.53104    1002.2386     1001.185    2068.2763   -1370.3131 0.0011699613 0.0011738745 0.0011869995 
 4744000    302.34386   -127.74984   -73.086658   -1453.5316     771.4906    148.37975 0.0011698282 0.0011737911  0.001186746 
 4746000    271.77238    -127.2922    238.31002    959.34668    166.50435    697.29713 0.0011710178 0.0011735498 0.0011867408 
 4748000    249.14507   -128.30787   -436.30781   -899.19519   -1766.0043    3647.9472 0.0011727973  0.001173284 0.0011867963 
 4750000    270.84279   -127.84394   -597.73657    1521.3629    129.72502   -362.34638  0.001173988 0.0011726862 0.0011867401 
 4752000    276.14036    -127.7945   -1432.1693    1860.7205   -1983.4082    1853.2321  0.001173855 0.0011736203 0.0011877747 
 4754000    284.69975   -127.77811    -739.5416    3256.7931   -4071.0989    2672.9765 0.0011740732 0.0011738489 0.0011876948 
 4756000    305.47307   -127.03772    138.69945    2776.5714    4039.1401    -1760.563 0.0011736145 0.0011734285 0.0011872985 
 4758000    298.76826   -126.40866    392.25998    1276.7384     984.5412    3285.4065 0.0011732749 0.0011731069 0.0011870126 
 4760000     308.3852   -127.10314    146.66707    287.62396     4616.002    950.29742 0.0011729011  0.001172619 0.0011869663 
 4762000    290.46268   -127.31987   -104.61138   -1410.6123    1892.0703    34.705716 0.0011725318 0.0011731096  0.001186395 
 4764000     352.4714   -127.62358   -931.23168     86.61112   -435.60035    1441.1345 0.0011719225 0.0011732776 0.0011859773 
 4766000    288.15885   -127.06804    652.61147   -1964.4678    420.02111    -2053.178 0.0011715118 0.0011749652 0.0011867973 
 4768000    299.62319   -128.33539   -630.51058    -3133.479    1250.7896   -585.08583 0.0011709799 0.0011763519 0.0011876403 
 4770000    273.94148   -127.91646    63.734501    783.75571    984.73698   -1158.1945 0.0011706093 0.0011756997 0.0011871964 
 4772000    330.28381   -127.45593     527.0618   -747.50648   -2130.7809     534.4521 0.0011700615 0.0011753458 0.0011868344 
 4774000    291.33078   -126.90778    92.472128    2993.2977   -575.46321    2795.0867 0.0011696129 0.0011749452 0.0011864407 
 4776000    281.02457   -127.56005    99.262696   -340.17443    -766.6533     483.8099 0.0011694977 0.0011743759 0.0011859286 
 4778000     299.4542   -127.32822   -560.75717    1295.2905     1233.453    1649.4936   0.00116925 0.0011740438 0.0011858327 
 4780000    337.93971   -127.66154   -1447.3595    1207.2872    1689.2099   -268.81827 0.0011685863  0.001174302 0.0011855087 
 4782000    302.54135   -127.49865    502.40839   -2906.8273   -865.90133    2050.4537 0.0011683028 0.0011765043 0.0011850179 
 4784000    296.16636   -126.50557   -443.38803    5852.4734    1557.8685    123.86286 0.0011681183 0.0011763805  0.001184571 
 4786000    281.91626   -126.70352    407.30717   -2461.6317    366.14772   -1968.1047 0.0011676003  0.001176187 0.0011844636 
 4788000     264.5472   -127.49094    286.92348   -1739.7114   -2827.2435   -482.12779 0.0011671869 0.0011756109 0.0011844625 
 4790000    308.61052   -127.65197   -1203.3818   -21.281277   -215.96702    -1586.873 0.0011669708 0.0011750894 0.0011840736 
 4792000    311.78867   -127.42687    1863.5276   -3090.6103   -2366.8634    2848.1856 0.0011665639 0.0011753069 0.0011835489 
 4794000    312.52722   -127.65031   -1051.4573    1156.1221    1346.5552   -469.82728 0.0011661684 0.0011746581 0.0011835834 
 4796000    313.44646   -127.59978    625.01232   -1236.2848    -1864.012    1501.3928 0.0011657237  0.001174309  0.001183672 
 4798000     292.0348   -127.18418    984.77054    663.24867   -879.59578    2173.3748 0.0011665566 0.0011739195 0.0011838529 
 4800000    308.67328   -127.59967   -677.08515    3100.8385    237.04595     375.3377 0.0011676271 0.0011738903 0.0011845118 
 4802000    260.98922   -127.61706    1331.3912   -2162.0422   -379.71856     3814.337 0.0011673399 0.0011728569 0.0011845368 
 4804000    275.87007   -128.08976   -2649.3494    721.07971    228.92847   -1447.3505 0.0011673497 0.0011724439 0.0011845417 
 4806000    283.10439   -128.11051   -1561.2684   -840.77594   -1905.3686    842.37723   0.00116744 0.0011720226 0.0011845277 
 4808000    301.99358   -127.57937   -1949.9868   -1201.9775   -410.36225    1909.4931 0.0011671914 0.0011717935 0.0011842392 
 4810000    297.24452   -127.55753   -2257.6736    3584.9228   -427.84525     1026.601 0.0011670025 0.0011714884 0.0011839469 
 4812000    316.91249   -126.78613    1034.7455    176.51639   -1350.1546    1877.8953  0.001166317 0.0011710031 0.0011837014 
 4814000    278.43992   -127.53498   -11.219279     3871.044    2562.5147    -2735.671 0.0011658546 0.0011704763 0.0011833941 
 4816000    271.66733   -127.60636    1743.3508   -1474.3091    1830.3854    2132.3149 0.0011654464 0.0011702361 0.0011830684 
 4818000    312.78454   -127.90102    1014.8614    1569.1814    1556.0357   -1220.3857 0.0011651513 0.0011705098 0.0011826761 
 4820000    290.22606   -127.86765    206.43338   -675.33557   -760.97359     5084.666 0.0011648242 0.0011707814 0.0011828996 
 4822000    346.94824   -127.43209     289.0902   -2498.7568   -811.61807    342.55763 0.0011648521 0.0011702406 0.0011819833 
 4824000     279.9236     -127.891    -1111.669   -1721.1868   -1257.2887    641.86713 0.0011645737  0.001170002 0.0011814199 
 4826000    329.42343   -128.56918   -1136.1101   -2367.9028    647.02696    1568.9796 0.0011667808 0.0011700844   0.00118112 
 4828000    298.31081   -127.43732   -1233.0336   -23.724538   -1789.9506   -4376.7872 0.0011682042 0.0011696026 0.0011808669 
 4830000    296.35897   -128.10568   -1374.0682    735.51603   -326.73466   -923.99737 0.0011690231 0.0011693314  0.001180452 
 4832000    271.48883   -127.83417   -964.10408     2675.943     1179.509   -917.93053 0.0011685795 0.0011695145  0.001182524 
 4834000    267.46779    -126.9514   -505.69647   -407.59872    130.52335    1728.3356   0.00117006 0.0011692434 0.0011824394 
 4836000    339.62806   -128.08528   -525.85791    -1467.392   -631.28571      998.598 0.0011709245 0.0011688161 0.0011829355 
 4838000    297.66591   -127.66138   -6.6267244     3115.433     104.6299   -1740.4079  0.001170484 0.0011691721 0.0011827592 
 4840000    316.35374   -127.61687    139.79827   -398.12668   -3399.9291   -148.79806 0.0011702111 0.0011690499 0.0011823619 
 4842000    296.56135   -128.12097     747.5093     2604.413    568.15279    2795.1054 0.0011697419 0.0011686819  0.001181885 
 4844000    329.50209   -126.87694    781.92162   -1591.3331    2751.3114    153.27172 0.0011696813 0.0011679833 0.0011814539 
 4846000    333.10421    -128.1569    -376.8981   -598.74476   -748.46994    1166.1998 0.0011693719 0.0011677996 0.0011809464 
 4848000    306.25238    -127.0189    -620.5781    1522.2425    2601.8367   -1268.9671 0.0011688975 0.0011672123 0.0011807181 
 4850000    323.87434   -127.69998   -1775.4488   -4542.5896    226.90891    2622.2097 0.0011696038 0.0011675555 0.0011804806 
 4852000    281.34436   -128.12208   -1679.0525    2440.0311    355.75579   -2351.8552 0.0011696466 0.0011673559 0.0011801259 
 4854000    314.81839   -128.21028   -804.04007   -2670.3757     654.6916   -1134.2209 0.0011696096  0.001167007 0.0011801144 
 4856000    301.87028   -128.04138    32.125748   -139.46267   -1292.8727   -258.48553 0.0011690587 0.0011669559 0.0011796081 
 4858000      284.183   -127.85346    406.29342    3903.4497    1090.0065   -3392.1287 0.0011687534 0.0011667932 0.0011790641 
 4860000    275.22069   -127.31418    977.45471   -12.952841   -612.69818    1513.6201 0.0011684456 0.0011669604  0.001178587 
 4862000    296.43984   -127.45537    20.323338    829.86099   -1003.2732   -2429.2912 0.0011679312 0.0011668522 0.0011793486 
 4864000    286.28258   -127.40594    928.61414    802.94944    932.40178    1453.1095 0.0011676071 0.0011663321  0.001180967 
 4866000    318.73666   -127.95192   -1333.7572   -2107.2482   -1339.6448    338.15157 0.0011672761  0.001166345 0.0011821301 
 4868000    327.35906   -127.76207   -95.855357   -345.53111   -530.78905    -2385.711 0.0011667267 0.0011661692 0.0011820761 
 4870000    315.70625   -128.27826   -1105.2277   -3331.4987   -2961.1076   -899.72518 0.0011664357 0.0011656288 0.0011827783 
 4872000    308.10203   -128.11103     -969.521    330.68726   -655.40054   -1755.0644 0.0011663502 0.0011653071 0.0011829361 
 4874000    288.00118   -127.51863   -66.782949    546.23615   -467.62233    1180.4163 0.0011658082 0.0011648307 0.0011823855 
 4876000    290.72946   -127.33848   -1645.6604   -1655.4993    -1723.735    1737.0903 0.0011651724 0.0011648365 0.0011818571 
 4878000    296.01517   -127.62341   -1060.8703    662.09557   -483.63548    1766.3949 0.0011646156 0.0011645866 0.0011819303 
 4880000    329.21883   -126.20201    1048.7115    483.51161   -1689.2581    2389.6123 0.0011641425 0.0011646864 0.0011818014 
 4882000    320.75562   -127.49263    691.77374    1650.1995   -1074.9501   -1682.3396 0.0011636597 0.0011641137 0.0011815003 
 4884000    292.69716   -126.26144    4348.5994    652.77952    211.00234    870.27479 0.0011636139 0.0011636596 0.0011810387 
 4886000    279.65314    -127.7197    954.85602    398.21347   -2741.9364    1804.2589 0.0011631361 0.0011637189 0.0011805735 
 4888000    304.05661   -127.64802    259.65097   -1126.2881    1474.1538   -460.11693 0.0011638031 0.0011666875 0.0011802261 
 4890000    277.70897   -127.43693   -311.87626    1427.8388   -1594.0514   -46.535214 0.0011629562  0.001166009 0.0011797165 
 4892000    301.37724   -127.39075   -2070.1609   -491.56093    1675.8078   -393.82416  0.001163415 0.0011668688 0.0011795824 
 4894000    253.79463   -128.05642   -762.32189   -493.79753    2394.0037    388.34669 0.0011629373 0.0011671445 0.0011794642 
 4896000    310.70889   -128.16646   -2519.9766   -1401.0222    634.11375    660.45186 0.0011635322 0.0011666239 0.0011790836 
 4898000    285.92339   -128.02152   -1082.8436   -843.67025    1867.2232    -2118.216 0.0011649905 0.0011661577 0.0011790318 
 4900000    294.59293    -127.5799     657.8239    470.33874     154.4262    716.58168 0.0011647933 0.0011663802 0.0011780229 
 4902000      324.997   -127.93771   -2136.6059   -519.44615    368.91294    2615.1731   0.00116424 0.0011671962 0.0011774054 
 4904000    337.09787   -127.79909    1092.2501    3203.4974    -2101.307     1843.851 0.0011638317 0.0011668588  0.001177427 
 4906000    265.72138   -126.75735     200.8575    2554.4767   -605.05157    2559.3333 0.0011633973 0.0011664904 0.0011771009 
 4908000    271.73842   -127.45034    13.512033    2467.8148   -969.12848   -2519.0675 0.0011628905 0.0011670753 0.0011764943 
 4910000    312.56011   -126.96654    3029.4876    1907.8348   -543.06668   -1209.7877 0.0011625332 0.0011675206  0.001176228 
 4912000    299.98848   -127.67603   -46.446156    642.86292    905.71833   -402.29936 0.0011623016 0.0011668617 0.0011757521 
 4914000    306.72517   -128.45872    2090.4362    2653.3754   -1152.9456   -836.83646 0.0011620805 0.0011669661 0.0011752612 
 4916000    284.58735   -127.34308   -157.67107    391.41605   -509.94666    581.07996 0.0011618892 0.0011663264 0.0011747257 
 4918000    330.01845   -127.57757   -1426.5566     1199.357   -2222.7612   -564.78743 0.0011617168 0.0011666974 0.0011741716 
 4920000    314.64861   -127.39827   -1581.6753    2953.6894   -3805.5352      1401.68    0.0011623 0.0011669278 0.0011736842 
 4922000    267.04564   -127.69177   -3387.6181   -819.07076   -752.78673   -343.22718 0.0011616861 0.0011677991 0.0011731565 
 4924000     278.3238   -128.30651   -955.75532    3766.3415   -331.51264    1225.2265 0.0011615049 0.0011679144 0.0011725734 
 4926000     306.9916   -127.91827   -1539.0579   -2002.0094     1874.067    2434.6204 0.0011611164 0.0011683397 0.0011722426 
 4928000    360.89056   -128.36894    623.32626    739.08142   -448.23946   -2237.8624 0.0011610223 0.0011690808 0.0011718936 
 4930000    301.24596   -127.42842   -62.996526    328.86989   -223.03636    508.56451 0.0011606617 0.0011695872 0.0011713908 
 4932000    299.40034   -127.18135    -879.9733    -118.1721    896.82704   -146.81161 0.0011604031 0.0011695837 0.0011719994 
 4934000    305.11076   -127.06109    1041.7067   -573.68984    2036.0062    194.72375 0.0011603295 0.0011691055   0.00117284 
 4936000    292.66326   -128.09243   -1254.0139   -1558.4149    763.37529    140.92135  0.001160252 0.0011700258 0.0011731022 
 4938000    294.15589   -126.96837    1720.4958    269.95195     92.72554   -1193.8324 0.0011602165  0.001170748 0.0011734206 
 4940000    282.52226   -127.18918    1224.2024    521.80146    2120.1144   -1776.5969 0.0011601853 0.0011714404  0.001173219 
 4942000    266.35506   -128.36677    51.658784    503.79829   -931.17269    362.15598 0.0011601648 0.0011718831 0.0011731158 
 4944000    285.38549   -128.01501    420.69648    1602.0869     2216.188   -1188.3681 0.0011601304 0.0011721743 0.0011745173 
 4946000     338.1998   -127.25151   -1667.7684   -112.65709   -389.36486   -774.18082 0.0011602774 0.0011730206 0.0011745455 
 4948000    280.30104    -127.0352    404.85794   -44.544114    1018.4686   -705.85007 0.0011600053 0.0011755889 0.0011739679 
 4950000    285.45541   -127.15717   -557.84309   -365.27663    268.33893    -1079.519 0.0011596693 0.0011775158 0.0011738448 
 4952000    327.76828   -127.29525     312.4671    1454.2191   -2860.7836   -2478.4433 0.0011592249 0.0011787746 0.0011733119 
 4954000    256.07772   -127.44151    1479.7858    3186.2959    226.27069    1735.7221 0.0011587504 0.0011806241 0.0011729284 
 4956000    314.25651   -128.28072   -2266.2452   -1621.4337    -775.6071   -1146.2483 0.0011582805  0.001182488 0.0011723827 
 4958000    309.99704   -127.36997    1269.2681    706.58274    376.12779    1715.7065 0.0011584598 0.0011824308 0.0011720407 
 4960000    296.28159   -127.30116   -2193.0303    -2246.232   -1122.6755   -682.10572 0.0011584116 0.0011825215 0.0011715539 
 4962000    281.37342   -127.48058   -542.90419   -2718.5755    825.67798   -280.29886 0.0011579521 0.0011823339 0.0011713787 
 4964000     299.3091   -127.05216    452.60492   -297.15924     3968.991    1419.2205 0.0011578636 0.0011818563 0.0011710452 
 4966000    311.35059   -126.97903   -2038.4606   -1463.6123    219.19146    -173.4024 0.0011573519 0.0011813717  0.001171131 
 4968000    293.09133   -127.56953    1093.7932    795.00435    2055.8688     -191.973 0.0011573759 0.0011808817 0.0011706748 
 4970000    300.24514   -126.95331   -2072.2183    1130.9295    2606.2394    816.63973 0.0011569399 0.0011810808  0.001170375 
 4972000      306.986    -126.6363   -128.75865     3081.924    854.65132    943.87524 0.0011565131 0.0011804151 0.0011703329 
 4974000     318.8229   -127.09424    646.47389    1285.2949   -1318.2877    672.81679 0.0011563667 0.0011802119 0.0011698752 
 4976000    281.49212   -127.25106   -2386.9712   -1489.6039   -611.78844    749.48509 0.0011563402 0.0011806747 0.0011700313 
 4978000     309.9441   -127.63086     2065.941    853.92082    1277.6276    1276.3737 0.0011581803 0.0011811778 0.0011697947 
 4980000    286.79735   -127.29648   -1327.9323    -2947.476    101.46359    1228.8889 0.0011582268 0.0011816985 0.0011692307 
 4982000     298.3273   -127.34607    864.15356    937.83447   -1978.5249    -339.8382 0.0011585136 0.0011810834 0.0011687614 
 4984000    303.97844   -126.97553    990.53259     486.8404    776.38409   -154.36688 0.0011581069 0.0011812868 0.0011685654 
 4986000    312.65359   -126.60815   -2724.0781   -814.97529   -3760.6828    12.642401 0.0011578546 0.0011812573 0.0011684228 
 4988000    302.34206   -126.99313     760.1638    2090.8823   -872.40096   -806.68726 0.0011573593 0.0011807926 0.0011681791 
 4990000    315.45781   -126.95789   -2340.3958   -942.20918   -3480.1769    1640.8164 0.0011586758 0.0011803269 0.0011677378 
 4992000    286.07891   -126.57896    1581.0429    1726.0834   -1627.6053    2279.1428 0.0011593914 0.0011800332  0.001167436 
 4994000    277.38394   -127.65715    1522.0121   -2048.2465   -1272.2878   -942.91491 0.0011589393 0.0011794076 0.0011675067 
 4996000     306.1193   -128.07706    -494.8143   -3001.3959   -126.11836   -565.86558 0.0011586531 0.0011788686 0.0011670716 
 4998000    273.23859   -126.25169    3645.2877   -1139.6964    273.35914   -537.63927 0.0011580359 0.0011785239 0.0011664416 
 5000000    302.53225   -126.92603   -1898.0893    -3602.398   -1317.6811   -1191.8581 0.0011578684  0.001178292 0.0011659342 
 5002000    311.83292   -126.59627    84.716465   -3451.2489    753.81798   -1725.9942 0.0011590104 0.0011781073  0.001166045 
 5004000    311.01851   -127.26886   -1417.4686   -1957.8111   -459.29079    642.98737 0.0011596782 0.0011774227 0.0011654948 
 5006000    266.49474   -127.16257   -3411.5355   -528.35062   -4395.6719    252.10148 0.0011591828  0.001177036 0.0011650133 
 5008000    299.87662   -127.17317    1898.4179   -1020.2654   -1045.7821    329.57741 0.0011590249  0.001177285 0.0011646559 
 5010000    303.26946   -127.89386   -2147.7975    592.72941   -271.56237     2804.771 0.0011592502 0.0011771844 0.0011643291 
 5012000    326.24028   -127.60255    1031.0971    1355.3396    1317.2456   -3032.6384 0.0011597403 0.0011766242 0.0011640013 
 5014000    300.73627   -127.38054    134.58658    1342.9278   -1308.9038    -2595.957  0.001158952  0.001176182 0.0011635291 
 5016000     307.1306   -127.36726   -1198.9943   -150.27547    861.07389   -715.02322 0.0011591982 0.0011762523 0.0011632038 
 5018000    312.23462   -127.53195    1627.3814    2125.2921    1893.9492   -1427.1953 0.0011588471 0.0011773901 0.0011627908 
 5020000    283.58837   -127.72115   -2731.8415    832.87104   -93.046569    1287.7735 0.0011582041 0.0011774575 0.0011623972 
 5022000    338.25651   -127.86902    802.21016    43.968534   -2028.1442    1751.5243 0.0011592212 0.0011786982 0.0011618881 
 5024000    301.79123   -126.99701     646.6607   -1087.1591    2415.3517    914.22318 0.0011610598 0.0011801428  0.001161719 
 5026000    296.00341     -126.908   -261.72173     1267.584    374.35906    1074.4456 0.0011620106  0.001181687 0.0011617159 
 5028000    289.28474    -127.7012    1101.5922    828.08343     1345.272   -1093.3952 0.0011633387 0.0011819626 0.0011612798 
 5030000    268.89963   -127.51724   -3213.8004    1380.9188    1419.8948   -280.96226 0.0011638359 0.0011826306 0.0011611148 
 5032000    291.99159   -127.48663    269.72743     2430.228   -277.84672   -314.42265 0.0011637117 0.0011832804 0.0011615131 
 5034000    328.00677   -127.32831   -1426.3695    1404.8165   -944.81606   -1638.7065 0.0011634978 0.0011829651 0.0011617776 
 5036000    296.69121    -127.6859   -1577.3936    1350.0891     -2921.39    3657.1231  0.001163121 0.0011825792 0.0011615517 
 5038000    315.83817   -127.74612    1914.0577   -1034.9156   -778.20673   -1395.9374 0.0011633055 0.0011827401 0.0011622041 
 5040000    281.38247   -128.05248   -871.41452   -1163.5051   -1147.3621    3392.1063  0.001162923 0.0011832064 0.0011629576 
 5042000    305.96184   -127.69247    2347.9079   -111.07304    1602.7125    703.73086 0.0011624724 0.0011831057 0.0011625131 
 5044000    306.88309   -126.84337    1870.9033    354.84907   -2488.0428   -2519.0346 0.0011620463 0.0011824493 0.0011619999 
 5046000    299.84768   -127.59329    -1208.143    753.20751    632.30198   -820.13793 0.0011620382 0.0011820583 0.0011620386 
 5048000     300.8723   -128.10772    776.05472   -214.74562    1719.4101   -898.41198 0.0011620765 0.0011815384 0.0011630946 
 5050000    319.81455   -127.44092   -3432.3956    162.75575    531.36105   -672.98084 0.0011616389 0.0011810546 0.0011652568 
 5052000    313.50864   -128.46101   -166.09923    510.47756   -1003.6818    317.02193 0.0011612054 0.0011807298 0.0011700841 
 5054000    291.11027   -127.71451    5.5482633    1765.8776   -793.25634   -204.56465 0.0011616293 0.0011802416  0.001170952 
 5056000    301.66947   -126.81344   -1514.7915    493.47369    -1503.565    2827.0681 0.0011616732 0.0011799104 0.0011732483 
 5058000    313.96341   -128.31294    1828.9136    712.37268    604.44358    775.87695 0.0011614132 0.0011794999   0.00117457 
 5060000    300.94997    -128.5046   -3565.3875   -1197.3902    19.039676   -367.00393 0.0011609548 0.0011790717 0.0011747483 
 5062000    311.84389   -127.63374   -273.22577    408.04586    1005.3205    1930.0912 0.0011609439 0.0011786142 0.0011745493 
 5064000     307.1152   -127.00203   -167.55824   -2431.9476   -461.75755   -578.16402 0.0011603892 0.0011782549 0.0011746193 
 5066000    283.96453   -127.49266    -2776.999   -536.58236   -1525.8032    86.791733 0.0011598758 0.0011779249 0.0011752616 
 5068000    263.90557   -128.07706    2289.9712    1476.6961   -1493.1875    -2059.203 0.0011593895 0.0011779869 0.0011748954 
 5070000    287.26832    -127.3443   -2251.2706   -708.31581   -1269.1259    1532.5629 0.0011594152 0.0011777377 0.0011760105 
 5072000    280.18585   -127.25516    1971.9856     334.1725   -1600.3718    1455.4831 0.0011593777 0.0011774073 0.0011789886 
 5074000    327.25676   -128.28044    -43.99493   -115.05943    1107.9856   -970.75856 0.0011587756 0.0011775442 0.0011780528 
 5076000    320.06416   -127.19087   -2885.2201    2950.2901    1684.7259     1978.136 0.0011586351 0.0011780383 0.0011775704 
 5078000     254.1175   -127.84367    2258.4633   -915.29494    1569.8446    729.64103 0.0011583017 0.0011774767 0.0011772529 
 5080000    314.40447   -127.83017    -2255.727   -1631.3914    1676.7686    1002.6757 0.0011585654 0.0011770696 0.0011769514 
 5082000    286.64795   -127.10049    2434.7985    2153.6479   -290.31405     1180.503 0.0011606577 0.0011767309 0.0011764402 
 5084000    282.60645   -127.00644    2486.0816   -1738.3496   -612.69722    1045.2693 0.0011637716 0.0011764076 0.0011759338 
 5086000    310.13296   -127.44058   -777.73847    3429.2552    1383.4377    1975.3923 0.0011678164 0.0011759887 0.0011755863 
 5088000    290.66146   -127.90165    2696.1244   -544.63204   -635.58265    749.50798 0.0011684948 0.0011761716 0.0011750801 
 5090000    312.02416   -127.76639   -3643.5856   -102.42368    1193.8588    873.12272 0.0011689102 0.0011770892 0.0011746143 
 5092000    314.28865   -126.96827   -661.98497    3782.0762   -1535.0645    -2226.655 0.0011689324 0.0011774646 0.0011741269 
 5094000    290.63033   -127.89219   -2155.9158   -2494.9701   -2948.9757   -1019.4077 0.0011687335  0.001177276 0.0011739206 
 5096000    331.66217   -127.40233   -3241.6392   -29.701652     -790.652    857.62458 0.0011706977 0.0011767934 0.0011734673 
 5098000    306.62481   -127.87674    2873.0994   -1608.4672   -475.07021   -1775.7404 0.0011713731  0.001176285 0.0011730547 
 5100000    309.42969   -128.06195    -1804.777    739.44387     535.3935    385.44513 0.0011721026 0.0011759053 0.0011726548 
 5102000     314.8253   -128.57651    2162.9643    2283.6568    2424.4839    42.674961 0.0011713769 0.0011754075 0.0011722335 
 5104000    302.94188   -128.25987    908.12649    311.84271   -277.49445    330.29773 0.0011708635 0.0011750214 0.0011716539 
 5106000    301.49907   -127.84368   -1356.9305    3256.3761    2119.2996   -149.97564 0.0011704863 0.0011750772 0.0011726078 
 5108000    290.10594   -127.67286    1316.2693     963.8135    927.95159    549.90492 0.0011702486 0.0011758438 0.0011720909 
 5110000    275.72299   -127.44886   -3499.3013   -1490.0318   -1789.5932   -684.35114 0.0011698463 0.0011752485  0.001171583 
 5112000    309.01998   -127.44915   -335.85842   -281.33486    481.84434   -2026.1465 0.0011693777  0.001174894 0.0011721831 
 5114000    334.59955   -127.83344   -1432.1365   -1967.5354   -1586.8133    174.76672 0.0011688595 0.0011741088 0.0011733518 
 5116000    324.99904    -127.8391   -1522.2022    2581.9387    446.91999   -1335.3937  0.001168598 0.0011737857 0.0011732179 
 5118000    324.66434   -127.62631    521.03148    1082.7545    158.82544    1195.7928 0.0011686915 0.0011736322 0.0011729287 
 5120000     283.8525    -128.3997   -3575.1252    1415.7126    -2551.695    2527.7171 0.0011699377 0.0011730872 0.0011723675 
 5122000    303.47979   -127.96836    783.75145    921.61642   -178.35648   -242.39803 0.0011704383 0.0011726344 0.0011719297 
 5124000    307.95425   -128.02047   -311.00103   -2273.7903    1250.8251     3218.964 0.0011709178 0.0011727724 0.0011714792 
 5126000    318.88192   -127.87202    -548.5153     1560.445    799.33008   -694.33924 0.0011709946 0.0011725265 0.0011710663 
 5128000    298.89097    -127.8835    2706.7364   -1789.5918    1771.6173   -657.23467 0.0011710616 0.0011727464 0.0011709661 
 5130000    289.84714   -127.79847    -1150.738    2754.1965    2736.1664    3059.7335 0.0011707848 0.0011730928 0.0011717944 
 5132000    314.34372   -127.58001    422.83118    2053.4949    1160.2843   -373.50941 0.0011706379 0.0011723756  0.001171856 
 5134000    312.91959   -127.96124   -1916.1431    201.40674    476.57406    1849.4896 0.0011701567 0.0011719268 0.0011711887 
 5136000    317.68474   -127.55423   -2614.1404    3093.6099    3408.6045   -1837.2798 0.0011706872 0.0011716098   0.00117062 
 5138000    273.15697   -127.89002   -285.58094   -3070.7124    1664.8904   -996.56086 0.0011724495  0.001171016 0.0011700817 
 5140000    310.35549   -127.19768   -2619.0722    318.77566   -1669.9789    1571.3926 0.0011724819 0.0011707381 0.0011702181 
 5142000    280.79043   -127.21279    1874.8516    533.61756    2492.5872    299.59193 0.0011724414  0.001170427 0.0011702164 
 5144000     283.8635   -128.11847     624.4003    654.76401   -1336.1252     3355.137 0.0011719655 0.0011702938 0.0011697143 
 5146000    301.93423   -128.10918    314.86296    4228.8273    424.51601     532.1465 0.0011714653 0.0011702272  0.001169204 
 5148000    255.31029   -128.10985    1287.1375    580.89875   -2649.0894    1811.0997 0.0011711039 0.0011697287 0.0011686506 
 5150000    305.20993   -128.08829   -2860.4327    2076.8245   -213.05269    2559.0442  0.001171133 0.0011693168 0.0011683723 
 5152000     312.7181   -126.15775    1497.1536   -2060.7343    3349.6249   -2308.0811  0.001171469 0.0011689798  0.001168194 
 5154000    294.46791   -127.54172   -2318.4152   -560.19745   -1750.3801   -457.22377 0.0011713828 0.0011705465 0.0011676596 
 5156000    259.86374      -127.11   -828.32146   -1069.3318    1350.6335    1421.1749 0.0011714235 0.0011715833 0.0011672517 
 5158000    283.22302   -128.25207    373.34992   -1043.2052    457.20379    1241.0301 0.0011706537 0.0011713236 0.0011667251 
 5160000    323.45869   -128.43093   -2161.7442    1034.2679    1309.6773    1487.4775  0.001170305 0.0011708675 0.0011663242 
 5162000    314.30271   -128.03607    1160.2616   -3739.2849    1804.9691    1026.9413 0.0011698617 0.0011703923 0.0011660867 
 5164000     312.9102   -127.93164   -2082.8628    2879.3038    1490.6004    2611.4376 0.0011694837 0.0011699937 0.0011657873 
 5166000    288.11207   -126.80538    315.21762   -2435.3584   -2377.8506   -1793.5791 0.0011699867 0.0011696476 0.0011660774 
 5168000    333.45066   -127.38601    1225.5091    172.75746   -1450.6364   -626.44565 0.0011698122 0.0011690783   0.00116609 
 5170000      282.749   -128.00392   -818.36378   -157.76894   -1793.5386    336.66594 0.0011703992 0.0011686274  0.001165724 
 5172000    307.46718   -127.20108    3503.3362   -5576.3213   -2837.3232   -4189.1734 0.0011717586 0.0011683003 0.0011655513 
 5174000    305.98045   -128.46638   -1684.2091    2162.5078    2904.5809    62.541168 0.0011737492   0.00116786  0.001165033 
 5176000    283.38504    -127.6638    1670.0466   -2308.1015    967.68786   -189.73369  0.001174774 0.0011674044 0.0011651048 
 5178000    291.55786   -127.82986   -11.119738     1611.785   -1897.9215     1927.454 0.0011746464 0.0011669359 0.0011657624 
 5180000    290.89587   -127.33366   -3111.9314     1499.814    19.128183    3530.7851 0.0011748085 0.0011664436 0.0011662877 
 5182000    293.43546   -127.85102    1247.9631   -1073.7301    -597.0809    2157.6231 0.0011743108  0.001166014  0.001166653 
 5184000    293.88285   -127.78945   -3237.4319    2069.5562    1514.9995    1090.8749 0.0011757414 0.0011657071   0.00116631 
 5186000    277.88296    -127.6958    295.30561    390.61185    152.29868    669.71108 0.0011771232 0.0011663805 0.0011659175 
 5188000    307.79834   -127.58138    1082.2568     1652.833      3316.07   -3028.0941 0.0011775326 0.0011704499 0.0011656866 
 5190000    313.04875   -127.81471   -2926.3286    2061.9292    3778.6155    870.86536 0.0011777116 0.0011743224 0.0011650189 
 5192000    292.25814   -127.55858    3297.2665    3670.7547   -1334.7934   -2422.4536 0.0011774423  0.001174988 0.0011653299 
 5194000    281.77727   -128.36001   -3335.9758    366.47956    1158.1261    2042.3337 0.0011768896 0.0011747737 0.0011644574 
 5196000    285.16777    -128.0475    1574.4158   0.52586465   -4110.8366    1655.2938   0.00117638  0.001176089 0.0011640216 
 5198000    282.33152   -127.84169    265.55373   -1933.8781   -3312.9882    1535.9268 0.0011761164  0.001177398 0.0011637113 
 5200000    263.66804   -128.54495   -3896.1346   -2504.0446   -2031.2202    4137.4724 0.0011769786 0.0011789586 0.0011633914 
 5202000     303.1439   -128.50413    1892.0339   -1906.0653    -3464.419   -775.94108 0.0011776136 0.0011799325 0.0011629801 
 5204000    276.43616   -127.65999   -5104.6159   -935.36543    4610.8913    2948.9211 0.0011774559 0.0011802895 0.0011635017 
 5206000    300.73239   -128.31407   -225.66227    1629.6605    2769.8249   -935.91157 0.0011782584 0.0011820218 0.0011641521 
 5208000    335.01759   -128.55052   -718.78087   -1788.4068    2049.8269   -3382.4593 0.0011780981 0.0011833629 0.0011655672 
 5210000    309.02024   -127.53359   -2925.7062    1316.3779    6697.1009     192.2548   0.00117821 0.0011831132  0.001166925 
 5212000    307.99117   -127.97906     3388.657   -390.33881   -603.05188   -1247.2352 0.0011775525 0.0011830112 0.0011676991 
 5214000    346.11558   -127.09163   -1412.8469   -2630.5384     3431.052    172.13859 0.0011772619 0.0011830887 0.0011672138 
 5216000    301.88021    -126.6824    1550.4926    2644.3657   -2340.2704    247.53351 0.0011772253 0.0011826059 0.0011669563 
 5218000     309.8882   -127.22455     18.17018   -1043.9256   -1021.9114    1727.2676 0.0011772087 0.0011822859 0.0011666002 
 5220000    280.45905   -127.97222   -2780.2163    1858.8582   -1796.1413    4022.7116 0.0011773007 0.0011819222 0.0011660117 
 5222000    311.32706   -127.51342    2726.6336    691.98093   -246.97735    1620.3896 0.0011768254 0.0011818046 0.0011657258 
 5224000    340.93118   -127.66897   -3699.8989   -651.00028   -244.73279    3831.8699  0.001176454 0.0011819697 0.0011655252 
 5226000    291.19443    -126.6508    206.09272    1347.9002    539.65814   -136.56695 0.0011760579 0.0011830215 0.0011649159 
 5228000    280.84939   -127.14461    1081.2663    881.00542    3801.9886   -2044.8451 0.0011758017 0.0011847056 0.0011650552 
 5230000    265.94272   -127.37623   -1052.4667   -1114.2717   -2037.4401   -1905.5868 0.0011755195 0.0011855758  0.001165346 
 5232000    346.92486   -127.61148    3237.1918    2084.5823   -830.12579   -1516.9508 0.0011751855 0.0011862039 0.0011646566 
 5234000    290.99096    -127.8667   -26.943195   -599.27308   -857.55659    50.169794 0.0011751409 0.0011860814 0.0011641605 
 5236000    281.12491   -127.89678    884.18828   -302.63472   -3468.4956    286.04405 0.0011747866 0.0011864813  0.001163628 
 5238000    335.86239   -126.90329    1437.1818   -1900.4697    398.48282    966.30291 0.0011744436 0.0011862478 0.0011631652 
 5240000    300.86674   -127.24084   -3253.9771   -710.20178    1396.4195    1760.1082 0.0011746913 0.0011859431 0.0011627887 
 5242000     280.5195   -127.42063   -427.63898    2170.7624    3695.6657    18.818618 0.0011746317 0.0011855797 0.0011626833 
 5244000    323.67533   -127.56619    -3464.781    1603.0751     862.6847    1329.1633 0.0011743129 0.0011857465 0.0011620817 
 5246000    302.39877   -127.43737   -1538.5574     4033.011    131.03433    1081.6951 0.0011740921 0.0011856188 0.0011617897 
 5248000    271.56108   -127.73847   -654.49246    163.53427   -500.84011    -806.7584 0.0011740603 0.0011852679 0.0011613283 
 5250000    290.24611   -126.92999   -1433.8545    1895.7832    1899.8656    1147.3319 0.0011737712  0.001184764  0.001161108 
 5252000    319.56013   -128.78229    346.88862    -731.4878    1573.5376    745.72717 0.0011734087  0.001184583 0.0011605932 
 5254000    295.18574   -127.80408   -2103.8295     -2561.75    332.27507    615.47732 0.0011729751 0.0011866266 0.0011604212 
 5256000    317.54907   -128.07768     326.9523   -2597.1222    2225.1252   -2062.3381   0.00117271 0.0011873233 0.0011607394 
 5258000    294.29418   -127.92123    684.44217   -1171.3371   -90.517104   -180.06298 0.0011723106 0.0011874856  0.001160685 
 5260000    303.75167   -127.23879   -698.72536    1401.0078   -934.08912    882.26739 0.0011719878 0.0011871608 0.0011602682 
 5262000    295.43466   -127.29146     1711.373   -113.76764   -2631.9543    -573.1118 0.0011719463 0.0011868083 0.0011598577 
 5264000    305.23783   -127.80749   -2059.4085   -205.90232   -1655.1333    627.85689 0.0011716091 0.0011863892 0.0011598972 
 5266000     324.3092   -126.99197   -459.28199    743.14244    2146.7155    2111.1827 0.0011711813 0.0011862464 0.0011616632 
 5268000    296.36977   -127.31836   -1278.8767    237.75667    820.10338    2337.7277 0.0011708828 0.0011858913  0.001164104 
 5270000    291.01985   -127.61582   -1469.2365   -2889.3074    780.45612    1449.2284 0.0011707884 0.0011860944 0.0011637359 
 5272000    295.35061   -126.94296    1557.2724   -343.65902   -746.26893   -1713.6455 0.0011703118 0.0011871192 0.0011639037 
 5274000    321.97225   -127.17177   -124.51167    2384.1572    2413.9159    101.82717 0.0011700547 0.0011872433 0.0011656281 
 5276000      298.526   -127.24478    1762.2158    -93.75666    3113.1245   -1105.4908 0.0011695562 0.0011870565 0.0011673829 
 5278000    306.10325   -127.68355   -853.28201    1424.1356    1048.4914    913.00996 0.0011691931 0.0011867992 0.0011671155 
 5280000     306.0418   -128.44638   -1969.8618   -2653.5001    3966.8467    55.425265 0.0011687782  0.001186318 0.0011667995 
 5282000     278.3872   -127.09073    774.23209   -11.829804     1050.009    1494.1736 0.0011683372 0.0011858414 0.0011669874 
 5284000    282.86379   -126.86401   -2573.2331   -2160.1511    256.37216     4046.032 0.0011679761 0.0011855365 0.0011665208 
 5286000    327.41676   -127.64382    765.22556   -1170.8708   -216.76371    1014.5926 0.0011678186 0.0011858766 0.0011659729 
 5288000    293.56931   -127.56906   -307.69921   -1711.5122   -1873.5244    442.72542 0.0011670694  0.001186043 0.0011654716 
 5290000    275.86379   -127.40929   -1177.7706   -617.26294    551.52427   -2198.1205  0.001166469 0.0011858975 0.0011650582 
 5292000    284.70971   -127.73004    697.78292   -287.68776   -2131.5113   -670.96482 0.0011660175 0.0011872341 0.0011656338 
 5294000    287.82724   -127.56126   -2441.2847    393.03206   -133.01351    1250.4608 0.0011654356 0.0011876477 0.0011655051 
 5296000    299.90944   -127.76556   -198.69251    2755.6586     165.0374    276.42076 0.0011651108 0.0011891538 0.0011653832 
 5298000    307.97071   -127.50357   -450.99855   -1513.6813   -113.30279   -3012.2399 0.0011646589 0.0011899262 0.0011650152 
 5300000    344.22599   -126.62332    184.16623    1811.5603    -3246.734    555.02909 0.0011646165 0.0011914446 0.0011648727 
 5302000    324.97089   -127.74166    2184.8338    3038.7528     309.2648    573.42307  0.001164887 0.0011913348  0.001164622 
 5304000    284.79871   -126.78112   -1342.3764   -925.15904    1488.7895    552.93501 0.0011681797 0.0011909166  0.001164741 
 5306000    289.61878   -127.68779    690.65843   -574.85107   -193.73532    2214.9014 0.0011700704 0.0011904423   0.00116459 
 5308000    309.49465   -128.18197   -1636.5874    414.38166   -710.66952    -791.3207 0.0011700641   0.00119002 0.0011641801 
 5310000    314.28916   -128.25084   -1167.7532    -79.69902    -607.4751    1363.7257  0.001169823 0.0011895576 0.0011638955 
 5312000     280.8046   -127.79612    693.74401   -20.357321   -1617.5887    201.74801 0.0011693894 0.0011892198 0.0011637325 
 5314000    249.21196   -127.37239   -954.75574   -588.80372    1870.1516   -2491.3796 0.0011693178  0.001188828 0.0011637114 
 5316000    319.20558   -127.20116    2538.0116    65.347311        -1693    -801.9191  0.001169309 0.0011881984 0.0011638763 
 5318000    291.78944   -127.21122    312.60793    102.24933    1649.8227    173.30456 0.0011697774 0.0011896001 0.0011639202 
 5320000    309.15825   -127.74121   -51.636723    529.05698    195.15291    1506.6305 0.0011715237 0.0011896947  0.001164087 
 5322000    323.82143   -127.88253    47.687732    651.65318    886.70833    -1056.723 0.0011719887 0.0011895986 0.0011636589 
 5324000    269.65521   -127.22904   -2451.9033    431.59122    394.83309    2337.4011 0.0011723886  0.001189022 0.0011632517 
 5326000    302.12928   -127.99629    -1013.689   -4250.4081   -3048.4337   -897.56713 0.0011728667 0.0011887781 0.0011628954 
 5328000    333.31922   -127.44695   -1110.7624   -221.76613    2870.5818    2785.6653  0.001172304 0.0011888896 0.0011623978 
 5330000    325.31241   -128.05798    70.768796   -2681.6554   -1402.0228     2708.607 0.0011723713 0.0011885819 0.0011620361 
 5332000    310.16145   -127.71275    843.50264    843.25023   -3013.0471    3475.2798 0.0011719921 0.0011889753 0.0011616561 
 5334000    346.03293   -127.91579    958.81459    13.243269    1201.8276    3896.1774 0.0011716628 0.0011883866 0.0011613562 
 5336000    284.64568   -127.56792    279.81999    1296.4757    -2093.315   -494.27823 0.0011719495 0.0011882023 0.0011610127 
 5338000     330.0138     -127.492   -835.28553    1198.8883    5043.4827    2650.3506 0.0011717488 0.0011885179 0.0011612272 
 5340000    298.18689   -126.95593   -178.26441    1299.5455   -788.77379    19.800703 0.0011712781 0.0011906427 0.0011606736 
 5342000    316.31546   -126.64989   -176.15257    2649.3409     4255.674    793.66166 0.0011708524 0.0011916707 0.0011603552 
 5344000    313.26739   -127.50584   -1083.8398    888.44847   -928.59571   -242.75007 0.0011705989  0.001192845 0.0011602985 
 5346000    283.70615   -127.23363   -48.528815   -1441.5723    312.50893   -3177.3004 0.0011702957 0.0011922465 0.0011603818 
 5348000    311.36747   -126.94281   -1548.9968    2263.2506    1926.5639   -437.53326 0.0011698299 0.0011919837 0.0011599327 
 5350000    286.51985   -127.07305   -421.50639   -3119.4963   -2969.3693   -2703.4369 0.0011695094 0.0011915125 0.0011594803 
 5352000    317.26003   -127.33408   -956.79983   -731.11224    2653.5539    2454.1181 0.0011692732 0.0011911257 0.0011594008 
 5354000    274.99351   -127.69791    627.90523    1044.1115   -715.63482     2995.059 0.0011688493 0.0011907307 0.0011592911 
 5356000     340.8944   -128.22623    778.19063   -263.80505    508.84795    314.81335 0.0011682395 0.0011902995 0.0011589552 
 5358000    327.59615   -127.60648    1511.1331   -496.08008    23.663198    3764.8484  0.001169585 0.0011899007 0.0011584109 
 5360000    288.57463   -127.11426     2136.035    2002.7421   -2290.2081   -441.39446 0.0011701691  0.001189755 0.0011584303 
 5362000     294.0729   -127.81492   -1486.7138    4247.9238    401.25569    3540.6492 0.0011713789 0.0011896974 0.0011581148 
 5364000    306.90596   -127.60925   -1590.5581    4093.2497    -2370.286   -1430.0386 0.0011712436 0.0011889865 0.0011583906 
 5366000    286.20776   -128.32359   -2767.3783    2964.0351    703.09656   -1227.1423 0.0011706346 0.0011886054 0.0011581295 
 5368000    297.53016   -127.79539   -1512.2362    1246.1934    3091.3951   -1022.7328 0.0011706212 0.0011883884  0.001160343 
 5370000    280.37341   -127.61792   -1302.8419   -606.52705    404.98315   -2555.3207 0.0011702505 0.0011877056 0.0011616295 
 5372000    297.89422   -127.86575   -65.460111    2759.2928    2696.2081     431.5981 0.0011697839 0.0011876826 0.0011610695 
 5374000     289.3286   -127.67682    -951.3954   -1702.3616   -1358.0167   -1323.3709 0.0011695818 0.0011877441 0.0011618214 
 5376000    300.37895   -127.65866   -845.40654   -459.95085    2083.9341   -300.33187 0.0011690194 0.0011876921 0.0011618694 
 5378000    272.74755   -127.25601    -719.2633   -19.727713   -1630.2023   -2756.7744 0.0011685117 0.0011883259 0.0011614621 
 5380000    338.20804   -126.88207      599.808   -2908.9858    273.63015    778.03663 0.0011683297 0.0011912017 0.0011611618 
 5382000    286.14202   -127.51082    1447.5649    1595.2776    1891.1762    2705.7544 0.0011678365 0.0011912028 0.0011606734 
 5384000    316.58749   -127.37762     865.7349   -300.92964   -1685.4501   -2963.5041 0.0011674546 0.0011907914  0.001160149 
 5386000    287.79362   -127.10358    2810.9985    822.07043    4618.5951   -281.42844 0.0011677574 0.0011906976 0.0011599921 
 5388000    315.76588   -126.69667    606.83568    2795.3598   -1167.9334    737.66096 0.0011673815 0.0011902042  0.001159563 
 5390000    305.95402   -127.91876   -1549.3913   -1025.0134   -223.13763   -748.17024 0.0011667911 0.0011897614 0.0011596707 
 5392000     316.5535   -128.13528   -2116.8224   -736.85436     3481.809    5027.9293 0.0011663394 0.0011893948 0.0011592911 
 5394000    322.72796   -128.09409   -3077.8785   -2497.3216   -532.19252    -146.0688 0.0011661002 0.0011890722  0.001158624 
 5396000    306.36328   -128.05099   -998.64159   -101.14857    1173.0374   -101.41419 0.0011676907 0.0011885853 0.0011586093 
 5398000    262.73994   -127.38431   -1629.4438   -3340.8518   -2134.5806    1413.7686  0.001167692   0.00119003 0.0011581454 
 5400000    312.55518   -126.97411   -16.550786   -959.08591   -170.13551    1220.9517 0.0011675421 0.0011901097 0.0011581709 
 5402000    284.77641   -128.23029    399.04642   -2351.7871    -5233.834    1941.0578 0.0011670752 0.0011905855 0.0011580458 
 5404000    295.50087   -127.87849   -1919.8694   -102.71142   -371.40996   -1155.4337 0.0011670176 0.0011905161 0.0011577551 
 5406000    314.52777   -127.02408    696.58933    426.12387    523.14426    4253.9975 0.0011665032 0.0011899213 0.0011573398 
 5408000    302.57319   -127.21307    29.278244   -2003.0161   -2309.5682    471.90803 0.0011664773 0.0011894059 0.0011568393 
 5410000    294.41269   -126.91276    336.22797   -1792.8001    -216.5094    426.28918 0.0011658841 0.0011890704 0.0011561361 
 5412000    308.61596   -127.91881    1431.7694    287.56278    -509.3868     4394.885 0.0011655522  0.001188641 0.0011555701 
 5414000    262.36601   -127.36438    713.35968    5222.0171    3134.4545   -1328.1992 0.0011652483 0.0011883269 0.0011551807 
 5416000    239.83774   -126.82858    825.13379    2531.2591    2377.3503    1356.0796 0.0011646849 0.0011881037 0.0011549757 
 5418000    324.82544   -127.65162   -640.40918    2564.6567    345.16593   -2827.6409 0.0011645062 0.0011879915 0.0011566887 
 5420000    316.21533   -127.69611   -1800.0386   -806.96442    2961.4972     192.8276  0.001163923 0.0011890042 0.0011593403 
 5422000    301.37358   -127.38869    -1991.482    3783.0475    3403.9228   -490.10457 0.0011634695 0.0011885401 0.0011591589 
 5424000    299.70617   -126.82924   -2162.0081    232.95431    2588.7692   -1607.1683 0.0011640841 0.0011881301 0.0011587228 
 5426000    286.02648   -127.24939   -683.06446    -2040.547   -488.44857    4428.4666 0.0011639296 0.0011876584 0.0011582737 
 5428000    299.93228   -127.08732   -393.75997   -2508.2436   -2934.3661    165.72214 0.0011634994 0.0011875107 0.0011579777 
 5430000    284.59037   -127.75117   -35.265096   -656.06627    3855.2355    917.05635 0.0011633683 0.0011903009 0.0011584284 
 5432000    266.08629    -127.4483   -427.92056   -1750.5073     28.76014   -2217.4483 0.0011634245 0.0011905052 0.0011580106 
 5434000     299.7977   -127.88093   -1102.9471    589.98884    3111.5561    -1871.586 0.0011637242  0.001191472 0.0011576946 
 5436000    287.40551   -127.77708    1238.2431    -901.5103    2979.9518    1596.8031 0.0011644514 0.0011926099 0.0011576398 
 5438000    298.55954   -127.54006   -797.68482    1380.1023   -2730.4219    1912.9429  0.001164462  0.001194692 0.0011572428 
 5440000    292.69318    -126.9447    1608.8164   -386.16304    764.37733    2660.5961 0.0011639321 0.0011955434 0.0011569166 
 5442000    326.72003   -127.14509   -329.27947   -143.40445   -686.17576   -3546.7602 0.0011639798 0.0011960636 0.0011580613 
 5444000     323.0147   -126.67206    -1813.242    146.94977    84.551154    112.16532 0.0011638739 0.0011958492 0.0011579674 
 5446000    290.99994   -127.85952    -772.3698   -930.30512    234.29475   -3513.4283 0.0011644759 0.0011963121 0.0011580328 
 5448000    287.35167   -127.96997   -4383.1076   -818.64072   -1302.5926   -5054.8422  0.001164595 0.0011958012 0.0011578586 
 5450000     284.6113   -128.23162   -514.98901    -1805.031    582.95017    254.38407 0.0011641408 0.0011958103 0.0011573654 
 5452000    286.58345   -128.03002   -474.27315   -830.68719   -692.07305   -478.44925 0.0011638505 0.0011957804   0.00115725 
 5454000    326.26322   -127.09885    242.75127   -314.52946    299.46527    1550.9148 0.0011636684 0.0011954346 0.0011567258 
 5456000    280.81736   -128.00944    2772.9412     59.17529    1063.9949    31.001521 0.0011634084 0.0011952322   0.00115645 
 5458000    342.04422   -128.59631   -749.73506    -1407.135    2171.6417    593.82544 0.0011629422 0.0011947437 0.0011562666 
 5460000    313.73515   -127.48844    -314.8941   -133.57636    1668.7143    2913.9965 0.0011637855 0.0011943352 0.0011556772 
 5462000    289.12427   -128.04109   -469.04926   -467.49887   -720.38623    320.68218   0.00116475 0.0011940936 0.0011553313 
 5464000    306.69241   -127.35208   -4034.7843    2094.2773    36.461852   -524.84326 0.0011653356 0.0011937677 0.0011548259 
 5466000    293.40523   -127.24601     634.2782    1596.6713    2995.4564    327.57114 0.0011648125 0.0011934147 0.0011542885 
 5468000    314.98674   -128.02548   -1393.8946   -1250.0507   -5533.5361   -2679.9901 0.0011644318 0.0011930906 0.0011540055 
 5470000    277.88227   -128.01425   -1449.8065   -552.70169   -3604.7797   -348.92851 0.0011648487 0.0011928596 0.0011539908 
 5472000     300.5304   -127.55532    963.43508   -226.66503    -844.4513   -727.85971 0.0011658607 0.0011923887 0.0011535749 
 5474000    323.98944   -127.78427   -2541.8929    -1803.926    719.05528   -957.11923 0.0011665274 0.0011921079   0.00115325 
 5476000    246.53646   -127.71831    1504.5923    1851.2764    108.28174   -3609.2252 0.0011666297 0.0011917749 0.0011527576 
 5478000    310.42834   -127.24142   -1434.9268    1172.1001   -188.19612     513.0395 0.0011662685 0.0011916701 0.0011523338 
 5480000    295.08519   -128.09446    336.77619   -1063.4606    818.64937    1782.8238 0.0011661257 0.0011914004 0.0011518947 
 5482000    283.46316     -127.548    1858.1228   -1646.1994   -243.46948   -2179.8656 0.0011660137 0.0011910429 0.0011515202 
 5484000    290.13098   -126.96234   -797.55506    2317.0934    1728.4919    3005.9079 0.0011659698 0.0011906691 0.0011510362 
 5486000    289.15993    -127.6256    477.69961   -1677.1699     1014.032    2027.0375 0.0011664838 0.0011906862 0.0011517281 
 5488000    272.80734   -127.60509   -2781.7582    740.89431   -2794.9882     850.9856 0.0011665061 0.0011900624 0.0011519134 
 5490000     279.2919   -127.57482   -2464.5531     1595.062    135.99158    973.71265  0.001165981 0.0011895371 0.0011513464 
 5492000    335.50024   -127.59947    283.45842   -237.42712   -3401.5109    395.74636 0.0011660408  0.001189072 0.0011508122 
 5494000    291.73348   -128.07241   -2321.3667    1432.6123     -1946.67    85.292734 0.0011656652 0.0011885058 0.0011503036 
 5496000    279.52579   -127.93152    1178.7442   -3988.4179   -1124.4308    34.630068  0.001165482 0.0011882083 0.0011500516 
 5498000    299.70716   -127.52787   -462.55559   -1050.2297   -83.707152    436.83051 0.0011649956 0.0011876359 0.0011497127 
 5500000    249.48825   -127.36007    714.65602   -3016.6669   -1535.6265   -2642.3267 0.0011645372 0.0011872703 0.0011503982 
 5502000    290.37168   -128.71424   -518.55041    -369.8666    1414.4727    2387.7132 0.0011639958 0.0011869736 0.0011511704 
 5504000    311.85831   -128.61238   -2020.8117    1118.3455    979.29406   -588.10251 0.0011639479 0.0011868875 0.0011510732 
 5506000    283.96844   -127.59837    1883.7552    -3522.899   -227.53672    1130.7135 0.0011637112 0.0011863193  0.001150893 
 5508000    344.54576   -128.21403   -494.07419    847.86787    997.85418   -3442.1919   0.00116323 0.0011859378 0.0011504927 
 5510000    297.70216   -127.55775    643.33547     2343.861   -3013.8291   -1390.7885 0.0011627209 0.0011855024 0.0011500548 
 5512000    282.44453   -127.76419   -373.35451    2225.1862   -565.56571    995.58735 0.0011629446 0.0011852847 0.0011496511 
 5514000    298.46599   -128.70872   -2919.0446    3006.6979     2577.091   -294.98133 0.0011635859 0.0011855251 0.0011492864 
 5516000    320.89618   -127.96886    -157.2656    1923.6192   -702.22906    1839.1748 0.0011632977 0.0011868261 0.0011489806 
 5518000    305.54017   -128.31349   -3796.0235    1298.1922   -1150.1735   -395.72002 0.0011629038 0.0011897815 0.0011487284 
 5520000    255.38953   -127.39996    98.396912    682.79644    540.05802   -813.56407 0.0011629891 0.0011898737 0.0011483177 
 5522000    291.51956   -127.49119   -529.74814    3030.1991     1951.038   -522.54722 0.0011626893 0.0011895873 0.0011485211 
 5524000    309.30976   -127.11913   -1358.9672    1994.0965    -275.6303    18.710934 0.0011622884 0.0011893526 0.0011495038 
 5526000    310.84506   -127.41124     2139.176    1191.6621   -4072.7446    1298.2502 0.0011618816 0.0011891141 0.0011509285 
 5528000    310.58918   -127.50118   -1501.4733    1259.0152    164.38258   -1461.7523 0.0011614689 0.0011890535  0.001151247 
 5530000    299.14315   -127.75558    688.59806   -3429.0216    679.12424    1720.4949 0.0011610585 0.0011885964 0.0011510667 
 5532000    281.22535   -128.17732    360.66845   -42.715022   -541.34712   -553.47173 0.0011606408  0.001188717 0.0011506795 
 5534000    277.31923   -126.19775    -1915.088   -88.244051     -44.0228   -1443.6958 0.0011602222 0.0011883321 0.0011502463 
 5536000    297.14104    -126.5299    1881.8296    1835.6977    733.28894   -717.95714 0.0011602282 0.0011878952 0.0011497694 
 5538000    283.35178    -127.0315   -2571.9277    1420.1742   -1422.8947   -1721.4465 0.0011598097 0.0011874406 0.0011496544 
 5540000    280.05965    -126.4616    772.71028   -882.94123    2603.0206    655.86636 0.0011600599 0.0011870596 0.0011499045 
 5542000    295.57944   -127.03444    987.79434    3245.5752   -1449.8587    -199.7638 0.0011600687 0.0011872785  0.001149456 
 5544000    258.34953   -127.41939   -2814.3538   -443.57053   -520.65233    434.85052 0.0011603197 0.0011876764  0.001149075 
 5546000    292.90706   -127.73215    1832.0285    3087.3765   -3589.1347   -523.90858 0.0011600397 0.0011883473  0.001148677 
 5548000    278.66165   -126.89344   -2391.3188    1838.1363   -698.12586    576.56562 0.0011596077 0.0011877415 0.0011483939 
 5550000      263.587   -127.80467    1153.4351    2829.0786    20.788167    572.24279 0.0011592757 0.0011874116 0.0011481205 
 5552000    316.63634   -127.39895    1105.9964   -2557.7658    280.18137   -1508.5894 0.0011588895 0.0011868212 0.0011477828 
 5554000    292.73804   -127.50873   -1391.3316    1325.1154    1503.6335    1640.7084 0.0011584396 0.0011874134 0.0011473935 
 5556000    342.97351   -127.69275    2622.4678   -2046.9953    2389.0663   -438.91107 0.0011583341 0.0011867048 0.0011477765 
 5558000    315.29759   -127.16363   -2993.6227   -2877.8118   -3583.3113   -635.79304 0.0011580228 0.0011865647 0.0011474279 
 5560000    311.74295   -127.60757   -728.23732    2993.4516    1373.9069    1199.8627 0.0011584283 0.0011865229  0.001147174 
 5562000    325.75604   -127.76022   -829.35943   -3798.0186    114.07099   -3134.6775 0.0011583684 0.0011864573  0.001146838 
 5564000    335.80991    -127.4813   -2777.2311    1234.5938   -1185.4628    549.87774  0.001158662 0.0011867381   0.00114776 
 5566000    284.60575   -127.53324    2415.1057   -480.55162    2995.7448   -756.76737 0.0011617826 0.0011865183  0.001147424 
 5568000    303.02417   -127.34181   -2627.8875    -219.2393   -1195.9464   -1062.7949 0.0011617763 0.0011860471 0.0011469229 
 5570000    273.87691   -128.12698     919.4339    2889.1231    330.96021    2109.7443 0.0011614047 0.0011865872 0.0011464677 
 5572000    320.63737   -127.38486    600.02552   -1728.6387   -2830.5904    1522.6534 0.0011609237 0.0011859383 0.0011464663 
 5574000    286.58443    -126.9925   -1346.9258    2259.0125   -3988.5785     1472.933 0.0011605009 0.0011859731 0.0011472338 
 5576000    312.54073   -127.24887    2286.1304    21.098177   -108.30796    1975.6273 0.0011605554 0.0011857163 0.0011488908 
 5578000    314.79947    -128.4076   -2807.1139   -266.71901   -2539.8859   -237.74295 0.0011604615 0.0011857967 0.0011491903 
 5580000    294.99993   -127.32585    2031.1885    823.24673    1973.0216    -1497.486  0.001160093  0.001185451 0.0011494313 
 5582000    296.54956   -127.45964   -919.40874   -4552.6684    1066.8281   -2271.2439 0.0011596987 0.0011849368 0.0011499619 
 5584000    319.04579   -127.46609    -770.5303    2228.1205    1556.5743   -2131.2153  0.001159403 0.0011851175 0.0011502189 
 5586000    302.28694   -127.81049    529.58781   -650.71768    1875.8367   -2097.8608  0.001159079 0.0011849874 0.0011502058 
 5588000    271.23855   -128.20317   -2628.7952    1016.3757    -1200.477   -1505.3722 0.0011595154 0.0011849529 0.0011505895 
 5590000    322.94281   -127.89123    1515.7331    2774.1462   -1728.4851    720.74668  0.001159234 0.0011844431 0.0011504312 
 5592000    330.48093   -127.74323   -948.38356    1125.0246   -2374.0276    -554.1196 0.0011588282 0.0011842561 0.0011502018 
 5594000    307.91996   -127.53536       595.21     3488.791   -2313.1755    2332.3162 0.0011583094 0.0011838391 0.0011496916 
 5596000    312.64795   -127.38249    1553.1399   -2706.9017   -5322.7671    109.52108 0.0011584266 0.0011834479  0.001149296 
 5598000    301.16271   -127.08436   -1349.9738   -11.719784   -1311.7789    447.00178 0.0011580233 0.0011831331 0.0011489382 
 5600000    289.23667   -128.00898   -587.92196   -3775.3035    -1049.447    2225.7759 0.0011578687 0.0011827018 0.0011488184 
 5602000    310.48771   -126.96498    -2372.567   -4735.6156    37.214236    197.48578 0.0011574252 0.0011824317 0.0011496487 
 5604000    294.37772   -127.69709   -1387.0411   -146.62655    4192.6988    2628.2287 0.0011567347 0.0011820544  0.001149598 
 5606000    296.94738   -128.42876    122.97395   -2780.3676    174.92079   -1206.7963 0.0011561432 0.0011815464 0.0011490753 
 5608000    303.95771   -127.39362    37.744174     2410.835    3279.2087   -1224.4372 0.0011563447  0.001181144  0.001149293 
 5610000    259.09996   -126.99727    1060.3646    1635.5867    449.16585    -1141.334 0.0011559014 0.0011807245 0.0011487687 
 5612000    313.76808   -127.81921   -1042.1863    6684.1499   -176.68443    204.93439 0.0011558004 0.0011801227 0.0011484376 
 5614000    297.11786   -126.57258   -492.55851    1723.8592    2018.3891   -1034.1844 0.0011562929 0.0011796171 0.0011487251 
 5616000     322.7943   -127.68486   -324.28351    817.64162   -2160.3173   -2304.7839 0.0011566312 0.0011790866 0.0011485436 
 5618000    323.24618   -128.21851   -1555.8764   -515.82112   -449.77672   -1802.1051 0.0011565848 0.0011793069 0.0011482669 
 5620000    283.23971   -127.94416    101.66428   -842.10664    2364.4561    1160.0624 0.0011564095 0.0011790285 0.0011478684 
 5622000     300.1197   -127.80346   -594.98684     -1066.43   -517.83212   -3346.0532 0.0011563698 0.0011784622  0.001147462 
 5624000    286.29734   -126.92106    867.94924    -3224.689    4063.3695    2098.4927 0.0011561624 0.0011783673 0.0011476518 
 5626000    267.63793   -127.76234    474.90113   -702.08001    42.725835    4712.0841 0.0011572845 0.0011779986 0.0011474477 
 5628000    294.70231   -127.79649    546.49172   -1082.0562   -154.19789    490.03319 0.0011574788 0.0011776771 0.0011470907 
 5630000    306.93632   -127.63587    1109.8495    125.16174    2496.1611    2127.3368  0.001157011 0.0011772223 0.0011467121 
 5632000    302.25111   -127.70079    -2161.063    729.81212    3199.4026    114.11871 0.0011571505 0.0011769781 0.0011463126 
 5634000    283.96153    -127.4165   -33.122381   -2881.2582    211.86727   -2448.7945 0.0011574991 0.0011770345 0.0011461265 
 5636000    305.53698   -127.78901   -1385.2756    157.06789    -1510.677   -1047.8609 0.0011575516 0.0011768802  0.001146398 
 5638000    328.92019   -127.27027   -2080.2727     326.0336   -1281.7714   -5549.5518 0.0011582273 0.0011765558 0.0011465914 
 5640000    334.69162   -127.18397    722.02914   -1400.8843   -251.20208    1433.3577 0.0011572435 0.0011761949 0.0011461205 
 5642000    288.88581   -127.04684   -2610.0161    2251.7518   -812.10237   -1816.5105 0.0011572642 0.0011756756 0.0011458173 
 5644000    298.25691   -126.88821    1373.7263   -2228.2729    -1160.633    2419.7482 0.0011568421 0.0011751911 0.0011458406 
 5646000    269.86076   -128.05451   -1429.0913   -2662.6591   -1889.4202    -330.8509 0.0011562994 0.0011760605  0.001145606 
 5648000    296.87284   -127.43945    1081.8673   -1492.5376     110.3579    2598.2181 0.0011559777 0.0011765461  0.001145186 
 5650000    274.94406   -127.31565    2408.6671   -1585.4198   -234.46678    2800.4011 0.0011560107 0.0011769565 0.0011447668 
 5652000    305.56247   -127.08965    -114.5164   -2617.5033    1400.9625   -2785.7748 0.0011559025 0.0011766907 0.0011445923 
 5654000    297.16077   -127.76576    2525.2668   -653.64971    1471.5843   -903.38591 0.0011553554 0.0011763955 0.0011442816 
 5656000    305.12335   -127.23553   -1776.1593   -285.15669    2048.3934   -1691.7533 0.0011548845 0.0011767539 0.0011446888 
 5658000    267.99777   -127.95466    -607.6299    1717.5619   -288.86686   -1351.0357 0.0011543451 0.0011764646 0.0011449657 
 5660000    310.40375   -127.31395   -185.97602    1998.2038   -1561.1434    -1880.273 0.0011539771 0.0011766368 0.0011444576 
 5662000     284.3982   -127.71171   -4018.8666    1337.1693     1318.498   -1140.5026 0.0011538352 0.0011766515 0.0011440027 
 5664000     311.4908   -127.12291    1270.6609   -751.20586    3113.7664   -837.95416 0.0011540587 0.0011763876 0.0011435764 
 5666000    300.44451   -126.96958   -1981.3546    203.54206   -1486.0065    2101.8133 0.0011546642 0.0011759297 0.0011430931 
 5668000    346.69938   -127.46626    109.44541    1032.4033    61.702587   -2105.1641  0.001154327 0.0011756068  0.001143735 
 5670000     312.9107   -127.08342    1457.5127    1766.9804    1820.5007    1015.8023 0.0011539761 0.0011752928 0.0011447645 
 5672000     302.4128    -126.5256   -1030.3778    -1244.867    487.27042    1264.0439 0.0011535526 0.0011762642 0.0011448393 
 5674000      292.167   -127.17142    2499.0828   -1690.3594    478.87052    350.30013  0.001154597 0.0011756976 0.0011446677 
 5676000    293.01077   -127.64855   -447.76782    1371.0871   -1750.9894    848.08918 0.0011542518 0.0011763939 0.0011470214 
 5678000     286.4056    -128.1745    355.30678   -1217.3579    1598.6011   -1801.7343 0.0011539552 0.0011778194 0.0011489475 
 5680000    310.09903   -127.54407    1412.7765    766.32114   -4270.1849   -512.94279 0.0011536667 0.0011790661 0.0011485328 
 5682000    294.73898   -127.13668   -2544.2121    522.35003    3746.0026    412.17685  0.001153591 0.0011794684 0.0011482626 
 5684000    268.64362   -128.25231    472.39045    598.03083   -739.20193   -1474.2673 0.0011534737 0.0011805393 0.0011479177 
 5686000    319.33993    -127.5022   -4145.1731    2191.6543   -1950.9582     42.13659 0.0011531665 0.0011801344 0.0011480248 
 5688000    291.77968   -127.12054   -411.50361   -967.59167   -183.43451    313.97615 0.0011541151 0.0011797605 0.0011477925 
 5690000     307.1517   -127.12027    355.11337     1077.797   -5045.1732    2920.1127  0.001153949 0.0011799522 0.0011475511 
 5692000    297.01461   -127.64544   -1802.0661   -3120.5941    2021.1997   -995.16062 0.0011536345 0.0011803742 0.0011471069 
 5694000    305.86586   -127.25694    4875.5408   -1523.7914   -2383.2672   -3698.5273 0.0011540423  0.001179851 0.0011467926 
 5696000    304.82731   -128.03096   -635.20599   -1057.7014    793.98694   -1832.9772  0.001153304 0.0011794354 0.0011464377 
 5698000    305.39032   -127.90302     2795.071    1570.5633    1792.4382   -4022.0935  0.001153068  0.001180377 0.0011461125 
 5700000    338.21477   -127.77208    1167.8263    1146.7796    -689.8161   -1906.2794  0.001152782 0.0011805604 0.0011459267 
 5702000      291.959   -127.09454   -1518.1592    817.23325    2968.2833     4774.278 0.0011525998 0.0011805336 0.0011460449 
 5704000    311.60474   -127.86122    2262.3676    369.81041    462.94892    1376.2407 0.0011526486 0.0011803802 0.0011456054 
 5706000    315.59552    -127.8501   -3544.9235   -2575.7223    1510.2146    4054.2927  0.001152363 0.0011801464  0.001145203 
 5708000    278.99729   -128.54341   -170.46128   -2012.3312    1251.3116   -547.40837 0.0011518508 0.0011809941 0.0011449957 
 5710000    313.45822    -127.0258   -400.96249   -2028.7754   -1480.5451   -3107.6041 0.0011513717 0.0011805411 0.0011445356 
 5712000    318.81182   -127.44051   -2984.6593   -2679.3616    432.56435   -168.40674 0.0011510118 0.0011801207 0.0011441372 
 5714000    298.36076    -127.4552    1123.1003    3361.7539   -207.78087   -2634.7135 0.0011511959 0.0011801322 0.0011439793 
 5716000    286.02476   -127.40901   -3239.9459    1721.7933   -160.44026    2382.4821 0.0011520241 0.0011796739   0.00114372 
 5718000    292.03294   -128.33206    2014.0903    2637.8699   -171.99399   -2701.6523 0.0011518322 0.0011793954 0.0011434024 
 5720000    281.82315   -127.48244    1278.3409    2768.6079    -2576.948   -260.38598 0.0011519875 0.0011799185 0.0011429667 
 5722000    300.71889   -128.34081     52.77176     1917.439    1921.0012   -3512.1843  0.001151648 0.0011794933 0.0011427407 
 5724000    282.39871   -128.20206    3927.8332   -57.723377    -7.321926    1156.3935 0.0011513433  0.001179671 0.0011425469 
 5726000     287.3017   -128.35267   -3483.1124   -682.38062    2060.5472   -4118.8492 0.0011516223 0.0011797584 0.0011421574 
 5728000    285.33473   -128.15495    747.56068     -2245.88    3593.7073   -907.83157 0.0011519076 0.0011795234 0.0011417477 
 5730000    297.14866   -128.05287   -2639.9527   -708.69658    1502.6724   -1307.4614 0.0011520412 0.0011793739 0.0011415972 
 5732000    308.78203   -127.44409   -3067.8684    119.25011    1848.7818   -2756.9525 0.0011518788 0.0011791597 0.0011412657 
 5734000    307.79606   -127.10033    1818.5353    989.67027   -2382.1377    3406.3897 0.0011514372 0.0011800453 0.0011409888 
 5736000    290.76749    -127.7672    -2906.299    845.28625    344.35612   -3130.3538 0.0011510228 0.0011824471 0.0011412601 
 5738000    316.02108   -128.03649    2937.1933   -582.99651   -800.69524    1783.9313 0.0011507032 0.0011819643 0.0011412214 
 5740000    319.33304   -128.29593   -1713.3011    2266.0938   -120.34253    1518.5328 0.0011502982 0.0011818629 0.0011408733 
 5742000    310.00661   -127.37405    18.292115   -1384.4242    133.65052   -834.84656 0.0011499234 0.0011815611 0.0011404003 
 5744000    298.36247   -127.19899    1409.7039    -1485.096   -2037.1749    2072.3794  0.001150949  0.001181574 0.0011405487 
 5746000     313.1004   -127.69942   -3567.2265   -3503.1512    985.99931   -474.07322 0.0011512085 0.0011822894 0.0011402779 
 5748000    324.81476   -127.28601    1247.8845   -1883.1474   -1147.9586    1458.8608 0.0011508943 0.0011822431 0.0011398764 
 5750000    308.42587   -127.15049   -1458.9785    200.04228    620.60749    1217.9829 0.0011508475 0.0011827279 0.0011394666 
 5752000    269.90787   -127.74477     480.3221    1488.9255    2073.4589     5.052652 0.0011505996 0.0011832689 0.0011396864 
 5754000    281.61606   -128.02702    1024.0668    2956.4946    1867.2066    5064.5085 0.0011505585 0.0011828982 0.0011391764 
 5756000    331.55092   -127.80624   -2999.0985    1041.0633    1217.7194   -1465.8073 0.0011509019 0.0011825705 0.0011390948 
 5758000    301.32532     -127.197    1731.4489    5024.9622    348.83163    3458.8292 0.0011505962  0.001182502 0.0011388097 
 5760000    296.93036    -127.6882   -2397.5717    1228.0015    557.14315    47.048555 0.0011504584 0.0011821493 0.0011386288 
 5762000    316.71757   -127.60902   -467.60693    1843.1967   -26.935746   -1323.2166 0.0011504701 0.0011816996 0.0011382138 
 5764000    294.48454   -127.98102   -373.87237   -2920.6574   -262.33834   -813.18212 0.0011499826 0.0011813129 0.0011382652 
 5766000    321.64396   -128.34926   -1619.4558   -1464.2165   -836.21162   -2124.3124 0.0011497215 0.0011809534 0.0011392242 
 5768000    315.33854   -127.58615      2223.58   -545.68648    -2310.043    508.25301 0.0011493608 0.0011806789 0.0011406833 
 5770000    319.00873   -128.34348   -1975.3667   -176.69286   -1661.1479    -2539.373 0.0011489946 0.0011804238 0.0011403778 
 5772000    268.94424   -127.25779    1038.9282   -2011.6094    206.47785    1459.8489  0.001148504 0.0011806373 0.0011401136 
 5774000    262.18065   -127.69354    284.98503   -29.716767   -2612.6765   -1895.4498 0.0011480291 0.0011805803 0.0011398015 
 5776000    335.24412   -126.56958   -1002.7751    1275.2279   -540.98062   -327.35466 0.0011478713 0.0011802768 0.0011395863 
 5778000    316.20853   -127.44046    1653.1644   -24.933963    586.53997    33.667016 0.0011475748 0.0011812011 0.0011391538 
 5780000     284.5306   -128.11642   -2302.5452    1771.8966    723.64921   -1453.6339  0.001147085 0.0011845543  0.001138976 
 5782000    293.93858    -127.7857    -884.7459   -544.49019    405.59669    2130.8594 0.0011468511 0.0011856505 0.0011387895 
 5784000       308.05   -127.72414     -257.841   -398.41995    752.96757   -1586.8463 0.0011468354 0.0011852113 0.0011386012 
 5786000    291.19845   -128.16911    -2190.741    763.44856    2513.5985     -1294.13 0.0011464426 0.0011847213 0.0011383701 
 5788000    294.92734   -127.77677     242.0226   -361.87612   -1226.2826   -90.055062 0.0011464424 0.0011842958 0.0011381499 
 5790000    284.46943   -127.55976   -1825.4851   -1204.5949   -642.71107   -2555.2277 0.0011461145 0.0011840475 0.0011381416 
 5792000    305.09657   -128.38313    353.31973    780.11266    -1360.164    1501.3331 0.0011461063 0.0011837798 0.0011377254 
 5794000     301.3301   -127.59545   -1095.7958   -630.99363   -2641.0038   -1237.7171 0.0011460478 0.0011838415 0.0011376261 
 5796000    267.44333   -127.54328    235.60188   -488.47223    206.33083   -1711.7333 0.0011457465 0.0011841644 0.0011372152 
 5798000    272.04907   -127.29218    2204.4293    729.25144    207.60256   -1209.3155  0.001145607 0.0011853906 0.0011370188 
 5800000    291.07706   -127.72868     37.25743    1518.3492   -165.95269   -2460.7919 0.0011456824 0.0011857921 0.0011366488 
 5802000    327.26374   -126.83683     1950.931    499.99137    654.66347    1245.8034 0.0011460627 0.0011851851 0.0011362869 
 5804000    294.28863   -127.33734   -1169.1439    1141.9386    466.48803   -1103.0485 0.0011456201 0.0011853236 0.0011359392 
 5806000    304.58258   -128.48483   -1971.6264    1244.8022    793.23547    1330.9414 0.0011457149 0.0011853256 0.0011357968 
 5808000    280.41985   -127.83367   -1347.7961    2210.5009    776.99982    795.21549 0.0011459333 0.0011874699 0.0011362066 
 5810000    296.69511   -128.49009    -2469.294    3356.5747    1766.1637   -643.90077 0.0011455174 0.0011888938 0.0011359408 
 5812000    285.06222   -127.52441   -90.708099    2531.5409    1163.2688   -390.78539 0.0011450936 0.0011889531 0.0011356272 
 5814000    294.28526   -127.55073    127.45844   -1519.1263    104.30048   -3239.1818 0.0011449164 0.0011892989 0.0011353497 
 5816000    300.85842   -127.89959    1537.0157   -421.39025    -1744.717   -217.87462 0.0011450512 0.0011934227 0.0011348588 
 5818000    287.48144   -126.91952     925.4112   -3300.6605   -2227.7606   -122.91603 0.0011444812 0.0011975682 0.0011343395 
 5820000    299.76252   -128.15304   -363.33126   -1010.3518   -2473.7949    1107.1287 0.0011441249 0.0011999432 0.0011339513 
 5822000    301.66725   -127.07737    1243.3321    -106.6307   -3411.2561    1684.0503 0.0011435908 0.0011999556 0.0011335881 
 5824000    295.29177   -127.10994   -185.47808    47.611217    2476.7761    2691.8037 0.0011436883 0.0012008179 0.0011331202 
 5826000     301.9339   -127.67075    497.95047   -542.14892    1377.6355    3418.8563 0.0011437121 0.0012007234 0.0011326604 
 5828000     281.5806   -127.08059    91.671887    2843.6255    2375.3421    1657.7932 0.0011438608 0.0012036167 0.0011325919 
 5830000    310.45807   -127.88356    193.54263   -762.42202    3040.8261   -1649.9902  0.001143489 0.0012072025 0.0011321289 
 5832000    283.86753   -128.21378   -2109.6737   -552.30539   -2100.2031    1901.8533 0.0011435426 0.0012083566 0.0011317458 
 5834000     267.1063   -127.62383   -2306.8549   -1421.5135     3592.036      1129.73 0.0011431569 0.0012095679 0.0011314733 
 5836000    285.25544    -128.6194   -1309.4695   -1956.8373   -542.03409   -2575.6728 0.0011439357 0.0012099343 0.0011315927 
 5838000    296.46272   -127.87996   -1582.9524   -906.43076    1110.7342   -3539.7224 0.0011445243 0.0012106867 0.0011312835 
 5840000    291.42931   -127.92596    373.76127    864.17037    2127.9882   -841.74637 0.0011453126 0.0012105883 0.0011325099 
 5842000      295.276   -127.57629    1198.9212    3488.1003    -2525.767    449.80871 0.0011456849  0.001210143 0.0011324715 
 5844000     297.3312   -127.88489    197.27263    4866.2856    -502.2204    1915.1624 0.0011458245 0.0012101177 0.0011319881 
 5846000    257.84099   -127.54352     1098.487    4045.9464    -2528.885   -1759.1436 0.0011453397 0.0012098798 0.0011317086 
 5848000    298.13516    -127.3866   -1599.7384    1342.3603    3153.2784    1458.0402 0.0011447401 0.0012094007 0.0011313819 
 5850000    323.06439   -128.61423   -554.04163    1022.9833    1629.0176   -166.24585 0.0011445596 0.0012089531 0.0011312953 
 5852000     313.5803   -128.37461   -2142.0213   -4421.6027    1195.0785    2142.4981 0.0011443042 0.0012085269  0.001130904 
 5854000    265.36901    -127.7531   -1455.5546   -1431.6281    2949.1996    886.09872 0.0011438315 0.0012082561 0.0011309638 
 5856000    298.49033   -127.97752    824.34114   -1403.2965   -702.42162   -2798.8275 0.0011450548 0.0012080458 0.0011305684 
 5858000    324.32593   -127.69385   -1977.5754    1798.7854    -58.94044    1159.6239  0.001145779 0.0012081435 0.0011302381 
 5860000    308.78896   -127.08051    2265.8452   -1750.7713   -1648.0753    -2701.466 0.0011454083 0.0012077927 0.0011300161 
 5862000    336.71892   -127.89999   -1977.1086    1961.4596     1343.926   -671.60495 0.0011449692 0.0012073617 0.0011298082 
 5864000    305.60762   -128.10372   -1870.1736    961.52287    2368.6669    566.26957  0.001144694 0.0012071221 0.0011295588 
 5866000    284.71429   -127.00539    1269.6696     1922.639    -114.2403   -3998.0388 0.0011446058 0.0012065411 0.0011294071 
 5868000     276.1986   -127.90143   -2212.9557    794.76654   -636.24623    1938.7381 0.0011451352 0.0012061876 0.0011309634 
 5870000    280.36083   -127.35364    2709.5979    2277.8474   -1990.0306   -2653.5827 0.0011454954 0.0012058442 0.0011312673 
 5872000    330.37336   -127.08491   -375.44269    868.77851    1765.0125    2375.4611 0.0011451518 0.0012054352  0.001131139 
 5874000    280.83702   -127.96011   -582.31416    1749.6736   -275.71667    209.94723 0.0011446988 0.0012051442 0.0011315164 
 5876000    304.25606   -127.07588     581.7247    657.09758   -150.23171    264.16636 0.0011447729 0.0012049281 0.0011312512 
 5878000    320.36781    -126.9558     -3481.66       270.22    810.24137      5242.01 0.0011442865 0.0012044873 0.0011309369 
 5880000    333.98879    -127.3241    960.77333   -284.81204   -1010.8671   -1425.6616 0.0011438303 0.0012045291 0.0011307641 
 5882000    272.39551   -127.53041   -2457.0977    1533.8972    3470.1977    1919.2126 0.0011433679 0.0012040318 0.0011314946 
 5884000    330.36914   -127.30261    1733.3762    3066.9852   -2049.5001    1342.9896 0.0011433212 0.0012042157 0.0011309697 
 5886000    322.56027   -127.77293    2404.8835   -48.233568   -37.931001    599.13375  0.001143041 0.0012046443 0.0011307965 
 5888000    298.42437   -127.46398   -81.948265    526.08246   -1207.9425   -2352.1869 0.0011426332 0.0012044424 0.0011302228 
 5890000    287.76808   -127.41457    2353.3316   -1928.5487    1385.6437   -3787.8365 0.0011422339 0.0012045708 0.0011300331 
 5892000    289.09087   -127.58582   -2058.5978   -1639.0621    499.76972    624.58158 0.0011421252 0.0012048005 0.0011298704 
 5894000     295.5068   -127.61362   -346.74418   -2126.3349    692.16881   -213.29064 0.0011416592 0.0012043938  0.001129467 
 5896000    282.95953   -127.06889    371.67835    291.52349   -70.242455    604.08701 0.0011416946   0.00120404 0.0011290202 
 5898000    271.46661   -127.59215   -1677.1186    -390.6725   -2761.5865   -710.73054 0.0011412574 0.0012036304 0.0011298783 
 5900000    304.40875   -126.96531      2150.58    1066.5978   -908.18344    679.80297  0.001140935 0.0012033445 0.0011298934 
 5902000      291.945   -127.73864   -3440.0919   -851.21395   -1389.7034   -1237.9132  0.001141789 0.0012034455 0.0011296587 
 5904000     308.0559   -127.90711   -1075.7345   -3074.3775    1485.7086    2725.1224 0.0011419337 0.0012047066 0.0011292862 
 5906000    277.36459   -126.67133   -2257.9383   -1094.4064    2957.3291    2239.1915 0.0011419452 0.0012060151 0.0011288721 
 5908000    311.02747   -127.86775   -3490.6055    -735.4345    146.27214    957.90951 0.0011417843 0.0012059651 0.0011284502 
 5910000    315.06601   -127.25268    3364.9074    205.77691   -588.71725   -1361.6943 0.0011439559 0.0012057081  0.001128879 
 5912000    330.20599   -127.92469    19.925765    3566.6624   -618.74149   -1052.0422 0.0011471691 0.0012050634 0.0011283964 
 5914000     325.8585   -128.73295    3083.1926    1336.6049     1173.066    482.73633 0.0011475775 0.0012057433 0.0011283845 
 5916000    314.88691   -127.88154    1768.5222    3247.0388    1033.8148   -2489.5308 0.0011476977 0.0012069458 0.0011280464 
 5918000    281.26837    -127.0775   -1638.5073    444.46576    725.26917     285.9051 0.0011484166 0.0012076689 0.0011276682 
 5920000    303.56404   -127.70536   -201.63409    1157.3669   -1866.1921   -1418.7142 0.0011479023 0.0012100296 0.0011278768 
 5922000     301.0821   -128.10205   -4642.9572     945.9309    -791.7669     1096.343 0.0011476105 0.0012113074 0.0011278821 
 5924000    291.00469    -127.4132   -63.405595   -853.99997   -496.97913    150.69973 0.0011471953 0.0012108037 0.0011283767 
 5926000    293.54581   -126.57563   -1655.4167   -115.40361   -1716.4635   -969.83216 0.0011467559 0.0012105318 0.0011281162 
 5928000     276.3387   -127.77883   -2669.7577    -3005.122    301.69245    422.77427 0.0011466407 0.0012104372 0.0011275883 
 5930000    303.42884   -127.14523    1652.8412   -2122.3307     -64.2201    1794.5634 0.0011467835 0.0012099027 0.0011270126 
 5932000    340.66994   -127.20378   -2697.2939    1462.7378    608.12387    238.76448 0.0011471023 0.0012095905 0.0011267782 
 5934000    328.08893   -127.00056    537.12084   -524.17417   -703.72892   -61.958102 0.0011471823 0.0012092723 0.0011271988 
 5936000    299.89297   -127.26914    456.94773    1607.9203    1135.9632    1820.2737 0.0011474809 0.0012088775 0.0011268031 
 5938000     283.2903   -127.02739    915.65493   -425.40607   -478.23503    2174.7318 0.0011470315  0.001208483 0.0011264502 
 5940000    304.49805   -127.83239    4267.7257    1733.6216   -1792.7474    174.79731 0.0011472683 0.0012083636 0.0011260774 
 5942000    304.90773    -127.6066   -981.54853   -1192.9955   -244.89222   -85.259136 0.0011476573 0.0012082099 0.0011257413 
 5944000    292.34587   -127.99801    763.76453   -1168.6417    868.89743   -3091.6217   0.00114738 0.0012081196 0.0011253822 
 5946000    303.67359   -126.91024   -3000.4143    4116.1866    3420.1449   -2976.2566 0.0011471632 0.0012077713 0.0011257963 
 5948000    301.44204   -128.22607   -4217.1661   -949.74837    224.68993   -2055.9267 0.0011480341 0.0012072999 0.0011265172 
 5950000     306.1102   -127.33767    -461.5302    1810.6874    144.98208    355.40168  0.001149724 0.0012068944 0.0011269091 
 5952000    316.70595   -127.49595   -3587.2173    2203.5544    175.07233    2367.3781 0.0011493975 0.0012078154 0.0011276571 
 5954000    293.47656   -127.34692    3262.2059   -1139.5941   -1504.6175    1799.2594 0.0011490968 0.0012076666 0.0011282385 
 5956000    296.64512    -127.9299   -519.83662   -258.91085    2359.2189    2676.6635 0.0011504323 0.0012079986 0.0011289809 
 5958000    266.64952   -127.30722    1552.4653     470.7352   -749.72845      526.606 0.0011509615 0.0012075817 0.0011285379 
 5960000    317.78629   -127.50497    1135.8251    1081.2868    1557.5128     360.2991 0.0011512161 0.0012072198 0.0011283046 
 5962000    289.65536    -127.5177   -3086.0397    1673.6911    920.16291    -3625.612 0.0011510309 0.0012070168 0.0011280706 
 5964000    328.70615   -127.28146    1901.7877   -1316.6103   -326.06675   -1142.2902 0.0011507904 0.0012068607 0.0011280459 
 5966000    315.24598   -126.50953   -1352.6206    113.82694    1583.5042    566.23834 0.0011508658 0.0012065008 0.0011278972 
 5968000    336.71186   -127.63376    -1134.647   -2561.4613    -4199.363    2183.5103 0.0011513016 0.0012070406 0.0011279856 
 5970000    339.23693   -127.26724    2063.1575    932.78278   -3055.5455   -1094.9219 0.0011518863 0.0012090556 0.0011279891 
 5972000     337.4105   -127.07238   -2794.4117   -2456.8453   -1213.7241    3926.4318 0.0011522044   0.00121034 0.0011277193 
 5974000    298.81535   -128.37895   -3.9108682    1499.6742   -1579.3464    594.02794  0.001151723 0.0012098753 0.0011273052 
 5976000    334.91976   -127.26873   -1795.5362    1908.1769    1619.4865    2374.0161 0.0011516711 0.0012096505 0.0011271432 
 5978000    293.60518   -127.61614   -1580.2223    94.780806   -679.74994     817.9657 0.0011511686 0.0012094139 0.0011266432 
 5980000     306.7282   -127.58571     3016.083    680.86018   -509.87326   -184.79168 0.0011513955 0.0012090037 0.0011264315 
 5982000    287.27925   -127.23335    -2320.243    1331.5571   -832.08195     299.3897 0.0011509006 0.0012085873 0.0011259439 
 5984000    271.89015   -127.47655    3248.1331   -4201.2052    -1943.677   -461.87018 0.0011522495 0.0012086646 0.0011260671 
 5986000    306.15632   -127.50155   -522.16497    948.81977    596.97666   -4509.2553  0.001151599 0.0012083272 0.0011255342 
 5988000    331.60617   -127.61239   -3757.0596   0.68529951   -3117.3942    1614.9719 0.0011521928 0.0012081107 0.0011251467 
 5990000    255.41885    -127.3201    1357.9312    231.85127    142.11362   -672.11007 0.0011526121 0.0012077193 0.0011254109 
 5992000    244.28895   -127.75062   -6248.8338   -1007.5358   -1821.4393    2508.2937 0.0011523273 0.0012075551 0.0011257174 
 5994000    309.29408   -127.67762     2286.464   -2348.3163    2944.2696   -441.10421 0.0011522724 0.0012071586 0.0011260566 
 5996000    314.38361   -127.67448   -2190.6739    1207.4742    437.74743    827.56486 0.0011532419 0.0012065514 0.0011259069 
 5998000    329.69633   -127.95336   -769.42158   -2077.0923    676.68369    128.99007 0.0011535229 0.0012064559 0.0011255693 
 6000000     324.8441   -127.53253     3765.852    1527.6705   -417.33939   -4514.9427 0.0011533596  0.001206152 0.0011253553 
 6002000    270.79959   -127.34702   -3811.5288   -1992.1128   -1110.4261    377.65408 0.0011532068 0.0012057661 0.0011249588 
 6004000    282.81905    -127.3853    2486.6386   -911.43292   -681.07166    -495.8467  0.001153079 0.0012057174 0.0011247255 
 6006000    296.08948   -127.88604   -3519.0795    1493.1523    705.67533   -1346.8873  0.001152683  0.001205645 0.0011244361 
 6008000    272.84737   -127.72425   -1849.8236    397.10036    -2120.902   -383.17487 0.0011522768 0.0012053428 0.0011241166 
 6010000    321.99394    -127.3852    502.27635   -648.12272    886.26034    1745.7607 0.0011519318 0.0012050157  0.001123706 
 6012000    280.05911   -127.84139   -4082.4788     2272.458   -682.84706    3954.3921 0.0011516076 0.0012052927 0.0011238178 
 6014000    304.84103   -127.61844    3823.6995   -806.66416   -782.60221    554.67537 0.0011511266 0.0012050806 0.0011234229 
 6016000    317.50623   -126.93703    -1181.546   -522.14632    287.93184    1413.0266 0.0011507938 0.0012046834 0.0011236283 
 6018000    294.89587   -127.43626     902.6496   -1287.0017    1034.8416   -417.58469 0.0011503898 0.0012044789 0.0011234018 
 6020000    361.41561    -127.1975    2471.6085   -2677.9196    1788.9136   -2134.1981 0.0011500125 0.0012060409 0.0011232449 
 6022000    275.49148   -127.66241   -2536.1615   -1616.0634   -2804.1759    -982.1924 0.0011502116 0.0012073365  0.001123132 
 6024000    271.15515   -127.50251     1047.335   -2985.5988    700.84182   -1882.7513 0.0011512618 0.0012072216 0.0011228791 
 6026000     284.1857   -126.72065   -3040.1969    4590.2485    214.09648    1938.4457 0.0011515207 0.0012069374 0.0011225807 
 6028000    300.93758   -128.40521   -1398.3741    61.302438   -1987.5317    463.74345 0.0011516367 0.0012070991 0.0011222223 
 6030000    296.11076   -127.26572   -291.93303    2252.3287    3113.7505    1233.9348 0.0011511857 0.0012071046 0.0011220826 
 6032000    255.37365   -128.24905   -3888.3999    959.73713    1855.4515    612.71663 0.0011508309 0.0012076335 0.0011219834 
 6034000    281.81649    -128.1336    240.11775    -1667.486   -1178.5235    468.48665 0.0011506194 0.0012088044 0.0011213314 
 6036000    326.96485   -128.00638    -1808.003    2814.1825   -627.75745   -3463.4956 0.0011504356  0.001208931 0.0011207435 
 6038000    317.09435   -127.80196   -177.41718    652.92698   -798.64854   -436.82496 0.0011502552  0.001208597 0.0011206639 
 6040000    283.67477   -127.99204    3055.4014   -2512.1553    1577.0143   -5423.1661  0.001150181 0.0012082664 0.0011204803 
 6042000     311.9164   -127.91425   -1694.7496   -262.36518   -1437.2564   -2613.5657  0.001149941 0.0012082046 0.0011206321 
 6044000    304.53077   -127.92543    2976.6796    1109.5995    929.14204   -548.60664 0.0011498039 0.0012077323 0.0011220691 
 6046000    303.14278   -127.55008    -908.3756    441.92594   -1660.3002   -11.672402 0.0011494306 0.0012081048 0.0011222483 
 6048000    304.51896   -127.42693   -850.44364     1380.546    1171.1015    2229.5241 0.0011498736 0.0012090436 0.0011236924 
 6050000    292.24087   -127.25436    -608.5787    1021.0889     1224.121    1299.0673 0.0011512139 0.0012096952 0.0011242243 
 6052000    284.29424   -127.54546   -2859.7069    982.35914   -359.17289    4192.4312 0.0011506393 0.0012094567 0.0011242012 
 6054000    312.40408   -127.54167    1437.7644    368.97405    903.36792   -2066.7297 0.0011509527 0.0012092762 0.0011238223 
 6056000    301.03535   -127.64545   -1324.9541    3701.2605   -298.76556    39.469983 0.0011507046 0.0012091436 0.0011234708 
 6058000    341.07207   -127.61743    1417.0511   -598.45627    4574.0003   -118.18143 0.0011504603  0.001209322 0.0011231302 
 6060000    302.11389   -127.87242    414.26973   -1427.9113     1342.302   -3097.2973 0.0011518193 0.0012091925 0.0011227595 
 6062000    289.87609    -127.8209   -2152.6513   -1575.2539    297.13857   -2297.1771  0.001153641 0.0012089758 0.0011222593 
 6064000    273.82276    -127.8988    134.45881   -897.01164    1215.0835   -1020.3057 0.0011552969 0.0012085109 0.0011218632 
 6066000    339.95848     -127.588   -2261.3869   -1983.8966   -2788.9954   -511.10729 0.0011557284 0.0012087188 0.0011214939 
 6068000    309.06484   -127.25522   -85.973637   -800.89932    243.20059    604.65903 0.0011553851 0.0012092492 0.0011213085 
 6070000    318.34947   -127.01498    1749.0047    2523.8575    419.94663    -1599.397 0.0011556814 0.0012091719 0.0011215845 
 6072000     278.2257   -127.37645     -1800.22    608.26793    647.94392   -994.09159 0.0011552092 0.0012087827 0.0011228172 
 6074000    303.58299   -127.37683    1729.7385    2315.2507   -1658.4335    295.57301 0.0011551288 0.0012090006 0.0011245195 
 6076000    322.07223   -128.39732   -2049.5411    915.33246    1062.3828    1219.1534 0.0011549028 0.0012084787 0.0011259537 
 6078000    284.04756    -127.3374   -845.42377   -1064.5414   -134.71528   -2690.2428 0.0011545613 0.0012080657 0.0011257972 
 6080000    304.19266   -127.45028    388.42419    962.21214   -12.837443   -1016.8408  0.001154187 0.0012076258 0.0011255105 
 6082000    337.17652   -128.39653   -3234.0511   -3441.1593   -3568.5406    1752.8226 0.0011539289  0.001207375 0.0011251216 
 6084000    289.46821    -128.2028    1683.1414   -379.76129   -513.82551   -1866.6437 0.0011535435 0.0012070627  0.001124845 
 6086000    302.24031   -127.79332   -829.71382   -431.39912   -5205.2895    844.15377 0.0011533607  0.001206593 0.0011245673 
 6088000    285.13597   -128.00586    1226.0784    290.24368    2250.4422    1590.6722 0.0011529688 0.0012061945 0.0011242771 
 6090000    290.33233   -127.11622    1511.0491    2211.0669   -1836.6329   -1800.7086 0.0011526907 0.0012058209 0.0011240077 
 6092000    325.47154   -127.11681   -2014.6547    944.74845    756.10105    1098.6295 0.0011527209 0.0012065445  0.001123716 
 6094000    293.75093   -127.18408   -85.457981   -2421.5562    5694.2967   -2626.2463 0.0011522972 0.0012073761 0.0011232699 
 6096000    302.40886   -127.56527   -3109.3665     331.9702    682.59837    100.73153 0.0011518766 0.0012076554 0.0011228769 
 6098000    290.62556   -127.79268    382.50042   -345.00084   -443.66844    2885.4385 0.0011516175 0.0012072748 0.0011225242 
 6100000    277.44714   -127.79664   -503.86863   -325.50787   -4641.0864    1403.2301 0.0011518672 0.0012069788 0.0011224468 
 6102000    307.66507   -127.44326   -71.107213    2405.6706   -2766.0527    1972.7901 0.0011523992 0.0012064254  0.001123072 
 6104000    255.93227   -127.58282    1100.8242    906.18954   -226.09148    2062.4926 0.0011522328 0.0012060859 0.0011234277 
 6106000    312.99757    -128.0923   -2549.6951   -4438.9821   -71.809155    2861.7043 0.0011522156 0.0012056668  0.001123197 
 6108000    325.31235   -126.95503    1009.9402   -1535.6867    2204.1788    1902.0016  0.001151837 0.0012054207  0.001122891 
 6110000     351.8581   -127.08503   -1342.6538    24.467578    785.48632   -271.03445 0.0011516707 0.0012053588 0.0011225979 
 6112000    312.24715    -127.5244   -834.12303   -846.97719     3167.771    165.53625 0.0011512445  0.001205836 0.0011223123 
 6114000    315.76965    -127.7423    1328.3791    227.44773   -945.61193    1766.3428 0.0011509618 0.0012054335 0.0011223326 
 6116000    278.17138   -127.61596   -920.38699    1348.7845    -891.4805   -1263.4908 0.0011511744 0.0012052318 0.0011225496 
 6118000    311.44419   -127.44967    1353.2618    1518.5606    681.94247    3475.6485 0.0011517157 0.0012048963 0.0011231176 
 6120000    275.50985   -127.59423     -1797.78     3112.067   -786.36827    4040.4277 0.0011548043 0.0012045455 0.0011252406 
 6122000    325.03812   -127.42728   -1407.3661    435.14014    1455.6132    2373.0076  0.001154799 0.0012042999 0.0011277849 
 6124000    326.16055   -127.29984   -1658.3328    1629.1857    1644.5638      4994.57 0.0011546048 0.0012048306 0.0011276056 
 6126000    319.99268   -127.80683   -1508.3145   -2057.8499    1099.7825   -4711.7628 0.0011541682 0.0012062651 0.0011274811 
 6128000     270.8116   -126.37459    1514.6368   -2529.0448    2349.5719    2643.7111 0.0011538141 0.0012064984 0.0011271523 
 6130000    302.09074   -127.19179   -806.13971   -1159.2382    2251.8632   -2860.7088 0.0011534337 0.0012063663 0.0011268864 
 6132000    372.64008   -126.40093    2528.0895   -3400.0547    1428.7297   -2885.2865 0.0011535348 0.0012057666 0.0011268828 
 6134000    315.47074    -127.6439   -1348.9753   -3298.0915   -2022.0525    3626.7089 0.0011551497 0.0012052389  0.001126521 
 6136000    305.63092   -127.15436   -767.87894    451.57458   -890.51149    594.37536 0.0011547043 0.0012046375 0.0011261948 
 6138000     298.7481   -126.88427   -1141.8675     472.5277   -2531.1178   -3934.1746 0.0011547022 0.0012048156 0.0011259409 
 6140000    279.64604   -127.54775   -1567.7441    1866.9407    363.04393   -2851.6834 0.0011544277 0.0012046221  0.001125586 
 6142000    334.52471   -127.16365    1895.0303   -485.54235   -2125.2681    -1501.737 0.0011541373  0.001204156 0.0011251862 
 6144000    301.15588   -127.57032   -801.30209   -575.46677   -1267.2259    447.58243 0.0011537346 0.0012037298 0.0011251014 
 6146000    305.43434   -127.47152    1644.0491    438.16793    1128.2424    94.701019 0.0011535281 0.0012033491 0.0011248449 
 6148000    300.87861   -127.33856    49.210833   -1936.2968    1041.6679   -627.06069 0.0011534737  0.001203675 0.0011251714 
 6150000    289.30084    -126.5137   -594.48484     1460.479    1989.7435     5004.911 0.0011530832 0.0012036169 0.0011254495 
 6152000    282.65223    -127.7368   -2494.6001   -3062.3554     2157.307   -615.81759 0.0011526267 0.0012031621 0.0011255145 
 6154000    293.76803   -128.27139   -2651.1579   -2994.9219   -1438.6728    826.03213 0.0011521978 0.0012032403 0.0011253001 
 6156000    277.67569   -128.34933    -163.3133    449.76098   -440.15058    387.51468 0.0011522338 0.0012045457 0.0011248875 
 6158000    278.34403   -128.10319   -1081.9448    1998.8883   -3276.2588    2190.1787 0.0011520194 0.0012046185 0.0011249827 
 6160000    308.13912    -128.0105     1226.823   -373.51778   -5028.2184   -894.91156 0.0011516077 0.0012048998 0.0011247449 
 6162000    284.72843   -127.78024   -1033.9176    583.89626   -803.94502    2459.2315 0.0011511334 0.0012042854 0.0011244522 
 6164000    337.49131   -128.18813    -1519.931    2187.3404   -2865.7918   -185.83527 0.0011506496 0.0012042687 0.0011248373 
 6166000    327.72833   -127.80421   -251.43629    1371.1223   -2069.9976   -801.60329 0.0011502141 0.0012037448 0.0011249213 
 6168000    299.51386   -127.46858   -2093.4268   -152.45009   -1054.3587   -524.53317 0.0011500068 0.0012034816 0.0011251747 
 6170000    298.65089   -128.22659    1290.2908   -2376.1786    2609.1981   -750.64091 0.0011501451  0.001204483 0.0011256171 
 6172000    295.22653   -127.64575    393.93858   -880.98983    423.73505    1542.5591 0.0011496231 0.0012047657 0.0011273271 
 6174000    313.29051   -127.66555    2885.8942   -3018.1672    2700.0404    1646.4677 0.0011494775 0.0012044804 0.0011274469 
 6176000    302.34715   -128.02503    2867.6241   -1225.2815     2302.413    1318.8303 0.0011497509 0.0012046021 0.0011271688 
 6178000    307.44189   -128.25635    -1938.483   -595.05316    1081.0057    1895.3616 0.0011490382 0.0012042554 0.0011267786 
 6180000    315.39765   -128.20483      2353.09    -1588.659    1207.9119   -619.01424 0.0011486369  0.001203982 0.0011268179 
 6182000    306.63742   -127.82567   -2819.8249    788.64914    2589.4714    1592.6837 0.0011485178 0.0012035644 0.0011263784 
 6184000    322.70211   -127.42574   -954.53029    2167.7974   -3294.6153   -1222.9074 0.0011484779  0.001203199 0.0011258543 
 6186000    316.74547   -128.21043   -587.91807    426.70939   -274.13631   -3628.2035 0.0011480707 0.0012031703 0.0011258229 
 6188000    343.78811   -127.40034   -5114.9551    -884.6288   -2480.5671    2374.2283  0.001148421 0.0012028765  0.001127017 
 6190000    283.42224   -127.52945    1665.3152   -1329.5627   -1745.2028    468.24924 0.0011491544 0.0012025087 0.0011276229 
 6192000    291.35125   -127.41378   -4717.8337   -844.86008    2432.9927    2238.4958 0.0011489755 0.0012021983 0.0011279564 
 6194000    297.09387     -126.858    832.49364   -3879.7464    -555.1876    937.97609 0.0011497719 0.0012018053 0.0011287965 
 6196000    308.90978    -127.6417    2490.6598   -1288.3583   -647.65515   -790.52222 0.0011502874  0.001201481 0.0011303755 
 6198000    314.40267   -126.61213   -311.46261    672.22731    596.92367   -1701.4566  0.001149887  0.001201281 0.0011324364 
 6200000    301.69171   -127.04022    6082.6758    1188.6549    -132.5351   -2020.9748 0.0011497253 0.0012008648 0.0011334079 
 6202000    277.50935   -127.37596   -1225.0512    1969.8024    1660.1308   -104.12265 0.0011492484 0.0012007625 0.0011335055 
 6204000    286.64209   -126.41546    1325.7888   -794.84846   -691.79991   -467.60579 0.0011494777 0.0012008193 0.0011330594 
 6206000    323.31802     -126.716    485.82622   -772.37146   -1091.5317    2290.8378 0.0011491876 0.0012004344 0.0011329444 
 6208000    326.44496   -126.81184   -5146.4241   -391.34839     1821.352   -3620.5783 0.0011487969 0.0012001735 0.0011334507 
 6210000    282.44052   -126.91118    662.38889    2560.0388   -3329.3929    4168.1282 0.0011484316 0.0011999279 0.0011331808 
 6212000    280.44202   -127.20159   -4132.4524    2835.6523    3690.1713   -2432.2957  0.001148344 0.0011995527 0.0011332274 
 6214000    328.38183   -127.32747   -122.92255   -2022.8857   -2633.2992   -541.91615 0.0011482483 0.0011993474 0.0011329058 
 6216000    300.08451   -126.86484    1123.4635     623.9769     2427.079    2200.8854 0.0011497066 0.0011990024 0.0011327723 
 6218000     278.8382   -127.81034   -1873.1461   -3356.8601    2764.3022   -91.782395 0.0011510192 0.0011986666 0.0011329884 
 6220000    312.52665   -127.61128    3619.8026   -1540.7116    1332.1487    1605.1418 0.0011508728 0.0011981765 0.0011329919 
 6222000    318.62645   -126.93637   -1725.5315    785.13882    3966.2579    1355.0567 0.0011506036 0.0011976831 0.0011328093 
 6224000    287.87378   -127.32546    1720.7702   -1182.8313    1156.6982    1817.8576  0.001151385 0.0011972989 0.0011324544 
 6226000    329.07334   -127.93087    321.04312    103.08285   -985.23093   -392.97459 0.0011537941  0.001196768 0.0011323331 
 6228000    289.67451   -127.98749   -1801.7722    808.69521   -640.09973    262.43342 0.0011560221  0.001196268 0.0011319402 
 6230000    278.30209   -127.98644    2234.3163    3049.0936   -3073.5053    660.20493 0.0011564011 0.0011957758 0.0011317027 
 6232000    304.14186   -126.85434   -2846.4678    376.29377   -2600.5109   -2223.6298 0.0011559862 0.0011954217 0.0011312278 
 6234000    310.39167   -127.12508    1234.4829    966.46575   -2694.6589     1070.625  0.001156595 0.0011951085 0.0011307844 
 6236000    329.35371   -127.37238   -3805.6152    3750.8394     1133.576   -3236.6905 0.0011568609 0.0011957585 0.0011315443 
 6238000    282.03748    -127.1914   -1615.4728   -1340.8314    2933.9063     991.4877 0.0011569527 0.0011953685 0.0011319331 
 6240000    287.57893   -128.09428    469.53144    329.53952    1291.9015   -420.69766 0.0011580376 0.0011949618 0.0011317895 
 6242000    298.98154   -127.72015   -3611.2062   -3469.1398    3070.0824   -748.18968 0.0011581572 0.0011952187 0.0011320871 
 6244000    265.77308   -127.20428    5071.5458   -1506.4445    2954.3449     1652.502 0.0011595024 0.0011964367   0.00113191 
 6246000    314.19203   -127.26046   -1721.2356    117.46387    3369.0631    2145.0048 0.0011601475 0.0011959095 0.0011316184 
 6248000    288.53783   -127.92086    90.453811    441.16001    215.14454    1845.8505 0.0011596653 0.0011957632 0.0011312276 
 6250000    301.37521   -127.72409    2814.0194    925.35823    40.324919    1685.0972 0.0011592714 0.0011954313 0.0011309055 
 6252000    338.03641   -127.56864   -5027.3092   -1115.4611   -1148.4303    1111.3364 0.0011591621 0.0011949902 0.0011308279 
 6254000    273.55386   -127.39779    3676.0466    601.38732   -2502.0416    122.68167 0.0011602137 0.0011948634 0.0011307731 
 6256000    278.76071   -127.03666    -4204.129    170.26552   -3174.4845    618.86564 0.0011604896 0.0011949015 0.0011313344 
 6258000    303.83813   -128.86471   -574.02071    614.81876   -1848.0321   -319.91563 0.0011601169  0.001194488 0.0011311605 
 6260000    342.96219   -127.88736    756.56584   -127.89268   -1667.5066     1339.827  0.001159739 0.0011940104 0.0011306961 
 6262000    328.73364   -128.61433   -5448.9719    336.57708      1220.77    -1247.626 0.0011595747 0.0011936044 0.0011303665 
 6264000     328.6765   -128.06866    3926.3639   -192.64441    320.99128   -1172.6436 0.0011589968 0.0011933774   0.00112999 
 6266000    277.80589   -128.24454   -4340.7739   -1401.1806    1548.2154    89.058417 0.0011593901 0.0011935018 0.0011295848 
 6268000     274.2286   -127.85104    1385.4572    967.19451    671.99585   -857.44359 0.0011587981 0.0011932749 0.0011294818 
 6270000    277.17211   -127.92617    3431.5214    -1540.761    1575.0221    167.78656 0.0011588733 0.0011930347 0.0011290788 
 6272000     306.3629    -128.3322    -3282.885   -12.209268    1424.1232    1372.4597 0.0011587114 0.0011930945 0.0011289721 
 6274000    309.07572   -128.62435    5108.6529   -2244.5738   -1203.7353     3597.649 0.0011582704 0.0011933938 0.0011286232 
 6276000    299.12638   -127.34076   -3037.0141    -1438.223   -2318.2761    831.67054 0.0011579121   0.00119293  0.001128176 
 6278000    288.57234   -127.31578   -349.47995    419.20556     -2418.96    1138.0803 0.0011576411 0.0011925613 0.0011280831 
 6280000    294.19341   -127.38096    2092.3528   -742.15614   -1318.2359    1780.8067 0.0011573214 0.0011928117 0.0011277895 
 6282000    315.86506   -127.96558   -6860.4014    2631.5902   -184.67307   -3192.9961 0.0011569767 0.0011923317 0.0011273436 
 6284000    281.22332   -127.63686    3125.0386     1122.973   -2929.3243   -630.99894 0.0011567483 0.0011923786 0.0011271566 
 6286000    267.21136   -128.54092   -3624.8892    2807.8959   -696.99119   -1822.1819 0.0011565883 0.0011918302 0.0011267531 
 6288000    303.88346   -127.55524    112.70822    193.01921    2649.4692   -1092.0034 0.0011563762 0.0011913617 0.0011263776 
 6290000    280.31491   -126.76585    2893.4779    3449.8567    3561.0868    2336.8676 0.0011559918 0.0011909779 0.0011260473 
 6292000    304.36535   -127.07531   -4501.0208    3584.6976    892.57798   -2201.7801 0.0011560416 0.0011906591 0.0011264127 
 6294000    338.66524   -127.39006    4914.9466    3.2316778   -1269.4163    555.04393 0.0011554962 0.0011905408 0.0011261689 
 6296000     320.4052   -127.63261   -2633.8337    1139.2619    1950.2894    128.98335 0.0011552948 0.0011902155 0.0011256522 
 6298000    304.68977   -127.87797   -367.66261   -2591.7449   -1958.5559   -1762.3291 0.0011549088 0.0011898631 0.0011251917 
 6300000    305.59099   -128.19337    675.15302   -2809.5334    2116.4151    3011.9139 0.0011546889 0.0011900079 0.0011247583 
 6302000    301.98703   -127.52018   -4235.7057   -1221.2412    443.84691    1992.1217 0.0011542078 0.0011901741 0.0011244218 
 6304000    295.99857   -128.04712    2203.1239    -464.8006   -1767.8548    2709.5599 0.0011537901 0.0011906848 0.0011242282 
 6306000    308.30482    -127.5057   -3325.9012   -71.939837   -711.43347    1624.9938 0.0011534802 0.0011906216 0.0011239386 
 6308000     286.5393   -127.66868     1577.859   -2464.8391    398.33266    1581.4129 0.0011533476 0.0011902418 0.0011236402 
 6310000    314.15773   -127.92047     1402.355    2449.7847    1664.3786   -1285.8564 0.0011532308 0.0011900366 0.0011240892 
 6312000    301.04886   -128.12857   -702.99466    127.04823     2515.553   -1063.3655 0.0011528607 0.0011909742 0.0011242722 
 6314000     267.5624   -128.29232    1677.3229    1822.0257    2702.5231   -2012.9101 0.0011525437 0.0011914134 0.0011245646 
 6316000     272.2234    -127.4518   -2625.8143    469.64973    2289.7825    313.14826 0.0011524316 0.0011918819 0.0011247779 
 6318000    276.76008   -127.44718   -735.23687     869.6434   -775.67457   -1494.2548 0.0011521538  0.001191314 0.0011252058 
 6320000    305.07961   -127.74969   -1307.6298    2108.9526    18.100637    555.65246 0.0011517909  0.001191038   0.00112535 
 6322000    312.62036   -127.73306   -1099.9514   -431.80219   -3560.5567     2833.241 0.0011514484 0.0011907805 0.0011250146 
 6324000    314.29531    -128.0636      1114.15   -4306.0317   -2500.0908    809.10655 0.0011511744 0.0011905901 0.0011251544 
 6326000    307.95971   -127.57627   -1063.0251   -1126.5935   -1252.1057    1746.3254 0.0011508735 0.0011904077 0.0011249982 
 6328000    259.49813   -127.84183    475.63226   -1707.9672   -492.01968    708.62303 0.0011505462  0.001190627 0.0011245902 
 6330000    281.61469   -127.80233    -2047.675   -313.97918    1523.5378    560.97565 0.0011506026 0.0011902762 0.0011242412 
 6332000    282.79252   -127.57392    270.96408   -1995.6184    844.55542   -529.59532 0.0011510192 0.0011899075 0.0011238897 
 6334000    324.40418   -127.94593   -887.42272    -1400.826    2486.4247   -2010.5176 0.0011503651 0.0011906965 0.0011236629 
 6336000     305.1616    -127.7761   -294.57815    1565.1703    1593.7491    623.41706 0.0011500189 0.0011921082 0.0011232635 
 6338000    323.01555   -127.30965    428.35515   -1227.7451   -360.51099   -614.93436 0.0011497512 0.0011920315 0.0011234539 
 6340000    296.93214   -127.91944   -1788.1193    1778.6766   -256.18019    2520.5563 0.0011500444 0.0011919215 0.0011228425 
 6342000    320.40322   -128.61626   -374.29501   -492.99186   -3540.3789   -998.58258 0.0011496187 0.0011919381 0.0011226823 
 6344000    291.93107   -128.52062   -2526.8881   -1381.8693    898.86828   -2880.0287 0.0011493002 0.0011915963 0.0011228896 
 6346000     304.5548   -127.52661   -1744.4858    65.265542    801.69945   -1208.6941  0.001149105 0.0011912995 0.0011225361 
 6348000    342.47949   -128.40378   -172.25958    1123.0094   -927.24399   -2266.3027 0.0011487837 0.0011909458 0.0011221854 
 6350000    320.35277   -128.87075   -1127.8109   -569.97353   -1394.1182    502.38914 0.0011486395 0.0011907668 0.0011217503 
 6352000    293.73584   -127.72929    3393.0852    -36.23715   -3024.6637   -2324.6238 0.0011486042 0.0011904184 0.0011217994 
 6354000    297.23039   -127.98153   -630.83468   -1650.7093    2445.9375    2987.3385 0.0011482455 0.0011901809 0.0011216535 
 6356000    312.80604   -128.52377   -470.81256    1173.8153   -1209.9046    4040.5491 0.0011478799 0.0011901641 0.0011212018 
 6358000    267.20154   -127.94505   -1321.8467    655.16774    2213.9907    2898.1104 0.0011477998 0.0011896662 0.0011209333 
 6360000    311.10117   -127.84173   -1937.8176   -926.13705   -297.76229    2174.0082 0.0011477011  0.001189525 0.0011210021 
 6362000    297.42752   -127.09158    428.84709    2916.5852   -134.10111   -1870.6053 0.0011474774  0.001189247 0.0011204927 
 6364000    317.44571   -127.76896   -454.40757   -3134.7397    3034.1585    3241.1055 0.0011471784 0.0011888653 0.0011202869 
 6366000    302.60598   -127.55782     1660.743    3074.4524   -351.38136   -639.89837 0.0011467867 0.0011887008 0.0011202282 
 6368000    290.12598   -127.63844    -26.92974   -159.44273    1062.6058   -3176.4995 0.0011464997 0.0011881688 0.0011200181 
 6370000    285.34329   -127.59379   -953.46976    2332.5052    1533.8425   -1103.8445 0.0011465145 0.0011877661 0.0011199961 
 6372000    269.71303   -128.01769    377.93707    2053.4834    1421.5863   -1273.5068 0.0011461689 0.0011874235 0.0011195649 
 6374000    293.81007   -126.99318   -1918.7767   -1914.0769    1538.3942    2225.9818 0.0011461909 0.0011871878 0.0011192073 
 6376000    303.59684   -127.36808    1161.9932    3936.5778    914.73799   -3412.2989 0.0011470467 0.0011866204 0.0011192145 
 6378000     304.4733     -127.533    1277.0912   -4733.0489   -1232.5366    1860.8407  0.001146971 0.0011865713 0.0011198876 
 6380000    295.21812   -128.04609   -871.61483    3159.8645    -3305.329   -2295.9498 0.0011466223 0.0011868716 0.0011195343 
 6382000    296.34532   -128.27644    1456.8874    664.13635   -1669.5752   -3028.4049 0.0011462744 0.0011870586 0.0011191122 
 6384000    305.54153   -128.18273   -2245.5525    2342.8552   -1312.9229   -621.25832 0.0011458423 0.0011869808 0.0011189859 
 6386000    282.03589   -127.67375   -1258.2561    4630.6372   -445.18037    384.06706 0.0011454249 0.0011863718 0.0011189925 
 6388000    277.02387    -127.2076   -2173.6854    653.52904    60.417863    2744.3045 0.0011454093 0.0011859502 0.0011184316 
 6390000    356.33363   -127.26599   -2304.2562    1848.8886   -617.23191    1614.7921 0.0011457438 0.0011857722  0.001118297 
 6392000    316.29309   -127.61178    1019.2584   -1481.8873    4014.7931    382.96603  0.001145499 0.0011852791 0.0011185006 
 6394000     283.9914   -127.72199   -1092.9004   -2453.7959    67.013272    2226.7984 0.0011458574 0.0011850584 0.0011186949 
 6396000    270.65862   -128.17546    1336.7951    640.12822    3082.4293   -2853.8379 0.0011458091 0.0011845808 0.0011187504 
 6398000    301.55744   -128.22189     844.1202    -4044.083    811.51738   -522.54035 0.0011457104 0.0011848376 0.0011185619 
 6400000    286.28131   -128.40448   -1461.3862    2615.4218   -2630.4541   -1626.8935 0.0011460696 0.0011843062  0.001118975 
 6402000    305.46954   -128.01739    920.72708   -1138.7368    -2754.683   -1899.3314 0.0011460986 0.0011847665 0.0011189616 
 6404000    266.48483   -127.16603   -1917.5115    1913.4336   -1254.2105    361.17411 0.0011463566 0.0011844609 0.0011192242 
 6406000    317.90732   -127.21424   -1326.3691   -1042.9827   -2241.0037    587.26256  0.001147408 0.0011844485 0.0011196291 
 6408000    266.21961   -127.38429   -94.864705   -2618.5607   -322.70388    4637.5889 0.0011493774 0.0011842043 0.0011191019 
 6410000     303.5556   -128.00714   -1905.4537    863.78584   -87.336724    660.83158 0.0011507015 0.0011836982 0.0011186985 
 6412000    322.65837   -126.99108     1991.198   -3913.8711    1724.5849    4502.2561 0.0011515249   0.00118394 0.0011182508 
 6414000    296.41632   -127.32735    529.09975   -848.23123    -25.01536   -221.89445 0.0011515191 0.0011841816 0.0011185022 
 6416000    313.80756   -128.05766    289.97786    2451.7054    341.26218   -1501.6968 0.0011512009  0.001183963 0.0011193273 
 6418000    282.00334     -127.488    1143.8302     3251.302   -1885.5809    -5365.141 0.0011506624 0.0011845725 0.0011203764 
 6420000    287.33022   -127.58391   -52.766176    1698.1836    1486.6893    385.94719 0.0011504774 0.0011847646 0.0011219121 
 6422000    275.13414   -126.93921    377.25456   -1379.6455   -1605.1691     -2023.38  0.001150087 0.0011847176 0.0011219053 
 6424000    297.77745   -127.80869   -878.00309   -940.52356    700.63284   -1449.1742  0.001150194 0.0011845425 0.0011220686 
 6426000    336.70122   -128.00091   -1726.5881    1260.7783    894.51966   -1367.7168 0.0011499623 0.0011843751 0.0011221373 
 6428000    279.87721   -127.27412   -717.09766   -716.22934   -2601.0135   -875.66228  0.001149692 0.0011839473 0.0011217878 
 6430000    277.49782   -127.53535   -948.22983   -516.27966   -90.698479   -1364.1131 0.0011492594 0.0011844727 0.0011213975 
 6432000    290.84994   -127.52222   -992.63548   -1703.0014   -1183.7198   -428.93708 0.0011489027 0.0011852934 0.0011210509 
 6434000    325.63918   -126.99129    288.47801   -206.61273    1886.6235     4140.093 0.0011486608 0.0011850717 0.0011210394 
 6436000    332.44065   -126.78108   -431.35264    4329.1898   -864.34464    2075.8158 0.0011488212 0.0011854778 0.0011206911 
 6438000    341.01334   -127.13064    330.57297    3920.2289    1314.0086   -658.56092 0.0011486816 0.0011858422 0.0011209242 
 6440000    297.91146   -126.65434    1496.3664    888.61709    3453.8647   -586.29498 0.0011486552 0.0011861952 0.0011203435 
 6442000    245.03028   -127.38589    301.60327   -466.59584   -401.07523   -837.27078 0.0011484593 0.0011857099 0.0011199787 
 6444000    293.55558   -127.67103   -204.03539   -100.89877    1341.2523    2010.1044 0.0011483291 0.0011855342 0.0011201729 
 6446000    318.68528   -127.69484   -2212.7164   -3508.5945   -1833.8782   -730.76545 0.0011498972 0.0011857298 0.0011203047 
 6448000    316.40423   -127.66184   -2878.5608   -1248.6971    944.24671    -319.6057 0.0011495899 0.0011854964 0.0011208617 
 6450000    325.31548   -128.05611   -1152.7926   -3578.4003    -556.8722   -1118.7165 0.0011492503  0.001185412 0.0011211723 
 6452000     305.4462   -128.14703    -4186.339   -2335.2805   -821.67192    504.46748 0.0011487622 0.0011850954 0.0011215211 
 6454000    317.78991   -127.09808    822.80126   -2175.6294    1994.2452     135.3696 0.0011485214 0.0011853166 0.0011216926 
 6456000    339.01477   -128.20418   -375.16172   -11.075125    394.07925    3246.8751 0.0011482265 0.0011848037 0.0011212827 
 6458000    261.98377   -127.01477   -32.833882    4246.0305    1387.3163    380.38437 0.0011479784 0.0011842798 0.0011210531 
 6460000    294.01493   -127.84159    1790.6842     327.2862    409.13964    1594.7412 0.0011477053 0.0011838759 0.0011205745 
 6462000     280.6513   -127.66212   -351.07604    2632.8218    3005.7196   -3234.7202 0.0011472768 0.0011835176 0.0011202548 
 6464000    264.09976   -127.69989     552.6361   -685.79061    2083.7643     398.1039 0.0011468343 0.0011831692 0.0011204367 
 6466000    313.33984   -127.07702    222.13674    -3181.122    608.86521   -3704.4961 0.0011466201 0.0011829801 0.0011205989 
 6468000    328.80257   -127.35085   -1660.2153     711.6826   -3234.9292   -298.60858 0.0011464787 0.0011825939 0.0011203445 
 6470000    297.58777   -127.66352    537.58414   -5825.9693    1348.9767    972.38353 0.0011465634 0.0011826113 0.0011200627 
 6472000     295.0471   -126.72083   -2590.2021   -672.95831   -3112.1102   -1680.6058 0.0011466319 0.0011829463 0.0011197577 
 6474000    333.48202   -127.68527    566.19764   -2966.1499    648.60104    2345.9228 0.0011463422  0.001182572 0.0011194816 
 6476000    318.46291   -127.29305   -1191.3936    1852.9267    1630.9777    2847.8234  0.001146454 0.0011823032  0.001119276 
 6478000    331.61942    -126.8308   -597.42037   -1858.7637    1225.3942    1942.5852 0.0011461716 0.0011819765 0.0011201493 
 6480000    317.39378   -127.68005    834.33884    1305.7725    1252.0351    2620.2108 0.0011459109 0.0011820659 0.0011213002 
 6482000    324.33345   -126.49121   -1273.6333    3662.3434    2351.3638   -2163.9835 0.0011455877 0.0011819905 0.0011218699 
 6484000     279.6025   -127.91718    402.62864     1156.948    4939.2452    384.06542 0.0011453164 0.0011826374 0.0011223328 
 6486000    291.45172    -127.5173   -130.82495    3160.5346    2992.1029   -4195.8246 0.0011457006 0.0011843094  0.001122015 
 6488000    272.96171   -127.27114   -1299.9836   -3358.2421    187.67044   -3998.4923 0.0011455569 0.0011861141 0.0011217568 
 6490000    292.10882    -128.2246    292.25619    -2852.939   -2607.4131    193.89553  0.001145199 0.0011863525 0.0011215462 
 6492000     310.2882   -127.21977   -1877.9503   -1179.1142     -591.719   -332.14194  0.001144857 0.0011858691  0.001121387 
 6494000    312.79462   -127.56719    473.05086   -222.49984    1141.4099   -1212.7934 0.0011443611 0.0011855444 0.0011214312 
 6496000     309.7393   -127.87063    -841.2159   -400.83693   -929.96506   -4438.1153 0.0011444125 0.0011851654 0.0011212424 
 6498000    325.02934    -127.8639    783.31702    2601.7955    3527.3541    1298.4729 0.0011442641 0.0011849035 0.0011208683 
 6500000    315.60183   -127.34134    1208.8544   -109.97794   -2651.4755   -1095.9737 0.0011437632 0.0011845389 0.0011205043 
 6502000    287.39238   -127.97968   -1479.3499    579.48908    69.471284    1126.9035 0.0011436362  0.001184604 0.0011204854 
 6504000    301.50864   -127.85245    1435.8307    1443.5208   -1897.0129    555.89018 0.0011433997 0.0011850156 0.0011213579 
 6506000    270.72505   -127.35298   -2110.9438    206.63754   -1116.6428    -1634.552 0.0011430766 0.0011852517 0.0011215338 
 6508000    281.13725   -127.76849   -1039.6872   -2153.4679    913.92961    3013.0672 0.0011428226  0.001185515 0.0011214284 
 6510000    324.54641   -128.06104    21.338592    381.25419    482.06829    439.03062 0.0011426668 0.0011850938 0.0011210221 
 6512000    366.44525    -127.8233   -2790.7584   -4001.9186    2998.7677   -693.61493 0.0011423988 0.0011849296 0.0011207152 
 6514000    314.27015   -127.53001    209.21746    1456.4113    -852.4961    423.57455 0.0011427304 0.0011846401 0.0011204879 
 6516000    310.88568   -127.48654   -2699.1539   -92.917189   -1499.2494    1228.9793 0.0011430406 0.0011842827 0.0011202725 
 6518000    294.81816   -127.54983   -376.43769    2072.9914    1795.1157    1375.7397 0.0011431322 0.0011840415 0.0011199109 
 6520000     316.4491   -127.61267    867.09238    540.18396   -3998.7513    1320.9723 0.0011437983 0.0011835972 0.0011195442 
 6522000    329.49425   -127.54448   -1322.6306   -1635.6264   -284.29777   -889.16923  0.001143957 0.0011833621 0.0011195061 
 6524000    302.40852   -127.94205    1377.8041    6691.6475   -1622.3709    1553.6789 0.0011437198 0.0011835685 0.0011191776 
 6526000    263.01253   -127.33342   -568.43576     3169.966   -30.401249    112.82002 0.0011432968 0.0011835285  0.001119108 
 6528000    260.29615    -128.2739   -569.99885    3274.1765   -524.71472   -2409.1594  0.001143325 0.0011832604 0.0011189991 
 6530000    296.65915   -127.81032    43.866455    574.78182   -296.36915   -3169.6893 0.0011437801 0.0011839956 0.0011186952 
 6532000    319.31727   -127.93759    -1842.823   -3772.8237    2848.9896   -155.83212 0.0011451649 0.0011842313 0.0011183792 
 6534000    291.11086   -127.42963    544.90294    656.20135    2998.7186   -1066.0034 0.0011463664 0.0011839154 0.0011180432 
 6536000     290.3564   -127.15955   -2094.1304   -6367.9467    2005.4445    2828.5643 0.0011469369 0.0011836675 0.0011181962 
 6538000    309.48075   -128.19145    792.85318   -1077.8683   -983.39477    3700.9311 0.0011484941 0.0011834225 0.0011179115 
 6540000    315.58301   -128.27643    77.346519    -1826.611   -587.23103    -1091.871 0.0011505278 0.0011842113 0.0011175604 
 6542000    301.06912   -128.66714   -1358.0304   -2360.3168   -3014.0614    1120.9246 0.0011510859 0.0011840577 0.0011173421 
 6544000    277.78102   -128.47955    1023.5596    3456.7289   -1931.4487    379.54962 0.0011513508 0.0011836702 0.0011169908 
 6546000    279.65302    -127.5455    -2612.489   -242.42349   -1720.4091   -844.40843 0.0011513445 0.0011834216 0.0011170606 
 6548000    295.46135   -128.32522     244.0237    3677.7776   -101.86849    2497.6048 0.0011516875 0.0011837773 0.0011167289 
 6550000    305.32641   -128.67788    561.11689   -1461.3968   -365.37628    99.650095 0.0011525312 0.0011835039 0.0011164821 
 6552000    290.27441   -128.53618   -1865.2055   -1172.2874    647.72852    629.59044 0.0011529635  0.001183205 0.0011163325 
 6554000    277.75255   -128.09512     2030.901    2336.6837    3217.8198   -4512.0747 0.0011530215 0.0011825534 0.0011163831 
 6556000    279.96489   -129.05753   -2711.2031   -2469.2743    527.20734   -1158.5629 0.0011535441 0.0011821945 0.0011158543 
 6558000    283.13599   -127.71701   -2166.7682     1428.048    1532.5605   -955.10848 0.0011536673   0.00118228  0.001115827 
 6560000    273.76067   -128.41028   -1067.4851   -1404.8136    -395.8236    496.82442 0.0011536116 0.0011819203 0.0011160161 
 6562000    298.78412   -128.50419   -3529.2327     680.3177     1807.199    5655.0978 0.0011532278 0.0011820856 0.0011160393 
 6564000    281.68892   -128.05585    2008.2384     4401.799   -474.17517     2323.014 0.0011529923 0.0011817896 0.0011156238 
 6566000    295.15638   -128.39981    8.3212485    1373.5546   -2880.5129    5891.1425 0.0011528156 0.0011816471 0.0011154936 
 6568000    293.46547   -128.38389    1032.0961    4537.3492   -2785.6356   -1247.2935 0.0011527884 0.0011813712 0.0011153064 
 6570000    339.08138   -128.43825     1275.951   -4353.1662   -313.11066   -2344.5778 0.0011524616 0.0011813972 0.0011149787 
 6572000    275.63714   -127.59754   -2305.2338    602.54117   -587.51791    -183.1429 0.0011527139 0.0011812651 0.0011150367 
 6574000     357.6126    -127.7848    710.16849   -1622.3895    1268.4518   -4334.0514 0.0011525025 0.0011808479 0.0011152473 
 6576000    339.52894   -128.12741   -3024.5664   -3532.3611    100.23325    512.76909 0.0011526232 0.0011805675 0.0011149343 
 6578000    289.87072   -128.05059    -1667.765   -226.43859    1461.0159    -318.1218 0.0011523233 0.0011802097 0.0011145682 
 6580000    303.15964   -127.84591    2617.8916    -2132.081    1866.4263   -2415.5511 0.0011522907 0.0011798986 0.0011149239 
 6582000    286.35022   -127.78224   -2734.6128   -914.04586    2833.0048    1960.8439 0.0011522434 0.0011795883 0.0011148263 
 6584000    283.83875    -127.4911    1993.5929    1441.6017    4311.7573   -1085.7354 0.0011519296 0.0011793993  0.001114732 
 6586000    284.31049   -128.34371   -2407.6808    2097.6356   -1848.8537    1423.2213 0.0011516064 0.0011790112 0.0011143839 
 6588000     324.1233   -128.21954   -2060.4119    2047.4466   -1439.2483    -115.1126  0.001151288 0.0011786772 0.0011145222 
 6590000     330.0401   -128.39227    810.59183   -866.61303   -1139.1532   -589.29878 0.0011513079 0.0011785772 0.0011142086 
 6592000    285.78678   -127.72345   -2887.1593   -2400.7728   -3737.4455    4400.5928  0.001151115 0.0011780978 0.0011141312 
 6594000    314.47299    -127.8712    2713.0299   -2322.4999    1517.0851   -1796.0836 0.0011517535 0.0011776099 0.0011137184 
 6596000    356.07256   -128.86252    -780.3455   -395.10481   -3539.9385    2747.9095 0.0011525131 0.0011778168 0.0011137459 
 6598000    330.67425   -128.44254   -2170.8817   -26.690427    3675.9117   -2411.3842 0.0011520281 0.0011775813 0.0011134169 
 6600000    291.32649    -127.4957    1912.0003   -3857.6629    2331.8571    77.815731 0.0011516901 0.0011772461 0.0011131059 
 6602000    307.32531   -127.61299   -4172.1789    1071.6781   -586.59987    354.41766  0.001151686 0.0011768558 0.0011128917 
 6604000     323.2679   -127.94866    1455.7356   -2886.3442    946.91082   -256.69521 0.0011519501 0.0011765697 0.0011128697 
 6606000    312.65314   -128.15448    48.076542    575.09811   -2466.6459    3189.6528 0.0011524554 0.0011765374 0.0011129865 
 6608000    299.42712   -128.82419    -138.4736    1869.8661    540.16726    365.48121 0.0011523563 0.0011762762 0.0011131177 
 6610000     282.1452   -127.80881    4111.2511    564.77744    -2252.798    3784.2156 0.0011519645 0.0011760678 0.0011132056 
 6612000    331.42358   -127.93972   -3794.2311    1570.1243   -2187.0724    1130.3866 0.0011518061 0.0011757933 0.0011128731 
 6614000    306.56938   -128.42852    442.81816     751.5833   -631.58396   -1189.0845 0.0011514854 0.0011754361 0.0011125124 
 6616000    318.05767   -128.98157   -4105.2368    399.37394   -1793.8311    1097.3851 0.0011511919 0.0011753044 0.0011122051 
 6618000    289.00818   -127.50132   -2933.3282   -3501.8808    2364.9225    123.31544 0.0011509259  0.001175026  0.001111881 
 6620000     283.5762   -127.72772    1650.7379    1373.6684    516.00582    43.457352 0.0011505882  0.001174707 0.0011116382 
 6622000    332.23384   -127.77939    -4150.286     1491.097    3410.2669    -1982.037 0.0011502517 0.0011745221 0.0011112986 
 6624000    289.85505   -127.50363    4479.9348   -65.520067    3451.1828   -4364.7128 0.0011498527 0.0011742719 0.0011110446 
 6626000        323.7   -128.50877   -2036.9369    4731.7211   -1777.2815   -911.45882 0.0011497471 0.0011740066 0.0011107498 
 6628000    329.65134   -128.40479    61.232613     782.9629   -3344.9551   -999.82285 0.0011493079 0.0011736659 0.0011104656 
 6630000    318.35274   -127.82954    2620.8797   -2701.3685   -3837.9133    1600.7738 0.0011490837 0.0011734347 0.0011103681 
 6632000    312.88059   -128.71825   -2861.3341    270.52213    -3483.351    1656.4179 0.0011486914  0.001173037 0.0011099399 
 6634000     258.7234   -128.19955    3783.0566    -1551.466   -962.24341   -1822.7647 0.0011484285 0.0011733707 0.0011096544 
 6636000    263.26465   -127.91569   -821.82511    2970.4545   -2031.0083    -281.4727 0.0011481367 0.0011735506 0.0011094241 
 6638000    299.95174   -128.08213   -809.31818    1186.3825    2405.0667   -1114.8701 0.0011478139 0.0011730783 0.0011092044 
 6640000     297.9882   -127.25786    1365.9298   -1410.7025      986.787    715.72444 0.0011475961 0.0011726272 0.0011092613 
 6642000    292.23059   -128.13999   -5189.8089    4180.3941    2601.1957    2375.2449 0.0011474241 0.0011728303 0.0011086975 
 6644000    293.30992   -128.38023   -477.88012    1771.8229    3352.8379   -978.48433 0.0011471686 0.0011723516 0.0011086832 
 6646000     275.3776   -127.91479   -3285.6524   -394.46354   -744.03326    1509.0666  0.001146962 0.0011719471 0.0011082831 
 6648000    282.00755   -128.17326   -1040.2485   -162.31234    986.47549    1527.6404 0.0011466317 0.0011719974 0.0011079532 
 6650000    304.33534   -128.31258    1723.6833   -1557.9484   -831.09837      -1271.3 0.0011467169 0.0011719491 0.0011083959 
 6652000    301.04971   -127.85631   -635.48916   -456.17415   -457.79798    1297.7774 0.0011463674 0.0011730737 0.0011084156 
 6654000    272.81305   -127.44461    2421.9387   -1519.8468   -2043.5976    1146.2387 0.0011465889 0.0011732249 0.0011080427 
 6656000    282.47884   -128.31678   -498.51631    118.59074   -571.15534   -933.58892 0.0011464176 0.0011727338 0.0011083423 
 6658000    338.17713   -128.12499    -1053.587    1479.0497   -1001.1508   -758.29486 0.0011462813 0.0011723495 0.0011087527 
 6660000    310.92677   -128.02759    853.37059    1773.2118   -1407.9807   -1387.4791 0.0011468592 0.0011719928 0.0011094072 
 6662000    304.02751   -127.67819   -1082.8792    1590.2684   -658.00607   -896.60965 0.0011465511 0.0011716015 0.0011090498 
 6664000    326.48769   -127.40894    77.050487   -1449.5882   -395.42207   -1574.5209  0.001146261 0.0011712032 0.0011087265 
 6666000    303.00929    -128.0482   -678.06364    750.38409    1584.1311     113.8765 0.0011457942 0.0011708277 0.0011084342 
 6668000    334.44088   -128.99299   -2852.8489   -1299.4697    3448.1272   -180.74101 0.0011454866 0.0011706103  0.001108504 
 6670000    311.55038     -127.956   -525.95001   -293.10383    2263.2639     2275.222 0.0011454166 0.0011702648 0.0011088619 
 6672000    290.71109    -127.1866   -1447.4293   -1231.7901    4459.3202    -2958.475 0.0011450045  0.001169839 0.0011084395 
 6674000    299.07422   -128.17884    166.28243   -2082.2978   -1334.1765    2314.4621 0.0011446542 0.0011695749 0.0011081654 
 6676000    322.46721   -128.20139    2117.9048   -2963.5669    1251.8644   -1869.0402 0.0011444854 0.0011693518 0.0011080556 
 6678000    273.85775    -127.8229    208.17548   -1267.6016   -612.01118    328.26372 0.0011442293 0.0011688903 0.0011077354 
 6680000     288.7201   -128.15426    2248.1342    1026.5834   -325.41484    1859.7637  0.001143904 0.0011686253 0.0011074168 
 6682000    278.45073    -128.5843   -1224.8087    525.49617   -2842.6089    -204.9888 0.0011444689 0.0011682603 0.0011071177 
 6684000    292.83443   -127.83432   -2393.6565    -228.4127   -3344.5675    1065.3614 0.0011441825 0.0011681635 0.0011068304 
 6686000    295.81537   -127.80708    -1925.797   -1065.1733   -328.53875   -1088.2941 0.0011439512  0.001168145 0.0011065202 
 6688000    298.89137   -128.69643   -3980.8035     2371.874    -1174.246   -1750.6827 0.0011437791 0.0011676648 0.0011067709 
 6690000    317.86611   -128.54272    169.48081    -387.7704   -758.80533   -143.95098 0.0011433715 0.0011673438 0.0011063799 
 6692000    315.48285   -128.60173   -109.58005   -2329.8579    3353.6147    1290.9402 0.0011436027 0.0011672577 0.0011059199 
 6694000     305.8133   -128.47581   -736.70863    1323.3584   -3418.2793    1403.6939 0.0011431232  0.001166995 0.0011055102 
 6696000    277.86499   -127.78299    3697.5123   -2963.7673   -102.14903    357.21743 0.0011429547 0.0011666593 0.0011052059 
 6698000    287.89443    -128.1561   -2564.3203    2512.8787    -2735.951    456.80643 0.0011427167 0.0011664002 0.0011052555 
 6700000    296.24121   -128.59457    1019.8525   -1780.1394   -1340.3014    1757.9963 0.0011424853 0.0011662409 0.0011053238 
 6702000     311.7213   -128.47832   -1460.0775   -717.49473    3188.8358   -1769.8148 0.0011430133  0.001166145 0.0011053587 
 6704000    279.53252    -127.6871     -1536.58     3722.022    2234.3023    2047.7448 0.0011428664 0.0011660211 0.0011049584 
 6706000    283.33907   -128.50635    1175.2257   -2740.5345    1271.4923     -1018.54 0.0011438147 0.0011664099 0.0011045883 
 6708000    328.17869   -128.53075   -3847.1986    1047.9796     3099.236   -3760.0771 0.0011443927 0.0011666963 0.0011044324 
 6710000    272.55109   -128.68044    746.69182   -3104.8345    484.38507    1160.6052 0.0011439468 0.0011667469 0.0011052166 
 6712000    275.87106   -127.45969   -3104.5845    -3247.483    1423.5585   -1017.0602 0.0011436937 0.0011664038  0.001104841 
 6714000    281.76767   -127.92742    -2519.035    -1896.403   -3297.7934     1070.777 0.0011433331 0.0011661311 0.0011043452 
 6716000    281.96345   -127.87739    2140.6063   -98.296811   -526.97938     792.4135  0.001143069 0.0011664025 0.0011042859 
 6718000    294.38802   -127.99322   -3373.4773    1632.8376    869.64105    1021.2434 0.0011427455 0.0011679426 0.0011040637 
 6720000    304.05953   -127.91245    4832.3797      -655.48    2922.1849    1596.4807 0.0011430262 0.0011677072 0.0011039113 
 6722000    268.29162   -127.84523   -318.19706    1700.9687    4665.0068   -824.09045  0.001143993 0.0011673569 0.0011035529 
 6724000    355.62313   -128.01399   -785.79331    1478.8826   -2068.6606   -1459.6334 0.0011437643 0.0011669551 0.0011035534 
 6726000    299.82952   -127.88837    1983.5899    2532.9142    3536.9336    -963.3403 0.0011436274 0.0011666887 0.0011031962 
 6728000    327.69171   -127.30177   -5932.0092    2518.0762   -1697.8887     683.7478 0.0011436416 0.0011664532 0.0011038039 
 6730000     312.7735   -127.78057    1967.2773    2919.9085    -433.8144   -1750.7467 0.0011433123 0.0011661202 0.0011039143 
 6732000    302.47466   -127.59448   -3263.6254    3628.6188    3132.9734   -101.47221 0.0011431235 0.0011658135 0.0011038202 
 6734000    304.54019   -127.56687   -1719.5647     802.6946   -1688.7717    614.56384 0.0011435484  0.001165982 0.0011032728 
 6736000    270.41213   -127.15821    3278.3796    1586.2148    787.85156   -1507.2476 0.0011430885 0.0011655818 0.0011031586 
 6738000    308.29024   -127.53199     -4131.43    308.25873   -3389.6584    203.51744 0.0011430077 0.0011650673 0.0011027839 
 6740000    285.56815   -126.98151    4853.6549   -3288.1948    1096.8292    2027.1042 0.0011427431 0.0011648667 0.0011027924 
 6742000    303.06489   -126.63909   -2095.2796   -490.02912   -3487.3126   -1901.8267 0.0011425034 0.0011647355 0.0011040532 
 6744000    297.12502   -126.92969   -184.23935   -4602.4942    -3120.645    6452.1701  0.001143085 0.0011645628 0.0011061532 
 6746000    323.78635   -127.98861    2931.1434   -3257.4988   -236.51968    1917.2347  0.001143121 0.0011653521 0.0011060866 
 6748000    319.68393   -126.88779   -4632.0856    2645.8914    1118.4069    736.61876 0.0011429865 0.0011677077 0.0011058166 
 6750000    326.19583    -127.3793    5111.5035    -2762.318   -869.08236    1140.0487 0.0011428633 0.0011683501 0.0011057364 
 6752000    323.91006   -127.91983    -2537.953    2549.1925   -775.30387   -2183.9424 0.0011425429 0.0011682624 0.0011062399 
 6754000    311.00237   -127.51424   -1446.6002    704.44885    2244.3379   -2059.2306 0.0011420847 0.0011683964 0.0011059327 
 6756000    296.05433   -128.13548    1442.7466   -223.29472    -1878.619   -2165.3195 0.0011417921 0.0011684698 0.0011058685 
 6758000    314.55027   -127.11903   -6329.9822    4516.0506   -796.27883   -1794.3504  0.001141971 0.0011695368 0.0011054457 
 6760000    308.93475   -126.99951    3975.3382   -2474.6748    -698.4528   -1203.9609 0.0011416968 0.0011696271 0.0011051188 
 6762000    285.35293   -127.57787   -3286.6273    1948.8487   -444.20153    1488.4401 0.0011414358 0.0011704022 0.0011047594 
 6764000    308.00452   -127.73198    992.71777    -1224.478    688.31957     845.1865 0.0011411456 0.0011703057 0.0011043924 
 6766000    331.39485   -128.01265    2789.8415   -1289.9558    33.914761    2413.5249 0.0011408123  0.001170485 0.0011040867 
 6768000    283.57585   -127.97738   -3159.9143   -1468.8937    2495.1447    3455.2913 0.0011404505 0.0011702827 0.0011039078 
 6770000    274.19838   -128.61124    2967.0091   -1005.6314   -1418.8854   -91.517533  0.001140184 0.0011709247 0.0011036087 
 6772000    299.80931   -127.01949   -4100.4824    4336.7173   -976.37439    3194.4803 0.0011399549  0.001170582 0.0011033437 
 6774000    328.42196   -128.51268   -948.60857   -1951.3376   -2273.4622   -4092.8994 0.0011397249 0.0011704264 0.0011029884 
 6776000    301.51198   -127.31817    101.83646    1596.6997   -2409.0833   -841.44541 0.0011395204 0.0011707322 0.0011027089 
 6778000    263.66253   -127.25342   -4312.6904   -1371.5412    2697.7338   -873.34536  0.001139196 0.0011713894 0.0011026461 
 6780000     273.7702   -127.81521    3560.5407   -1705.6869   -351.20552   -3735.9964 0.0011388484  0.001171219 0.0011026653 
 6782000     303.2714   -127.78004   -3920.0081     1152.776    2693.9175    2699.1353 0.0011386362 0.0011714666 0.0011025561 
 6784000    262.35879   -127.55109    1580.8044    143.03366    -2618.046    852.70089   0.00113843 0.0011713165 0.0011021932 
 6786000    281.26567   -127.71801    973.59824    2914.9528    60.831336    3511.2748 0.0011381626 0.0011712679 0.0011018599 
 6788000    293.05235   -127.31469   -2218.2094    2762.8587    406.46698    631.35462 0.0011377575 0.0011710636 0.0011016439 
 6790000     282.7938   -127.55593    4511.7981    -994.4243   -1784.6475    554.31194 0.0011374423 0.0011708386 0.0011012885 
 6792000    292.78571   -127.18285   -2234.2614   -428.96717    2329.0898   -500.16122 0.0011372607 0.0011710088 0.0011010804 
 6794000    297.87064   -127.48462    1880.6083   -694.03325    2132.2405     2529.414 0.0011370319 0.0011725193 0.0011005286 
 6796000    293.43546   -126.83427    1351.9199   -2476.5637   -1088.0957    277.77607 0.0011365568 0.0011720931 0.0011007876 
 6798000    343.16544   -127.42685   -2676.1499    -2099.941    1585.4213   -1120.3731 0.0011360662 0.0011717173 0.0011008233 
 6800000    284.04219   -127.59467    638.31121    1240.0497    721.20736   -404.55612 0.0011358995 0.0011713805  0.001100558 
 6802000    306.73488   -127.72362   -4648.7475    858.61098    2413.7278   -3279.1296   0.00113558 0.0011710506 0.0011002539 
 6804000    260.27812   -127.59691    351.03734    424.10935     206.3594   -2038.3893 0.0011352656  0.001170716 0.0011001274 
 6806000    292.99563   -127.74741   -1193.3036    2610.5889   -290.19202   -3004.5924 0.0011349022  0.001170445 0.0011000776 
 6808000    314.10235   -128.00846   -1282.6386   -1941.6251   -2754.6261   -2913.3941 0.0011347278  0.001170092 0.0010999112 
 6810000    286.62362   -128.52379    1413.4815     2465.349    1107.1241   -346.83039 0.0011344966 0.0011697062 0.0010994125 
 6812000    325.82739    -128.4248   -1861.7557    -1297.662   -2105.4572   -730.85934  0.001134373 0.0011693924 0.0010989355 
 6814000    317.68304   -126.60067    3435.1772   -3684.8712    253.90588    420.65017 0.0011341435 0.0011690422  0.001098615 
 6816000    306.84721   -129.01566   -2015.6934    919.81841    267.95741    3222.3431 0.0011338864 0.0011688131 0.0010980887 
 6818000    356.83195   -127.57969   -324.13858   -3532.2576    135.34543    1535.8636 0.0011341482 0.0011684547 0.0010976898 
 6820000    331.37061   -127.62454    940.23959     1246.274    545.46847    3948.7679 0.0011344723 0.0011680004 0.0010980553 
 6822000    283.55767   -128.50417   -4231.1438    176.07598   -1038.1316    2412.1021  0.001134067 0.0011676513 0.0010981005 
 6824000     328.1865   -127.18113    2579.5613    2199.0869   -1550.6355    -438.9905 0.0011335897 0.0011677448 0.0010978319 
 6826000    311.62237   -127.08279   -2405.4556    308.23886    284.02941   -1078.1817 0.0011334443  0.001168154 0.0010975348 
 6828000    283.04204   -128.79693    -1309.374    156.00138   -1408.8335   -837.97019 0.0011330921 0.0011684129 0.0010971989 
 6830000    279.26811   -128.18788     941.6997   -535.84241    346.78406   -4025.3699 0.0011328612 0.0011680776 0.0010973527 
 6832000    302.58232   -127.95315    -4281.082    912.87118   -993.50939   -2980.2011 0.0011341844  0.001167874 0.0010973828 
 6834000    303.95914   -127.98073    2658.0113    1813.2233   -601.08754   -1239.5747 0.0011342818 0.0011682302 0.0010972607 
 6836000    298.98389    -128.3178    -3525.167    671.01792    157.23461    577.16647 0.0011343031 0.0011693517 0.0010970586 
 6838000     324.3492   -127.85182   -499.49214    1158.4425    182.32571    3464.2588 0.0011339186 0.0011697493 0.0010983987 
 6840000    265.83033   -127.65563    1593.4074   -2200.2622    143.65532    924.55637 0.0011336047  0.001170035 0.0010995031 
 6842000     316.3255   -126.99262   -3388.3919    1436.4899   -88.339098    5981.8833 0.0011333568 0.0011697382  0.001099681 
 6844000    299.03627   -127.75845    4084.4082    314.42611    2047.1506    2418.3264 0.0011333199  0.001169563 0.0010992825 
 6846000    281.19877    -128.0576   -1326.6765    1374.2492    1697.8508   -2494.2439 0.0011331165 0.0011692709 0.0010991204 
 6848000    274.88089   -128.19532    605.26502    1309.9871    774.48289    1154.0735 0.0011329598 0.0011689082 0.0010990416 
 6850000    289.49757   -127.99368    1819.3397    1499.7778   -77.990475   -2966.0643 0.0011330549  0.001168685 0.0010991125 
 6852000    301.98022   -127.41141   -4437.5644    -2777.254    2620.5855    780.49424 0.0011327295 0.0011683762 0.0011003787 
 6854000     330.1343   -127.46794    2231.2402   -1099.1838   -45.183325   -1005.2765 0.0011324484 0.0011692317 0.0011035347 
 6856000    299.36125   -127.27784    -4785.691    708.47047   -1817.4903   -3825.2786  0.001132369 0.0011691402 0.0011050396 
 6858000    309.85078   -126.93829   -204.32257   -1681.3393    118.02202   -693.81557 0.0011326536 0.0011689201 0.0011053551 
 6860000    296.05863   -127.69355    -1194.994    -3810.457   -1191.2495    1140.4875 0.0011324513 0.0011686372 0.0011055223 
 6862000    345.78509    -128.1689   -2439.6346    927.44738    1365.5692    5139.4641 0.0011326979 0.0011685853 0.0011056788 
 6864000    286.42427   -127.10568     3876.318   -3906.9443    288.41813    1719.4274 0.0011325523 0.0011683703 0.0011058413 
 6866000     287.1883   -128.48461   -3772.8032    1020.7893    555.29447    384.37862 0.0011325756 0.0011680191 0.0011055166 
 6868000    300.15973   -127.78205    1793.9122   -1077.1678   -2448.8626     -271.879 0.0011324353 0.0011676415 0.0011054206 
 6870000    277.80419   -127.60182   -387.92742   -493.92005   -2833.6516   -2414.2311 0.0011320573 0.0011678024 0.0011053479 
 6872000    289.98239   -128.49582   -1357.4937    4923.8625   -471.64931    1029.1927 0.0011316276 0.0011676545 0.0011055483 
 6874000    302.94025    -127.1788    3687.5669   -3084.3629   -1169.9723   -770.80796 0.0011312919 0.0011677491 0.0011069717 
 6876000    284.28448   -127.89739   -3825.8771    2358.9492    391.41082     -1499.46 0.0011311858 0.0011671684  0.001107191 
 6878000    311.66141    -128.1061    969.96315    -1233.051    340.56235     -487.781 0.0011313799 0.0011667598 0.0011071608 
 6880000    304.32685    -127.9345   -2953.9224   -1076.6424     1129.725   -1475.1793 0.0011326877 0.0011663876 0.0011069277 
 6882000    289.59361   -128.11629   -2613.0367    3140.0803   -330.12646   -238.03706 0.0011321974 0.0011662562 0.0011066679 
 6884000    277.44654   -127.90204    272.47397   -186.99921    1286.8664   -197.65507 0.0011319975 0.0011670366 0.0011063243 
 6886000     300.8763   -127.80651   -3435.4774    3235.8216   -260.57402    1222.5922 0.0011319907  0.001166855 0.0011062973 
 6888000    301.07215   -127.95285    2831.4664   -209.81207    642.20208    5013.4661 0.0011316006 0.0011664674 0.0011064222 
 6890000    295.32709   -126.59625   -901.00021    1002.5654    636.20607    3166.3302 0.0011314007 0.0011660491 0.0011083726 
 6892000    307.80089   -127.36162    1048.1974    1353.8824    -2516.123     3090.544 0.0011311149 0.0011657289 0.0011098275 
 6894000    291.82349   -127.83527     1505.672   -1771.3261   -2280.4343    192.21498 0.0011307972 0.0011653192 0.0011094041 
 6896000    308.14496   -128.30869   -3900.8368   -871.14399   -4454.9551    2216.0228 0.0011304949 0.0011649668 0.0011092241 
 6898000    317.49338   -128.06492     2727.845   -1119.9637   -945.46343    233.54828 0.0011301804 0.0011653164 0.0011090207 
 6900000    302.06841   -127.34116    -3159.305   -2105.6568   -227.07922    735.55327 0.0011298755 0.0011662262 0.0011086777 
 6902000    281.18166   -127.70956     -409.558    680.40533    425.05172    153.48645 0.0011295877 0.0011668801 0.0011082992 
 6904000    302.77666   -128.72988    1354.9574    39.721322   -752.04435   -2777.2408  0.001129486 0.0011666542 0.0011080461 
 6906000    319.93798   -127.90902   -2757.0476    126.20071   -1860.3085    1617.3008 0.0011291685 0.0011663126 0.0011076724 
 6908000    311.01973   -127.52018    3586.8077    2245.6606    2004.4617    4274.4909  0.001128905 0.0011660768 0.0011073133 
 6910000    303.41247   -126.88419   -1885.9508   -1536.0406   -961.32326    1604.6974 0.0011289915 0.0011662723 0.0011069063 
 6912000    303.06763   -128.09218    -244.0189   -1625.8812    733.98106    4141.8297 0.0011293571 0.0011660482  0.001106727 
 6914000     276.3107   -127.94653    1439.6523   -2532.4328   -4193.9023    1195.4929 0.0011294259 0.0011657368 0.0011062324 
 6916000    306.90208   -127.59346   -4498.8373   -4612.4742    119.99694   -2008.5255  0.001129991 0.0011653375 0.0011062086 
 6918000    265.08864   -127.35674    3552.0682     1393.423   -789.45907    293.81143 0.0011304851 0.0011651558 0.0011058079 
 6920000    310.50572    -127.8042   -2821.2552      118.179   -38.510356   -5195.2533 0.0011303135 0.0011649359 0.0011061418 
 6922000    315.62031    -127.2755   -240.13924    2392.3638    1459.9076    -1400.153 0.0011312146 0.0011647489 0.0011086203 
 6924000    333.32751   -127.82832    1501.0922   -962.13345    482.90161     113.4803 0.0011320313 0.0011643148 0.0011081991 
 6926000    300.59956   -128.24574   -5662.4675    1.9301649    4455.4914    -971.5793 0.0011319544 0.0011638777 0.0011079844 
 6928000    288.54941   -127.43943    1383.6731   -276.03563   -1014.9124    1995.6944 0.0011318201 0.0011636049  0.001107685 
 6930000    325.56559   -127.92213   -4467.5481   -2766.0141   -1411.7286   -159.17978 0.0011314797 0.0011633236 0.0011074366 
 6932000    288.96406   -128.21503   -224.30709    2738.0916   -388.28454    1871.5093 0.0011312231 0.0011631249 0.0011071385 
 6934000    284.06101   -127.65026    1418.7092   -4938.6141   -2115.6117    886.82079 0.0011309983 0.0011630058 0.0011067211 
 6936000    319.86734   -127.66055   -1365.2625   -695.32522    134.23412    78.813688  0.001130786 0.0011628298 0.0011064415 
 6938000    264.39253   -128.21404    3102.4295    2560.8046     86.24598   -39.561044  0.001130749 0.0011624787 0.0011063652 
 6940000    279.59985   -129.03786   -3522.0264   -1921.1381    793.41123    -73.88026 0.0011304092 0.0011625207 0.0011060031 
 6942000    313.19022    -128.2865   -402.88338    2974.1186    89.334014    438.79057 0.0011302262 0.0011628622   0.00110568 
 6944000    298.91861   -127.68075   -1749.9321    473.22534   -1073.8003    -2836.564 0.0011303049 0.0011625008 0.0011053211 
 6946000    281.02301   -128.20284   -3365.8269    1415.2669    250.57032   -2796.4619 0.0011307395 0.0011621329 0.0011054038 
 6948000    318.22476   -127.90268    1947.6333    2897.4319   -390.31081   -2664.5372 0.0011308574 0.0011618634 0.0011049074 
 6950000     304.9844   -127.54223   -3028.5158   -401.99686    875.65372   -4197.6745 0.0011305613 0.0011615984  0.001104564 
 6952000    320.56064   -127.89577     2505.876    626.96333    1096.4696    2285.8074 0.0011309748 0.0011612409 0.0011046598 
 6954000    297.67427   -128.02472   -154.83637     1186.129   -941.48257    475.94307 0.0011308741 0.0011609211 0.0011046597 
 6956000    299.30474   -127.71695   -1766.2179   -1413.2027    3938.2222    2319.8079 0.0011311535 0.0011605616 0.0011043914 
 6958000    293.11646   -127.36786    2340.2439     1261.176      -1148.4    1671.7978 0.0011334872 0.0011605683 0.0011039685 
 6960000    281.27467   -127.01763   -4135.5625   -3157.5203    2078.6177     822.9897 0.0011377265  0.001160204 0.0011036295 
 6962000    299.47527   -127.16502     1273.366   -2045.0474    4102.8579    2680.6953 0.0011383342 0.0011601516 0.0011032959 
 6964000    303.03785   -127.94354   -1629.6838   -749.01422   -3063.5738   -741.86005 0.0011384348  0.001159866 0.0011029154 
 6966000     333.8126   -127.72789   -2764.6312   -3248.8067     329.2881   -435.90595 0.0011381762 0.0011593929 0.0011026658 
 6968000    329.83054   -127.77016    2709.5041    693.59674   -6235.2378   -3844.2313 0.0011383058 0.0011591663 0.0011029972 
 6970000     301.8183   -127.82911   -3590.8283    774.84512   -650.21517    786.85118 0.0011381128  0.001158781 0.0011026358 
 6972000    328.94308   -128.20278    1654.5266      1237.03   -1383.4385   -3218.6283 0.0011384036 0.0011582316  0.001102519 
 6974000    300.94327   -127.17235   -367.78857     2588.725    1217.7743    1488.1292 0.0011386532 0.0011577355 0.0011021571 
 6976000    289.38195   -128.09646   -2886.7373   -1828.3416    3806.8242    423.57123  0.001138462 0.0011572077 0.0011021889 
 6978000    307.95275   -128.34798    2058.9851    360.54121    769.29906    -2384.222  0.001138087 0.0011567794 0.0011020077 
 6980000    316.83254   -127.91181    -3394.118   -2131.5574    3952.5053    3304.8042 0.0011377732  0.001156665 0.0011020298 
 6982000    286.77172   -127.81074    1135.1404    1236.1951    735.86277    2433.5456 0.0011376698 0.0011569618 0.0011021506 
 6984000    272.71759   -128.35546   -702.25773   -63.671531    1223.1536   -24.454653 0.0011376783 0.0011570737 0.0011034309 
 6986000    321.45091   -128.63251   -2613.4599    452.53544   -2335.6543    954.35681 0.0011377119 0.0011567909 0.0011030079 
 6988000    266.15535    -127.4643    940.74868    4030.7478   -3205.7797    730.66902 0.0011372846 0.0011564571 0.0011026012 
 6990000    285.29029   -127.56915   -4139.3379    456.09081   -2801.5412   -4304.4292 0.0011369676 0.0011562758 0.0011022793 
 6992000    280.10742   -128.24628   -308.73488    1500.9421    1708.5972   -1184.3478 0.0011366203  0.001156008 0.0011018989 
 6994000     277.4392   -128.17862   -1576.1063    1929.3188    1612.0729   -2682.2787 0.0011366037 0.0011561218 0.0011015799 
 6996000    309.96309   -127.38284   -253.92811      2256.05    1277.9897    207.04608 0.0011369187 0.0011557152  0.001101228 
 6998000    307.24503   -127.82998    2117.9139    1839.1332    3267.1586    1682.1631 0.0011367428 0.0011554834 0.0011010642 
 7000000    311.60835   -128.10578   -2803.0577    -2378.136    -1518.563    318.42745 0.0011365545 0.0011551344 0.0011007018 
 7002000    289.41769   -127.98011    1926.1631    1359.2407    594.20388    1378.0921 0.0011362756 0.0011548313 0.0011003652 
 7004000    254.05049    -127.4367    -2156.048    396.50516   -3578.5904     2361.153 0.0011359842 0.0011544584 0.0011002118 
 7006000    271.26215   -127.05437   -1881.5388    4013.0919    294.43054   -1145.2414 0.0011356636 0.0011548559 0.0010999074 
 7008000    303.12692   -127.71423    919.14183     1526.982   -2128.4312     1167.793 0.0011353459 0.0011548422 0.0010996819 
 7010000    319.45803   -127.07327   -2687.3788    -2643.572    3565.3267   -233.19997 0.0011350446  0.001154714 0.0010997186 
 7012000    284.52616   -126.68114    3064.4948    512.16089    2181.5417   -4577.0021 0.0011349228 0.0011544171 0.0010998834 
 7014000    283.77789   -128.00432    -1336.888   -4124.0695    1180.6842   -2499.8385 0.0011347256 0.0011543613 0.0011000594 
 7016000    309.11483   -128.61427   -1319.1403    -865.6002   -626.32492   -2634.6141 0.0011347855 0.0011540477 0.0011002714 
 7018000      286.853   -127.77178    1110.7495     -3174.73    123.82725   -1252.8557 0.0011345626 0.0011539063 0.0010998109 
 7020000    271.10124   -127.24206   -3371.1631    3296.9633    1093.1432   -362.43275 0.0011344816  0.001154287 0.0011001849 
 7022000    322.57182   -127.83448    1038.2961   -2123.8226   -885.43484     2055.608 0.0011348668 0.0011548722 0.0011015091 
 7024000    310.38618    -127.8091   -1601.7566    2247.8007    1133.6254    2858.8053 0.0011347745 0.0011547424 0.0011020557 
 7026000    313.89541   -127.92354   -1868.1085    1490.6333    1378.8565     1344.482 0.0011345836 0.0011549027 0.0011030884 
 7028000    308.08637   -128.01893    219.13906   -151.10652    660.97618     4266.751 0.0011342962 0.0011552327 0.0011042117 
 7030000    337.91752    -127.3179   -2835.0484    4204.1476   -332.90546    1314.8688 0.0011339748 0.0011546671 0.0011040954 
 7032000    313.25462   -127.84505   -146.40981   -98.389042    -3218.138   -1272.4539 0.0011336509 0.0011544042 0.0011037231 
 7034000    300.00966   -127.72401   -74.945325    2160.9406   -1939.3258   -1667.7829 0.0011333943 0.0011546129 0.0011036006 
 7036000    286.88627   -127.67002   -1063.3123   -958.77328    1319.5533   -384.58836 0.0011331922 0.0011554255 0.0011034191 
 7038000    284.62367   -127.25869     2690.688   -4006.3426   -324.87233   -1892.0731 0.0011329859  0.001157045 0.0011031942 
 7040000    313.38491   -127.83239   -1270.2426   -4228.5157     29.53528    -2920.162 0.0011327675 0.0011567705 0.0011030331 
 7042000    284.89359     -127.489    -37.83383   -1603.2776   -1906.5027     811.2626 0.0011323677 0.0011570654 0.0011027584 
 7044000    299.92792   -127.57545    159.69123    2847.0495    1599.9017    -3010.025 0.0011319869 0.0011571303 0.0011023895 
 7046000    256.61238   -127.93925   -3838.0587   -93.686726   -953.48967     1257.627  0.001131684 0.0011568726 0.0011020692 
 7048000    309.98343   -126.89573    30.937201    1277.8735    1414.2271    1536.9932 0.0011312498 0.0011567907 0.0011018286 
 7050000    309.95126   -127.26077    756.49497    2320.2947   -180.86639    1699.6985 0.0011309165 0.0011567098 0.0011016596 
 7052000    298.94886   -128.17908   -1074.8753     156.3226    1667.9138    3466.2624 0.0011307305 0.0011564308 0.0011012649 
 7054000    285.04606   -127.94052    2645.4961    3850.0109    122.53885    1641.5355 0.0011306575 0.0011561725 0.0011009021 
 7056000    331.75908   -127.42051   -1601.3454   -2249.2478    1595.2979    464.27489 0.0011305283 0.0011559884 0.0011007535 
 7058000    318.27468   -127.72207   -1852.5547    769.39772    2196.6232   -2142.6107 0.0011308133 0.0011556962 0.0011003238 
 7060000    278.13098   -127.97008   -679.39049   -174.84565   -744.51214   -1761.8171 0.0011308488 0.0011557093  0.001100125 
 7062000     302.1553   -128.01855    -3298.182    699.57227   -1249.5248   -1855.0323 0.0011306219 0.0011554708 0.0011000778 
 7064000    305.28922    -128.1079    2367.7941    4951.0879   -211.69422   -1512.0967 0.0011303281 0.0011551491 0.0010999764 
 7066000    288.34124   -128.05204    -678.4943    -549.0324   -585.69977   -5366.6702 0.0011300387 0.0011549183 0.0010996039 
 7068000    313.43356   -127.21657    734.62922   -946.57851   -3528.8555    214.66318 0.0011298106 0.0011546516 0.0010993581 
 7070000    281.25245   -126.76438    1880.3258   -289.58067   -4036.2537    2844.7548 0.0011306948 0.0011541943 0.0010991327 
 7072000    294.81405   -128.08514   -3826.6327   -353.28006    1732.2451    1447.6577 0.0011317689 0.0011543229 0.0010989299 
 7074000     286.7298    -127.4713    989.85399     2730.101    1254.3657    89.388783 0.0011313775 0.0011540914 0.0010986834 
 7076000     293.7733   -127.84506   -1577.6855   -381.17612    134.14856   -2465.8869 0.0011311329 0.0011537679 0.0010983466 
 7078000    332.97948   -128.02091    628.07373    559.62844    3591.9395    312.19763 0.0011308274 0.0011534905   0.00109833 
 7080000    279.89222   -127.67449    2212.7471   -750.08287   -3961.1989    175.97202 0.0011307218  0.001153148 0.0010982287 
 7082000    318.75467   -127.61256   -1529.5759   -280.05896   -574.67822   -3798.8145 0.0011305648   0.00115286 0.0010981443 
 7084000    268.56053   -127.47365    2010.6553   -13.472396   -1878.9426   -660.95441 0.0011302783 0.0011527348 0.0011006263 
 7086000    292.54418   -128.54789   -2224.1384   -552.30067   -2429.7301   -410.49998 0.0011299886 0.0011522527 0.0011012664 
 7088000    301.65686    -127.7265   -1841.7704   -1407.0727    393.51933    474.35847 0.0011297114 0.0011517446  0.001101643 
 7090000      279.507   -128.14908    386.98742   -3299.3186   -3220.8021   -1441.2208 0.0011292235 0.0011515129 0.0011013031 
 7092000    283.51514   -128.02021   -2613.4485   -558.84029    5232.8022    2848.2262 0.0011290333 0.0011511975 0.0011014534 
 7094000    284.29086   -127.78614    1692.4296    123.78007    3888.0521    2044.6158 0.0011287743 0.0011507412 0.0011020023 
 7096000    301.13774   -128.22303   -331.77974   -1369.9754    1272.5278    1801.3265 0.0011284635 0.0011518077 0.0011020929 
 7098000      317.003   -128.36206   -2272.8488    3290.8143    7286.7765    -1954.574 0.0011280388 0.0011525664  0.001101707 
 7100000    311.63233   -128.17867   -279.29619    1180.5113   -2695.1232   -1511.3644 0.0011280484 0.0011521807 0.0011016878 
 7102000    295.78707   -128.24726   -4102.4805    1810.0762    1082.3851   -2916.3205  0.001127593 0.0011517832 0.0011014181 
 7104000    304.64804    -127.5037   -363.46233    -318.9161   -1692.6433    1362.6592 0.0011274743 0.0011514964 0.0011011067 
 7106000    333.62509   -127.93113    188.76079    51.742605    845.43415    365.28283 0.0011271219 0.0011518645 0.0011010439 
 7108000    302.99464    -128.4733   -1503.4428    3692.8028   -1212.9857   -1465.0114 0.0011268149 0.0011518086 0.0011007592 
 7110000    309.31898    -127.3788    1379.2943   -4983.4506   -1190.0867   -1445.6347 0.0011270762   0.00115159 0.0011004946 
 7112000    309.14262   -127.82211    -915.5443    2441.7913    2460.4717   -624.15181 0.0011267272 0.0011512615 0.0011003845 
 7114000    327.29303   -128.02606   -256.10869   -192.27671    -1061.812     1305.191 0.0011262985 0.0011509881 0.0011000311 
 7116000    331.03284   -126.99742    1580.2698   -834.33362     2113.163    3005.7922 0.0011260247 0.0011507956 0.0010997363 
 7118000     312.6166    -127.8836   -2575.2329    4975.0282    1642.7507    4324.2421 0.0011262967 0.0011514533 0.0010993749 
 7120000    309.80951   -127.71566    2392.0803   -294.41933   -3360.1055   -609.16798 0.0011265795 0.0011508037 0.0010993663 
 7122000    311.31742   -127.69807   -731.30973    5065.5675    1902.5349    436.99443 0.0011265021 0.0011506979 0.0010991883 
 7124000    294.27311   -127.86519   -505.54863    -1269.854   -2553.2064   -933.67061 0.0011272358 0.0011505043 0.0010988832 
 7126000    290.22019   -127.58531    2034.9239     125.1131     5443.977   -2900.0195 0.0011272235 0.0011505307 0.0010985938 
 7128000    255.53809   -127.69248   -4712.4568    2029.7676    557.50852    -1308.827 0.0011269719 0.0011501324 0.0010982749 
 7130000    284.56374   -127.15841    1195.5255    313.95677    2165.1434    257.54837 0.0011267317 0.0011502186 0.0010979587 
 7132000    334.53495    -128.1055   -3653.2941    1555.3411    3477.2392   -1229.9657 0.0011264725 0.0011501659 0.0010975548 
 7134000     290.6575   -128.47583   -2687.7317   -5108.4923   -1733.9954    1603.4866 0.0011264864 0.0011497392 0.0010971977 
 7136000    320.49091   -127.56533    3554.9678   -403.27458   -82.759238     3007.107 0.0011260141 0.0011493252 0.0010968107 
 7138000    283.49471   -127.92415   -2837.5167   -3891.8178   -3899.9598   -1725.7404 0.0011257429 0.0011489758 0.0010963797 
 7140000    292.49017    -128.4834    3654.1256    201.47913    -3207.265    3004.5356 0.0011255913 0.0011485972 0.0010960267 
 7142000    313.13009    -128.0928    536.36627   -883.58658   -1104.7007    1555.4422 0.0011260675 0.0011483798 0.0010956988 
 7144000    304.93352   -128.46819   -1585.2315   -79.357001   -7886.9653    2343.3974 0.0011260515 0.0011481687 0.0010963913 
 7146000    322.16524   -128.00181    1520.6721    3943.7475   -1359.2643   -813.20639 0.0011261437 0.0011477795 0.0010962196 
 7148000    296.28721   -127.05403   -4800.7798   -328.44106   -4294.1296   -2470.8288  0.001125944 0.0011474474 0.0010961385 
 7150000    281.22491   -128.35427    1957.7434    1489.8355    918.70001   -841.31502 0.0011260028 0.0011471595 0.0010967178 
 7152000    288.39373   -128.29993    -2175.587   -445.37976    1839.2216   -1228.3301 0.0011264028 0.0011469673   0.00109697 
 7154000    315.56408   -127.87483   -2278.6758    -379.8785    198.69993   -1521.2328  0.001126754  0.001147277 0.0010965835 
 7156000    275.27556   -128.09255    1839.6328    1278.5093     10131.66   -2149.2647 0.0011272416 0.0011469357 0.0010964655 
 7158000    311.35011   -128.04892    -4918.262    -1114.477   -1895.6257    4977.8334 0.0011268396 0.0011471044 0.0010967805 
 7160000    314.53767   -128.14819    1834.5569    2844.5593    993.16023    626.85541 0.0011274222  0.001146816 0.0010969439 
 7162000    297.69704   -128.17751   -1788.0777    1758.1073   -1685.9436    3531.2756 0.0011273878 0.0011465185 0.0010971832 
 7164000    275.92347   -127.91268   -232.88842    2600.2332   -3536.2994    939.06452 0.0011272318 0.0011462329 0.0010972062 
 7166000    293.14267   -127.44701    3791.6626     2671.186    1677.1186    -601.5295 0.0011271216  0.001145877 0.0010972349 
 7168000    333.86892   -127.09957   -1063.5225   -2588.7784   -4433.9117    1678.4845 0.0011272304 0.0011456308  0.001097388 
 7170000    313.36725   -128.28783    1906.3647    2794.2367    818.16216    1796.6754  0.001126892 0.0011453128 0.0010968916 
 7172000    278.93715   -128.53162   -4141.6072   -1343.7555   -345.98329   -750.35067 0.0011265677 0.0011454772 0.0010968258 
 7174000    282.68832   -127.36958   -1260.3481    1299.4505    640.16658    2245.7791  0.001126778 0.0011453845 0.0010971472 
 7176000    297.17809   -127.49481    -780.9833   -720.63107   -138.88184   -799.91305 0.0011265249  0.001145121 0.0010967929 
 7178000    284.80126   -127.67064   -3050.3836   -1297.8546   -1379.5195    2912.2835 0.0011263681 0.0011448539 0.0010965584 
 7180000     287.2935   -127.49802    5616.0105   -164.96605    2083.8343    1262.5887 0.0011261969 0.0011446327 0.0010963104 
 7182000     283.9814   -127.65011   -3182.8558   -1634.9358    -2034.371    1659.1847 0.0011266936    0.0011445 0.0010960411 
 7184000    318.64045   -126.76423    5610.8013    2400.5739    3489.7459   -16.563564 0.0011261195 0.0011441872 0.0010960288 
 7186000    300.29131   -127.97184   -1029.5293   -1291.9167    962.45666   -2296.4295 0.0011259843  0.001144907 0.0010957385 
 7188000    283.55088   -127.38535   -4127.7515    1839.7596   -466.17417    29.590745 0.0011259189 0.0011451862 0.0010954526 
 7190000    301.82293     -127.951    2431.3647    227.61384    563.60438    1699.3785 0.0011257185 0.0011449293 0.0010952269 
 7192000    297.28124   -128.07823   -7255.3821    412.60759   -1768.4045   -2688.0771 0.0011254491 0.0011449608 0.0010948904 
 7194000    305.92173   -127.64705    2488.0337   -486.55423    1724.7097   -795.85969 0.0011252786 0.0011452801 0.0010946716 
 7196000    273.80949   -126.94317    1210.5377   -1980.8909   -1929.5333   -659.58332  0.001125026 0.0011451514 0.0010944648 
 7198000    285.68242   -127.07232   -2487.8247    1079.3691    3831.0355   -3.1761089 0.0011247284 0.0011449963 0.0010946174 
 7200000    294.63002   -128.21493    6278.1393   -680.57049   -999.10269    2009.8181 0.0011243999 0.0011445351  0.001094315 
 7202000    285.48116   -127.74809   -5060.5818    2623.8726    1927.4384    6416.6692 0.0011240465 0.0011443061 0.0010942122 
 7204000    281.23016    -127.9855     2711.164    2845.4785    3716.9631    2710.6019 0.0011237111 0.0011440312 0.0010937739 
 7206000    318.14855   -128.11899    235.89215    316.72508   -1728.7879   -1160.9014 0.0011235754 0.0011436726  0.001093696 
 7208000    322.80386    -128.3301   -4436.8732    1435.4785    155.77805    416.08951 0.0011233008 0.0011434834 0.0010934274 
 7210000    283.38815   -127.43394    3919.3427   -1441.5666   -2186.2457   -2090.8127   0.00112335 0.0011431664 0.0010934368 
 7212000    294.34637    -128.2015   -4077.7743   -137.89088   -1153.6978    601.74215 0.0011240781 0.0011428139 0.0010939371 
 7214000    261.92716   -128.26282   -457.09031   -614.82713    -882.0568   -782.21995 0.0011248082 0.0011426465 0.0010938015 
 7216000    285.75094   -127.93537   -1212.2607    91.694607   -2527.7467   -1570.7009 0.0011251745  0.001142933 0.0010937143 
 7218000    341.19882   -127.57524   -4554.7756    795.40596    3798.5991    4721.2265 0.0011248883 0.0011427321  0.001093459 
 7220000    306.28085    -127.3991    1520.3383   -1805.0035    341.58044   -2389.9626 0.0011246146 0.0011430751 0.0010931571 
 7222000    341.44325   -127.46515   -2815.7618    981.06528    47.383874    4600.2587 0.0011244295 0.0011436469 0.0010928824 
 7224000     249.7801   -127.23027    3397.5307    1643.6411   -1507.3669    2471.7829 0.0011244025 0.0011435288 0.0010925205 
 7226000    304.48437   -128.00625    1250.9953   -1636.0032   -1619.5643    3926.4223 0.0011242184   0.00114327   0.00109214 
 7228000    302.70714   -128.11486   -149.97727    1363.0488    1162.0897    516.79524 0.0011246213 0.0011433232 0.0010920632 
 7230000    304.53579   -127.33606     1585.152   -862.10471   -1665.5158   -1434.3719  0.001124465 0.0011429685 0.0010929306 
 7232000    276.28794   -127.04151   -4394.7082   -3046.6191    2286.3098    93.624921 0.0011243466 0.0011427067  0.001093395 
 7234000    300.34404   -127.71378   -758.44683    801.73536    2434.8775   -2234.7744 0.0011240115 0.0011427163 0.0010934799 
 7236000     293.4978   -128.20625   -2526.1179   -1689.8896   -816.98857   -85.911917 0.0011237511 0.0011433271 0.0010936998 
 7238000    322.96064   -127.92439   -729.00267    3898.5038    1724.9034    1256.6833 0.0011242055 0.0011434558 0.0010933956 
 7240000    269.06897   -127.66337    3584.3619    877.85443    268.85487   -1593.8064 0.0011240652 0.0011440051 0.0010931587 
 7242000    284.58438   -127.20452   -2169.6536    1929.6695    741.62091     1055.269  0.001123917 0.0011438911 0.0010929293 
 7244000    297.58843   -127.55142    2703.9844    530.41231    -1798.765    2240.8523 0.0011236466  0.001143623 0.0010930552 
 7246000     285.6641   -128.19186   -2250.3677    -416.7016     2563.252    543.78553 0.0011233715 0.0011432288 0.0010926624 
 7248000    300.12696   -127.70635   -1873.3437    494.97164   -1120.4237    2126.3343 0.0011233218 0.0011429773 0.0010925287 
 7250000    268.95045    -127.6036    1849.9754   -1711.9699    1274.7986   -412.43178 0.0011231071 0.0011427676 0.0010922876 
 7252000    288.64635   -127.46014   -3432.6871   -2978.8236   -3259.2466    2802.6383 0.0011230087 0.0011424138 0.0010919981 
 7254000    289.57111   -127.81663    3873.9636    1588.7719   -237.40835    166.76454 0.0011227836  0.001142091  0.001091711 
 7256000    315.54639   -127.76164   -1665.8456    33.436126    1354.7403   -3480.7977 0.0011224839 0.0011430178 0.0010913645 
 7258000    284.20781   -127.46373    1280.0181   -2537.8838   -3563.5827   -36.296652 0.0011231325 0.0011442266 0.0010910585 
 7260000    274.26551   -127.21306      181.788     1842.717   -561.36597    4523.2042 0.0011227968 0.0011443002 0.0010912919 
 7262000    311.26847    -127.5154   -3963.2074    960.93513    1773.6369   -414.11772 0.0011225288  0.001144392 0.0010909025 
 7264000    289.67683   -128.22981    2028.7707     3738.949    386.47132    4182.2478 0.0011222868 0.0011441216 0.0010905764 
 7266000    271.96307   -127.45679   -3117.5678     4216.693   -2875.1502    1122.8609 0.0011220052 0.0011441079 0.0010903022 
 7268000    302.10629    -127.5524    2707.6774   -1771.4771    3563.6714    744.13389 0.0011217653 0.0011440851 0.0010899357 
 7270000    298.25887   -127.47464   -1016.6559    2889.8675   -2660.8368     89.48057 0.0011214687 0.0011452319 0.0010898198 
 7272000    301.54636   -126.80067   -3167.9602   -811.10509    1576.4022    1091.3933  0.001121102 0.0011461103 0.0010894886 
 7274000    287.33787   -127.70894    1646.0329   -599.96101    590.05643   -585.03931 0.0011208277 0.0011458902 0.0010893006 
 7276000     283.3798   -127.27914   -6486.1116     267.7911   -2948.0353   -5788.5627 0.0011210019  0.001147084 0.0010890987 
 7278000    315.82975   -127.68839    1158.5207   -2687.9477    2160.6965   -6217.5154 0.0011206545 0.0011472295 0.0010894146 
 7280000    314.50489   -127.86473   -1811.7977    1388.8872   -2840.7162     396.5616 0.0011203404 0.0011478224 0.0010888708 
 7282000    300.63231   -127.92447   -943.22598   -2459.3176    619.95445    545.17568 0.0011202127 0.0011483643  0.001088666 
 7284000    310.81151    -128.2222    5083.5902    849.00484    640.76319    4376.4814 0.0011212814  0.001149879  0.001089568 
 7286000    299.58734   -128.02866   -3273.1425   -533.96691    1698.1708    813.89523 0.0011213645 0.0011500072 0.0010892529 
 7288000     312.1917   -127.33228    3842.3271   -1891.3778    2085.7455    3498.7114 0.0011211892 0.0011500868 0.0010890804 
 7290000    287.89486   -128.46135   -2477.2278    1457.1788   -899.11756   -458.99856 0.0011210472 0.0011508894 0.0010890126 
 7292000    271.75762   -127.94734   -2821.1652   -1813.7238     -1969.12   -773.48174  0.001121186  0.001151993 0.0010887928 
 7294000    290.69646   -127.79468    1358.0366    727.38591   -3529.9756   -1399.7613 0.0011216176 0.0011531429 0.0010885133 
 7296000    323.74331   -127.32599   -5220.3424     1172.237   -4313.1592   -688.44267 0.0011227243 0.0011527141  0.001088308 
 7298000    278.92448   -127.75159    2023.4515   -253.93387   -1705.7188    1258.1501 0.0011233896  0.001153127 0.0010882143 
 7300000      315.211   -126.75752   -2263.2687    2008.4983   -282.19896    1890.1736  0.001123443 0.0011529362 0.0010879372 
 7302000    320.75704   -127.36107   -1321.3471   -3710.3152    196.71736    3333.1945 0.0011243263 0.0011532101 0.0010875481 
 7304000    309.34145   -127.83185     1462.923   -226.17995    1709.4913    145.83083 0.0011257868 0.0011544089 0.0010873945 
 7306000    293.57939   -128.17466   -2830.5211    106.36399   -483.22481    1103.5643 0.0011271628 0.0011546401 0.0010872676 
 7308000    305.86967   -127.45641    2808.5555    1103.8365    3952.0564   -224.17804 0.0011276255  0.001154497 0.0010868409 
 7310000    299.78545   -127.95512    406.66283    5615.2062     2104.667   -1358.9848 0.0011293187 0.0011543366 0.0010876219 
 7312000    258.92194   -126.93615    356.58803   -195.04316    2215.3695    1697.7846 0.0011311715 0.0011544206 0.0010876161 
 7314000    330.48689   -127.25113    3482.9658    3642.4795   -3391.3205   -4776.5968 0.0011325633 0.0011554026 0.0010875084 
 7316000    300.43907   -127.38476   -2877.1671    2081.8919    1362.6364   -721.56429 0.0011334715 0.0011566488 0.0010874336 
 7318000    282.63678   -127.82943   -457.65512   -887.39348    684.54495    1561.3778 0.0011333595 0.0011563961 0.0010873198 
 7320000    282.92015   -127.80173   -2435.5449   -1171.6682    -3371.029   -2702.5235 0.0011329875 0.0011565489 0.0010872878 
 7322000    284.54466   -127.25379   -2665.7531   -3902.9967    2603.1248    3034.5924 0.0011325231 0.0011573031 0.0010874721 
 7324000    280.61743   -127.80594    637.54687   -225.09763   -1715.8992    -1629.424  0.001132401 0.0011575895 0.0010872968 
 7326000    292.23421   -127.41691   -1446.4305   -1590.1779   -1107.6195    2601.0393 0.0011319338 0.0011572384 0.0010870161 
 7328000    287.34657   -127.66692    1701.6502    155.02223    531.72099   -117.85127 0.0011317284 0.0011570907 0.0010867412 
 7330000    276.47501   -127.50356    871.02454    2597.1799    1586.4486    1063.1796 0.0011313004 0.0011568427 0.0010871141 
 7332000    320.19818   -128.45741    -936.1627    2647.8388    3178.8026   -1529.2958    0.0011309 0.0011565413 0.0010870966 
 7334000    315.68267   -127.46505    2455.8155    3182.5131   -2884.5163   -2748.9226 0.0011305656 0.0011562253 0.0010866964 
 7336000     313.5338   -128.18696   -2626.0643    865.60936    1323.3685   -470.16957  0.001130629 0.0011559119 0.0010865439 
 7338000    295.80507   -127.95884   -1275.9399    1533.6168   -760.33057      -1462.3 0.0011325501 0.0011558051 0.0010867819 
 7340000    308.87921   -127.83442   -1079.5679    740.72678   -386.22293    2585.6864 0.0011335583 0.0011556262 0.0010864903 
 7342000    298.65204   -128.13659   -1974.4565    -3984.134   -1504.5176   -469.40756 0.0011344542 0.0011555547   0.00108715 
 7344000    280.60776   -127.87421     2584.944   -3912.4356   -3988.0845   -167.82899 0.0011342512 0.0011552082 0.0010886815 
 7346000    285.15528    -127.4808   -1840.2435   -4268.5472   -2362.5774   -1720.8182 0.0011338012 0.0011555444 0.0010893481 
 7348000    309.12033   -128.35924    541.23776   -1711.1327   -180.59949    2116.6669  0.001133335 0.0011549817 0.0010893281 
 7350000    289.49228   -127.89551    -317.3492   -281.25376   -3051.9928   -1229.9937 0.0011328842 0.0011546117 0.0010894953 
 7352000    328.28511   -127.30395   -2201.9579    5135.9724    2026.0255      1082.38 0.0011334582    0.0011543 0.0010899999 
 7354000    295.31082   -126.79046    1736.1375    1448.4658   -2727.4998    769.82286 0.0011345223 0.0011540955 0.0010896784 
 7356000     289.1188   -127.53106   -4101.3868   -2072.3063    397.10252   -2306.7504  0.001134702 0.0011543057 0.0010894797 
 7358000    289.57097   -127.21439    649.20045     1236.194   -430.39206    1063.2603 0.0011355324 0.0011553954 0.0010894288 
 7360000     312.5679   -126.84943   -319.24173   -1297.3461   -2044.1086   -2911.4794 0.0011372249 0.0011566077 0.0010894146 
 7362000    295.75916   -127.88892   -2934.9828    8.8725764    1129.2568   -394.63779 0.0011382907 0.0011567291 0.0010891565 
 7364000    307.86222   -126.75939    2199.8032    2556.0026   -3116.8427   -348.39415 0.0011386689  0.001156646 0.0010891168 
 7366000    285.06305   -126.98843   -3116.5346     -1988.57   -190.87871   -2871.7344 0.0011383494 0.0011568195 0.0010889072 
 7368000    307.86788   -126.71412    2054.5971   -1442.9701   -768.45776    2142.9553 0.0011385162 0.0011574298 0.0010886471 
 7370000    320.97976   -127.40422    1429.7586   -270.58435    666.12587   -185.52443 0.0011380766 0.0011570962 0.0010883509 
 7372000    286.26108   -127.56695   -1112.6659   -2569.2895    2943.6676    1020.7303 0.0011377735 0.0011570983 0.0010881327 
 7374000    330.99322   -127.48914    2988.5513    524.95505    2703.1033   -5.5562767 0.0011374746 0.0011568585 0.0010878602 
 7376000    296.21163    -126.8289   -1356.5602    991.93846    2479.1902   -2026.6014 0.0011372959 0.0011569176  0.001088193 
 7378000    297.46794   -127.28572   -372.45943    4030.3077   -2532.7024   -1471.1879  0.001137114 0.0011566804 0.0010887479 
 7380000     290.3363   -127.53479   -2016.7027    874.90536    748.43888   -5594.8946 0.0011383483 0.0011567469 0.0010891459 
 7382000    301.38968   -127.09515   -3051.0901    261.72912   -5926.7542   -3500.3667 0.0011393291 0.0011569365  0.001088697 
 7384000    335.14475   -127.74931    1241.2651   -1242.1109    1887.5469   -653.20802 0.0011390619 0.0011567826 0.0010883839 
 7386000    263.30704   -126.96076   -1626.8562   -4310.2235    930.08617   -434.81702 0.0011387454 0.0011563946 0.0010880525 
 7388000    309.18199   -126.49926    1340.3272   -1613.5239   -3241.6901    310.77038 0.0011386782 0.0011569101 0.0010881932 
 7390000    263.81638   -128.29674    65.516334   -3179.2831    3583.9226    2564.4605 0.0011384422 0.0011578069 0.0010891379 
 7392000    320.55496   -126.72025   -1883.4357     768.6587   -129.41633    611.71089 0.0011381223 0.0011586767 0.0010905769 
 7394000     335.8013   -126.55253    1643.5745    4271.9509    -1966.978   -332.21654 0.0011378151 0.0011586721 0.0010909458 
 7396000    283.14385   -127.56259   -2221.4872    1564.2746     -343.071   -1055.8724  0.001137571 0.0011584846 0.0010909821 
 7398000    323.15992   -126.68334    -461.9192    1285.7494   -4904.0757   -2585.3037 0.0011371578 0.0011583621 0.0010908239 
 7400000    298.77851   -127.49515     569.0275   -5361.2586    472.07844   -1103.4254 0.0011369425 0.0011583092 0.0010906518 
 7402000    358.34324    -127.7146   -2078.0451    299.10156   -4245.2432   -712.43847 0.0011379067 0.0011580335 0.0010903138 
 7404000    298.94995    -128.1089    1288.6936   -394.41673    684.59359    -2147.506 0.0011382975 0.0011578062 0.0010902615 
 7406000    300.86999   -127.91908   -2087.0451    167.93311    175.85973    300.17894 0.0011379468 0.0011575522 0.0010903045 
 7408000    306.39403   -127.42848   -432.55658    5542.9943   -1525.3234   -441.91913 0.0011376572 0.0011572378 0.0010905679 
 7410000    310.95455   -127.65173   -577.10192   -1010.9809    3254.3921   -1503.6542 0.0011373554 0.0011574268 0.0010899626 
 7412000    298.67751   -127.69433   -2217.1425    1083.6726   -266.66181    3226.9146 0.0011370697 0.0011571703 0.0010896973 
 7414000    295.11701   -128.08367    1859.7269     558.8558    784.70405    1595.5721 0.0011367771 0.0011568076 0.0010895752 
 7416000    291.18693   -128.17923   -2945.9351   -1523.5874    1719.7062     2291.175 0.0011371756 0.0011570041 0.0010896036 
 7418000    315.53934   -127.75723   -36.849368   -1775.0404     821.2252    542.02052  0.001137978 0.0011578396 0.0010890167 
 7420000    280.93916   -127.70458    -1094.876   -5046.3684    741.62029    1319.4046 0.0011396553 0.0011581239 0.0010888074 
 7422000    312.73198    -127.2859   -2682.2687   -268.81278   -2896.1218   -1242.7623 0.0011400227 0.0011581057 0.0010885122 
 7424000    308.33308   -127.38732    2287.5968   -1514.9541    -1366.531     512.5207 0.0011401076 0.0011579424 0.0010883565 
 7426000    307.46125   -127.45462   -2543.7429   -1228.2033   -1746.4937    126.56493 0.0011396987 0.0011578291 0.0010879417 
 7428000    264.04385   -128.09389    1779.1264   -299.24969    -3217.601   -2355.0303 0.0011395026 0.0011575798 0.0010877946 
 7430000    333.51682   -127.84566   -510.67521    1435.8589    240.93572    -1343.576  0.001139268 0.0011573299 0.0010874029 
 7432000    315.07304   -128.08031   -3073.0956    1602.8273   -2051.2664   -1862.7977 0.0011390032  0.001157131 0.0010870873 
 7434000     340.4326   -127.83059    1209.9171    1810.6637    735.30626   -1371.2714 0.0011393662 0.0011576021 0.0010868729 
 7436000    294.95887   -127.51637   -5267.7794   -1510.2475   -1434.1848    1849.6617 0.0011391563  0.001157838 0.0010871818 
 7438000    275.47467   -128.02186    608.53628    3297.9735     280.8389   -9.0912049 0.0011389207 0.0011578931 0.0010869973 
 7440000    291.69939   -127.65952   -1010.7841   -1462.6288    2608.4996    1558.4339 0.0011389184 0.0011575621  0.001086849 
 7442000    271.03797   -127.61425   -1978.0999   -1653.2062    197.50587    994.33972 0.0011386672 0.0011572379  0.001087195 
 7444000    318.31294   -127.84931     4080.741    727.24181    37.295969   -186.08373 0.0011383558 0.0011570474 0.0010881891 
 7446000    349.75014   -127.64694   -2339.8962   -2754.6662     1061.148   -769.09497 0.0011380469 0.0011566564 0.0010892767 
 7448000    303.09796   -127.84494    2048.0663   -118.08322    15.305488    1091.5912 0.0011377892 0.0011562086 0.0010900715 
 7450000    263.11119   -128.09283   -81.908727   -1467.6075    163.50437    3407.0458 0.0011374825  0.001156429 0.0010898008 
 7452000    294.68203   -127.94578    -3070.675   -1503.3927    3514.5147    1936.0123 0.0011371172 0.0011568658 0.0010897483 
 7454000     307.6936   -127.86552    2918.7171   -809.59852   -2098.2216    1737.0777  0.001136827 0.0011573485  0.001089557 
 7456000    274.07426   -128.29165   -4146.5923    126.83869   -858.60556    1057.4496 0.0011366651 0.0011576344 0.0010892717 
 7458000    296.17919   -127.85914    1726.5424    3742.3856   -4322.8487    1090.5657 0.0011367462 0.0011572238 0.0010890397 
 7460000    280.79977   -128.84709    -2261.092    2707.8343   -871.08004   -2372.1611  0.001136614 0.0011567705 0.0010896577 
 7462000    306.84504    -127.3081   -2980.3115    1522.9895   -84.623932   -884.78797 0.0011362535 0.0011564406 0.0010905921 
 7464000    299.11653    -127.8338    1543.8957    122.00637   -1250.1695    3331.3627 0.0011360149 0.0011567585 0.0010917611 
 7466000    307.39783   -127.79628   -3485.7426   -483.86185    1514.5606    1325.0822 0.0011361873 0.0011563288 0.0010915582 
 7468000     275.4656   -128.58402    1997.1081   -1346.9351   -19.239618    1141.5464 0.0011374573 0.0011559157 0.0010912665 
 7470000    311.03378   -126.88334    729.24437   -1865.4726   -1410.9515   -41.766107 0.0011371656 0.0011563425 0.0010909806 
 7472000    298.32964   -127.69971   -1066.4451    3063.0175    3584.2763    -1572.993 0.0011369711 0.0011562759 0.0010907665 
 7474000    280.15851    -127.8215    1533.1365    1854.4993   -1253.3927     -228.756 0.0011376286 0.0011560117  0.001090421 
 7476000    299.62029   -126.83082   -3774.8205   -1563.0329     2823.879    578.73718 0.0011377913 0.0011558067 0.0010902764 
 7478000    285.55978   -127.66566   -1777.7028   -2799.1435    3771.3627    1164.6382 0.0011375179 0.0011556601 0.0010900373 
 7480000    307.81018   -127.32454   -1948.6284    1742.0643    224.00869   -2145.4219  0.001137498 0.0011555233 0.0010899565 
 7482000    312.10156   -127.89189   -2279.2568   -27.143481   -1757.1327   -730.50037  0.001137187 0.0011552624 0.0010895722 
 7484000    289.26138   -127.50199    1030.5093    607.74991   -2306.2244   -485.37786 0.0011368939 0.0011551902 0.0010892641 
 7486000    278.48027   -128.00204   -604.28722   -1768.6354   -3438.4804    2236.8666 0.0011366798 0.0011549456 0.0010889593 
 7488000    295.81244   -127.53971    779.98038    1109.5759   -2393.6172    -1723.967 0.0011366498 0.0011550514 0.0010887408 
 7490000    346.48359   -127.14101    -184.0833   -1685.0649    2131.6613    283.02779 0.0011372644 0.0011562948 0.0010884474 
 7492000    271.58991   -128.07343   -1310.8152    1030.6429   -553.61731    61.489553 0.0011374922 0.0011567979 0.0010884242 
 7494000    289.80404   -127.70929   0.98597149    934.64479    1443.1021   -1322.1757 0.0011378188 0.0011564603 0.0010880278 
 7496000    347.74547    -128.1783   -86.819227    3641.4678   -810.65212    580.96061 0.0011377947 0.0011561237 0.0010877364 
 7498000    328.37611   -128.30108     402.7639    2837.2346    1608.7085    1376.7976 0.0011386097 0.0011558748 0.0010874384 
 7500000    276.01293    -127.7722    353.89253   -1649.5286   -516.16031    1549.3223 0.0011392387 0.0011557301 0.0010869855 
 7502000    309.76986   -127.77691   -81.033665    1736.0911    17.363326    1850.7047  0.001139568 0.0011554917 0.0010868532 
 7504000    303.61551    -127.3334   -1380.9799    1041.5548   -2053.7457   -969.34862  0.001139967 0.0011562588 0.0010866293 
 7506000    301.27566   -127.69669   -1956.4093   -1542.8688   -666.54882   -1426.5837 0.0011402289 0.0011559204 0.0010866336 
 7508000    311.54876    -127.7802   -1085.0041     1654.806   -495.16211    -2822.134 0.0011403469 0.0011556132 0.0010863602 
 7510000    291.01558   -127.56409   -966.42162    -191.3503    -1631.135   -2111.8477 0.0011408511 0.0011553919 0.0010860555 
 7512000    286.16217   -127.41838     403.2214   -1315.7799    1523.1016   -2694.6913  0.001140622 0.0011551616 0.0010858399 
 7514000    292.41177   -128.00286      1727.06   -1844.9301    1749.7819   -2601.9781  0.001140462  0.001154936 0.0010856293 
 7516000    301.84505   -127.80595   -398.15691   -613.95941    1420.4444    1221.4119 0.0011408223 0.0011552553 0.0010853956 
 7518000    322.17297   -128.09996    138.92574   -233.03588    141.24555    1639.8033  0.001140851 0.0011568377 0.0010850726 
 7520000     286.0039   -127.53016    -900.8841    2944.1624    393.78308   -2126.5621 0.0011415645 0.0011573134 0.0010849363 
 7522000    292.16591   -128.11946   -451.10817    115.40907    2170.2458    1057.6091 0.0011420655  0.001157608 0.0010851642 
 7524000    253.11393   -127.85531   -797.34631   -1542.7692   -259.69722    293.51476 0.0011437075 0.0011574701 0.0010852386 
 7526000    288.69757   -127.51057   -67.646284   -1307.9865    1668.2684    380.50311 0.0011442077  0.001157287 0.0010850178 
 7528000    320.52252   -127.15939     681.7288   -2820.0708   -94.517389   -221.10518 0.0011438438 0.0011571116 0.0010847133 
 7530000    291.86241   -127.64882   -4.1334015    364.21634   -49.604059   -1528.7849 0.0011436418 0.0011567692 0.0010851412 
 7532000    316.01152   -127.83557   -170.10081   -1033.7623    2955.4236   -936.04355 0.0011441982 0.0011565176 0.0010849177 
 7534000    298.77672   -127.63768   -1506.1701   -276.73673     -488.454    203.65946 0.0011446027 0.0011562916 0.0010850769 
 7536000    271.49992   -127.90105   -1737.3695    2413.5423    3452.4886   -1640.7348 0.0011444826 0.0011559852 0.0010853474 
 7538000    299.48842   -126.96841    461.49907    4301.1405   -4044.6644   -889.73805  0.001144369 0.0011558899 0.0010849821 
 7540000    268.20831   -128.16885   -833.49591    2999.3256   -1197.0998   -2457.6188 0.0011444906  0.001155815 0.0010847994 
 7542000    303.67846   -128.31042    802.59586     3574.293   -2363.6302    1073.5952 0.0011443972 0.0011555562 0.0010855733 
 7544000    292.63004   -127.42774    590.40922    5801.8917   -3650.0377    52.835038 0.0011445425 0.0011552186 0.0010854665 
 7546000    299.40329   -126.93799    571.35417    2692.8276     2536.721    2689.8622  0.001144739 0.0011548981 0.0010852212 
 7548000    296.05205   -128.37137    -1441.943    564.22009    1099.8428   -1346.7462 0.0011449423 0.0011545712  0.001085178 
 7550000    324.37967   -128.29842   -2145.9768   -1842.9161    2004.2427     -1221.31 0.0011446315 0.0011543232 0.0010856709 
 7552000    318.37271   -128.07558   -1334.5755   -3606.2082    1877.4719    532.74785 0.0011445986 0.0011541434  0.001085922 
 7554000    269.39143   -127.92612    -1626.229    1196.8457   -1002.7695   -2968.1224 0.0011444797 0.0011541039 0.0010857729 
 7556000     310.4803   -128.32919   -547.49025   -3264.4344    837.06133   -703.93985 0.0011448743 0.0011537276 0.0010871454 
 7558000    312.97911   -128.43347    341.46532    2313.9991   -639.52357    505.17852 0.0011448776 0.0011536683 0.0010864172 
 7560000     296.6589    -127.6492   -215.45856    2609.2908    3237.7837    1796.5748 0.0011452563 0.0011539035 0.0010860479 
 7562000     304.3682    -127.8872    1569.9181    5350.0615   -1839.5536   -472.21478 0.0011451752 0.0011541281 0.0010859332 
 7564000    334.22408   -127.53836    -636.8663    1649.9446    -764.9312    1553.9018 0.0011447894 0.0011552622 0.0010857786 
 7566000    276.69287   -127.33428   -641.62825    1659.6636     987.6944    3034.5461 0.0011445877 0.0011552231 0.0010856273 
 7568000    324.64868   -127.78632    194.94787   -896.55937   -812.85094    1805.4394 0.0011451347 0.0011551473  0.001085536 
 7570000     292.6998   -128.22908   -2027.3978   -3015.0806    472.94102    2104.3581 0.0011455506 0.0011549466 0.0010854958 
 7572000     295.9922   -127.71357    1685.8738    1272.7753    883.28778    2243.3579 0.0011457086 0.0011547355  0.001085154 
 7574000    288.52078   -128.23838    -1522.951   -1722.9431    2459.5421   -314.65658 0.0011466191 0.0011544258 0.0010849216 
 7576000     296.9752   -128.12759   -310.93789   -1305.7577    4571.6554   -2809.8282 0.0011470861 0.0011542598  0.001085352 
 7578000     340.7504   -127.87868    510.12211    2977.1548   -1370.9282   -2406.7117 0.0011470089 0.0011537326 0.0010870308 
 7580000    283.46867   -127.82882   -1387.1031   -365.77754    378.33207    184.24565 0.0011467498 0.0011534615 0.0010878731 
 7582000    312.77612    -128.6395    197.60367    1903.6321    -3426.457   -2989.9145 0.0011470032 0.0011530989 0.0010876253 
 7584000    321.95643   -128.13981   -1331.1011    150.05528   -217.57311   -169.35099 0.0011467228 0.0011529325 0.0010881313 
 7586000    264.87379   -127.19355   -842.80901    -2606.965   -2142.0701    452.46874 0.0011464419 0.0011530351 0.0010879141 
 7588000    315.29988   -127.58661    1161.8999    1103.7398    -2229.241   -951.93918 0.0011461665 0.0011525104 0.0010876329 
 7590000    320.08238   -128.45439   -2717.6342   -1674.6984    2981.6509     2325.496 0.0011458631 0.0011521177 0.0010874251 
 7592000    316.21223   -127.91992    1179.9088   -810.21421   -1728.8354   -1999.7128 0.0011455526 0.0011518366 0.0010872418 
 7594000    311.11819   -128.35536   -501.85957   -1053.3421    4801.6752    452.91675 0.0011452465 0.0011521846 0.0010869906 
 7596000    261.71732   -127.33299    -524.6684    315.22546    1571.8792    1567.4856 0.0011449147  0.001151931 0.0010867587 
 7598000    268.32629   -127.90156    1509.8841    434.17866    2788.3214     835.3541 0.0011445732 0.0011517657 0.0010865096 
 7600000    276.88931   -128.16813   -3022.5903    689.07123   -1416.0225   -1551.1251 0.0011441875 0.0011516202 0.0010862573 
 7602000    298.20805   -128.48493    1046.3953     1707.179   -2401.9566   -2596.5895 0.0011439296 0.0011520898 0.0010859741 
 7604000    287.39861   -127.95302   -1029.6545   -1631.9445   -333.56593    1384.8703 0.0011436688  0.001151814 0.0010859246 
 7606000    322.16195   -127.66502   -1518.2965    1551.7119    3039.1563    2958.5358   0.00114343  0.001151777 0.0010858374 
 7608000     284.5036   -128.18027    812.88066    2662.2078   -831.44866     1891.705 0.0011430876 0.0011517611 0.0010861637 
 7610000    324.66368   -128.63676   -4054.9203   -1467.4883    -79.10962   -996.67252 0.0011427034 0.0011514767 0.0010866367 
 7612000    259.73838   -128.05359    322.16885    1437.7727   -642.24238    3679.2947  0.001142423 0.0011512238 0.0010868965 
 7614000    296.21253   -127.87784   -2409.1603    253.91295   -293.77664   -3116.8752 0.0011426504 0.0011520983 0.0010870834 
 7616000    296.02146   -127.02634   -796.12905   -704.72612    2223.5012    1253.9757 0.0011431948 0.0011516821 0.0010876819 
 7618000       279.38   -128.37559    1547.6148    122.07825    880.34405   -654.44252 0.0011430984  0.001151483  0.001087725 
 7620000    309.43241   -128.82976   -1725.5806   -49.179895    5.6699403    505.89855 0.0011428084 0.0011510603 0.0010881442 
 7622000    285.59024   -127.60487    1501.3996   -562.83718   -1535.6669   -142.31888  0.001142856 0.0011509065 0.0010879312 
 7624000    269.86959   -128.64151   -1442.0406    10.853556   -1791.0472    731.07563 0.0011422645 0.0011509141 0.0010876797 
 7626000    307.31071     -127.389   -88.050049    695.30887   -3354.6411    2250.7436 0.0011421166 0.0011506094 0.0010873676 
 7628000    306.38626   -128.37426   -201.63109   -1448.1795   -224.41902   -873.41691 0.0011419712 0.0011500829 0.0010871533 
 7630000    289.27551   -127.82742     -1177.41    2387.0911   -348.82561    2538.5369 0.0011417482 0.0011497611  0.001086976 
 7632000    285.83714   -128.00514    1869.1723    -276.1433    484.32386     1520.352 0.0011415082 0.0011493731 0.0010870086 
 7634000    293.94589   -127.66478   -163.14878    685.89019    3496.6835   -11.285843  0.001141307 0.0011491265 0.0010873743 
 7636000    305.28847   -128.17931    13.695637    1420.3126    1306.7051    3391.3134 0.0011409877 0.0011489229 0.0010869664 
 7638000    256.65756   -128.34479   -707.97113   -777.34682     3464.193    -2493.289 0.0011408154 0.0011485398 0.0010872236 
 7640000    320.16997   -128.61653    -3335.534   -1860.0469    1247.3843    1117.4523 0.0011404469 0.0011483291 0.0010870906 
 7642000    283.76123   -127.76195   -992.42631    -2869.776    2457.4567   -512.51941 0.0011401791 0.0011488257 0.0010868473 
 7644000    281.18723   -127.45751   -2855.2594   -2920.6855   -1500.2634   -2483.3442 0.0011401118 0.0011492643 0.0010866335 
 7646000    286.27224   -128.40572   -677.99401   -3208.0912   -6961.2298    3940.3997 0.0011405409 0.0011490192 0.0010864756 
 7648000    312.69798   -128.59462    409.87997    2374.9533   -1417.1393   -2420.4367 0.0011414377 0.0011486329 0.0010864751 
 7650000    295.84156   -128.23434    -1815.847   -3521.8736    -5241.124    952.17471 0.0011419158 0.0011482808 0.0010864277 
 7652000     264.8717   -127.73643     2120.767    2046.3869   -3708.5557   -1205.4909 0.0011423319 0.0011479253 0.0010867232 
 7654000    293.02054   -128.01976   -2326.1688   -1237.5052     5738.372    257.25292 0.0011429745 0.0011476773 0.0010867504 
 7656000    323.09205   -127.37724    780.31642    1759.2657    1324.4175    337.83591 0.0011443762 0.0011473042 0.0010864746 
 7658000    295.69497   -128.56344    190.44873    1028.9532    3846.5093   -1332.4837 0.0011465118 0.0011469658 0.0010862453 
 7660000    304.02611   -127.81351   -1986.8761    521.49896    1377.7855   -58.884199 0.0011477373 0.0011466626 0.0010859115 
 7662000    295.45325   -127.83721    2014.3461    754.48729    1519.5125   -1532.0646 0.0011472141 0.0011463822 0.0010856668 
 7664000    308.05235   -128.06193   -3970.2585   -1335.4674    149.83039    911.38881 0.0011469333 0.0011460005 0.0010854341 
 7666000    298.85475   -127.71841   -85.003573    1720.4343   -2768.3087    94.522734 0.0011472516 0.0011458611  0.001085156 
 7668000    343.56811    -127.6626   -589.51928   -699.17405    748.96087    779.53595  0.001147545 0.0011454856 0.0010854627 
 7670000    282.32205   -128.61114   -2477.1969    2836.5677    129.52087     455.0226 0.0011475124  0.001145879 0.0010850688 
 7672000    288.74424   -128.02086    3236.0565    1171.0152    717.57257   -1625.2009 0.0011472793 0.0011453957 0.0010847257 
 7674000    303.98189   -127.83579   -2528.3354   -1923.2692    2458.5029    1742.1141 0.0011469601  0.001145954 0.0010846161 
 7676000    307.88775   -128.01026    2190.8368   -2106.8059   -1874.5069   -3196.2858 0.0011469218 0.0011459543 0.0010854284 
 7678000    294.62085   -128.38805   -1330.3168    -1847.557     1738.354    1628.4997 0.0011472911 0.0011458564 0.0010856404 
 7680000    259.72017   -128.02733   -3080.4439     -1885.74   -1722.1554   -1717.0837 0.0011471286  0.001147196 0.0010856873 
 7682000    316.54418   -127.78147    975.74918    597.84724   -3638.0903   -247.25707  0.001146747  0.001148311 0.0010856278 
 7684000    289.53844   -128.26089   -4904.0244    1535.5627   -87.102419    1677.1216 0.0011466121 0.0011483432 0.0010854257 
 7686000    280.79464   -128.71988    2373.7513    3161.2493     -507.825   -426.44098 0.0011467683 0.0011480478 0.0010854811 
 7688000    329.20647    -127.9066   -1281.5534    337.17929   -1.9100256    4554.5262 0.0011468328 0.0011481533 0.0010851568 
 7690000    316.71729   -127.62253    412.95958   -1062.0626   -99.857329    1607.5332 0.0011467178 0.0011488015 0.0010854236 
 7692000    343.61577    -127.8198    2456.4027   -4961.9646   -746.79752    1604.8043 0.0011470089 0.0011494504 0.0010855567 
 7694000    314.67806   -127.97883   -3565.4304   -2160.2503    1388.3948    2279.8223 0.0011467349 0.0011491937 0.0010854188 
 7696000    321.57196   -128.05018    3439.0093   -719.72907   -3491.8823   -3938.9478 0.0011464377 0.0011490453 0.0010851713 
 7698000    318.13974   -127.63036   -3866.3134   -4610.6529    3049.7584   -1529.5514 0.0011461783 0.0011486535 0.0010848404 
 7700000     291.3972    -127.8698    635.50031    1347.1731    3469.6543    -3216.232 0.0011458132 0.0011483775 0.0010846432 
 7702000     313.2685   -128.38857   -235.24454   -1893.2269    1423.4138    188.00266 0.0011454561  0.001148089 0.0010843438 
 7704000    279.12148   -128.27493   -4445.3571    731.41484    848.79461    567.57914 0.0011451504  0.001147755 0.0010843083 
 7706000    296.55009   -127.81282    2819.9273    4481.1479    513.46416    1142.4856 0.0011449118 0.0011475115 0.0010840557 
 7708000    291.96749   -126.98061   -4122.6785   -726.51527     595.1203    4598.4108 0.0011448338 0.0011482865 0.0010837885 
 7710000    294.86645   -128.12075     2907.624    994.74043   -1366.1599    656.57432 0.0011448306 0.0011481548 0.0010834757 
 7712000    292.13997    -127.8028    113.27041   -1431.3497    -2724.464    462.01387 0.0011445662 0.0011477624 0.0010832187 
 7714000    266.82379   -128.44734   -1551.6367    1950.7907   -818.71362       2659.2 0.0011445839  0.001148006 0.0010830228 
 7716000    292.06747   -126.90901    4471.0348   -1082.6867   -2532.4769   -961.03316 0.0011453841 0.0011476516 0.0010826942 
 7718000    342.52105   -127.61725    -4201.708   -3194.3942    2842.1679   -2919.5468 0.0011458256 0.0011472372 0.0010832717 
 7720000    276.89679   -128.18838    1757.4264    1375.2412   -2028.7654   -1162.9579 0.0011457361  0.001147111 0.0010830105 
 7722000     309.1784   -128.08665   -3420.0741   -708.61001    2266.8474   -1187.5077  0.001145626 0.0011473895 0.0010827768 
 7724000    283.07251   -127.60681    -1349.813   -345.65302    1468.3166    894.55738  0.001145555  0.001147575 0.0010824828 
 7726000    342.12744   -127.62216    1174.9178    712.22811    2495.6963    3409.1007 0.0011455987 0.0011480191 0.0010823231 
 7728000    289.51397   -126.47017   -3692.7533    1279.2706    1524.1768     2067.903 0.0011454744 0.0011480151  0.001083442 
 7730000    307.59461   -128.06371    2649.5966    344.35418   -394.47338    2198.0303 0.0011451566 0.0011477631 0.0010842388 
 7732000    329.66467   -127.35792   -1555.7948    328.24493    173.06008    917.91303 0.0011448953 0.0011474477 0.0010842328 
 7734000    353.23532   -127.87352   -225.71622     584.7869   -1235.5729   -1973.1234 0.0011449349 0.0011472769 0.0010839488 
 7736000     280.0038    -127.3169    1541.0516   -1396.4923    84.668968   -464.45864 0.0011447807 0.0011481688 0.0010840042 
 7738000    290.35428   -127.48136    -3505.679    135.32839    1466.5329   -4059.8207 0.0011446088 0.0011490106 0.0010842374 
 7740000    267.41743    -126.9575    2779.3671    1365.7536    -2338.719   -3067.1899 0.0011443512 0.0011486025 0.0010837233 
 7742000    273.39079   -127.45353    -2423.864   -913.45617    1659.4103    -2207.495 0.0011441371 0.0011488172 0.0010834819 
 7744000    291.36952   -128.51974   -620.97304    2233.4903   -642.07351   -1205.7391  0.001144365 0.0011488214 0.0010833335 
 7746000    319.38026   -127.29991    1022.1821   -2597.7686   -184.81855    421.92978  0.001143928 0.0011484672 0.0010836326 
 7748000    281.39138   -127.21133   -3719.9026   -938.17957    851.71411    1754.9597 0.0011436593 0.0011484083 0.0010835216 
 7750000    306.70372     -127.225    2287.8718    812.20406   -3510.1318    3205.3961 0.0011433686 0.0011480471 0.0010840318 
 7752000    325.88713   -127.85708   -1284.3951    1072.1044   -1661.4216    498.61861 0.0011436297 0.0011480148 0.0010836993 
 7754000    307.69662   -127.65968   -97.489153    959.45141   -20.260788    3469.7585 0.0011436839 0.0011478062 0.0010835813 
 7756000    291.44289   -127.38979    2701.1718    2506.7601   -3722.5832   -2658.2007 0.0011433771 0.0011475963 0.0010832543 
 7758000    282.54704   -127.19607   -3150.4538    1736.5385    136.21139    -92.16865 0.0011433037 0.0011471822  0.001083024 
 7760000    297.09132   -126.94137    1413.7418   -2759.9439   -1826.7035    3001.2127  0.001143045 0.0011470226 0.0010828253 
 7762000    281.88341   -128.05173   -2263.6117   -641.63565   -1810.1683   -373.26977 0.0011428733 0.0011472098 0.0010825924 
 7764000    331.30308   -127.44866    -1678.203    786.57524    2770.0889   -1392.1069 0.0011428205 0.0011475625 0.0010826899 
 7766000    341.49307   -127.15414    39.830881   -1067.6091   -2010.9405    361.61889 0.0011424685 0.0011475129 0.0010829187 
 7768000    302.19092   -127.38649   -2350.9245    18.119408    2561.3832   -2410.1418 0.0011422536 0.0011472277 0.0010828392 
 7770000    301.62442   -126.51103    2506.7999    435.99631    3161.2572   -2549.8885 0.0011421521  0.001147037 0.0010830927 
 7772000     306.5591   -127.95443   -475.47916   0.65553371   -2244.4063    692.09786 0.0011420046 0.0011470031  0.001082918 
 7774000    284.03873   -126.98941    747.13828    -2328.359    5976.3908   -2730.4363 0.0011417948 0.0011473757 0.0010831939 
 7776000    276.14546   -127.22486    1337.5599    1198.3908   -5872.2802    1441.3752 0.0011417071 0.0011475776 0.0010828315 
 7778000    321.87871   -127.56163   -2029.0725    565.69947    -904.8751    1204.3318 0.0011419509 0.0011475958 0.0010826526 
 7780000    310.93836   -126.81021    2288.0397    2299.9949   -233.60072    361.16952 0.0011424842 0.0011474967 0.0010833995 
 7782000      333.924   -127.54427   -1685.3612    729.60937    -1929.359    1110.2563 0.0011424908 0.0011477052  0.001083524 
 7784000    276.96792   -127.63592     744.4431   -130.52718    1493.4486   -1370.1044 0.0011422452 0.0011475829 0.0010835017 
 7786000    292.55515   -128.20269     1249.293    2389.1265   -2432.0341    1690.7323 0.0011427754 0.0011473499 0.0010832586 
 7788000    317.82191   -127.13632   -1924.7299    -1181.705    4170.0932    878.16399 0.0011429231 0.0011471828 0.0010829833 
 7790000    289.21487   -128.37672    465.50347    492.43795   -2633.8248   -467.00971 0.0011424642 0.0011474806 0.0010826413 
 7792000    283.27959   -127.24818    -3163.191   -2369.2374    2027.5764    2562.2696 0.0011423016 0.0011475571 0.0010823339 
 7794000     308.1842   -128.22944   -1565.1483   -2748.6922   -1592.7021    -1229.762 0.0011421267 0.0011473574 0.0010823128 
 7796000     284.5361   -127.20631    324.27709    1936.2233   -7055.1956    729.05844 0.0011418248 0.0011473087 0.0010818894 
 7798000    305.39643   -127.31461   -2022.1166   -3993.2215    5783.9929   -3031.3768 0.0011415248 0.0011472189 0.0010815961 
 7800000    297.91798   -127.58248    1479.5338   -1116.3987   -7629.6694    1326.6186 0.0011411484 0.0011470465 0.0010813503 
 7802000    325.37633   -127.64935   -1007.6471    701.14498    1875.3144   -161.51066 0.0011408253 0.0011472604 0.0010811071 
 7804000    311.81746   -127.26471   -327.74167    2139.3187    -630.2629    1266.8447 0.0011405473 0.0011470811 0.0010808597 
 7806000      290.282    -128.3109    312.05284    4858.5432   -2236.3963    300.43623 0.0011402369 0.0011468485 0.0010805658 
 7808000    280.98558   -128.11923   -2251.1107    548.99126    5522.7516   -1650.0283 0.0011399328 0.0011469134 0.0010802811 
 7810000    260.49904   -128.20608    1008.4495    3015.3932   -1236.5576   -1175.2184 0.0011396026 0.0011467614 0.0010799651 
 7812000    302.45713    -127.1274    1014.6763    902.11342   -1402.7921   -2112.5629 0.0011392543 0.0011465284 0.0010797191 
 7814000    289.81502    -126.8855    -539.1145   -3084.3843    1102.4869   -701.37132 0.0011391232 0.0011462935 0.0010796579 
 7816000      314.959   -126.88973    1235.2805   -3281.0132    3017.2228    847.42406 0.0011393044 0.0011459997   0.00107984 
 7818000    315.19136   -127.30778   -1843.0758   -2859.6525     2161.274   -410.67004  0.001139429 0.0011458771 0.0010800266 
 7820000    342.96914   -127.68965    -1012.897   -1077.2508    -2303.011   -1008.3229 0.0011393177 0.0011457928 0.0010802907 
 7822000    291.71295   -127.48983    -1846.559   -1534.7999    2115.6911   -2427.1349 0.0011390129 0.0011453351  0.001080053 
 7824000     279.1527   -127.66572   -2945.8457    1879.1192   -3824.4062    953.49798  0.001138861 0.0011451323  0.001080109 
 7826000    273.82263   -127.38397   -997.37699    708.65863   -303.37751   -2186.4214 0.0011385651 0.0011448846 0.0010813343 
 7828000    316.51653   -127.48634   -596.04155   -973.76903    86.565275    1573.4373 0.0011382713 0.0011446227 0.0010810687 
 7830000    300.56189    -128.0931   -525.47533     2734.905   -2428.9269   -700.95597 0.0011380109  0.001145296 0.0010808981 
 7832000    276.91855   -128.13412   -8.9649745    266.77079    3042.2908   -5725.2197 0.0011378449 0.0011457777 0.0010808813 
 7834000    304.68511   -127.74241    49.468892    1796.1969   -1715.7912    1388.0247 0.0011379576 0.0011458717 0.0010805211 
 7836000     300.7262   -126.74101    2105.9392    -1628.714    2249.3678   -2512.7504 0.0011395719 0.0011459572 0.0010802795 
 7838000    294.60742   -127.26042   -525.88375     348.4412    2256.0945   -1483.3846 0.0011418363 0.0011465852 0.0010801027 
 7840000    255.00231   -127.74694   -188.11851    2187.9627    2995.8748   -328.26705 0.0011429224  0.001146223 0.0010798037 
 7842000    328.31904   -127.66202   -88.130565   -323.45127    1985.5823    168.47951  0.001143139 0.0011460638 0.0010794775 
 7844000    307.34719   -126.94483   -1549.5782    1742.4615    256.36532     1451.703 0.0011431748 0.0011459583 0.0010795337 
 7846000     334.1664   -127.63365    56.128586   -3014.6037    -4338.096   -2984.1516 0.0011435051 0.0011455614 0.0010792397 
 7848000    294.09827   -127.85255   -2536.1553   -2757.1032   -1785.6466    55.688808 0.0011431958 0.0011453953 0.0010789443 
 7850000    295.61947   -127.38813   -262.38365   -2349.4964   -3477.2163   -2607.4211 0.0011429145 0.0011450846 0.0010788394 
 7852000    311.38082    -127.7114     340.2682    481.57322    613.02005   -500.26828 0.0011428187  0.001144774 0.0010784993 
 7854000    295.47432   -126.70054   -2779.0978    5723.9082    1586.7536    339.11782 0.0011430025 0.0011458924 0.0010785257 
 7856000    291.18089   -127.60834    3307.9146   -366.71371   -1036.7099    1640.0675 0.0011427286 0.0011455663 0.0010786013 
 7858000    284.64947   -127.74426   -1491.8439    3958.0811    4739.6266    2341.6676 0.0011427377  0.001145941 0.0010782536 
 7860000    292.06674   -127.72847    1523.9194   -276.14891    207.51483    1775.5986 0.0011425834 0.0011465816 0.0010779217 
 7862000    314.06184   -127.10929    1470.7814   -836.42108     344.6214    1878.0306 0.0011426695 0.0011464728 0.0010776139 
 7864000    331.16044   -127.77402   -4137.2984    1515.4992   -717.88638   -1537.9071 0.0011432648 0.0011464615 0.0010773365 
 7866000    289.75174    -127.8031    584.57746    1001.6924   -768.19279    49.667867 0.0011442343 0.0011460929 0.0010770055 
 7868000    300.98082   -127.08202   -3508.7481   -1791.1154   -1335.6796   -388.92354 0.0011440979 0.0011458081 0.0010768961 
 7870000    288.53113   -127.62649    122.20896    813.34117   -909.24376    404.73979 0.0011444299 0.0011460038 0.0010769434 
 7872000     278.4705   -127.10159    12.664703   -2414.9699   -2089.2192    1599.3426 0.0011441365 0.0011458261 0.0010768142 
 7874000    319.05975    -126.7817   -1067.1252    2079.0965   -1870.9593   -1360.8513 0.0011438057 0.0011455214 0.0010769884 
 7876000    282.59908     -127.665    2500.4114   -2038.9477   -172.19896    -669.1492 0.0011437712 0.0011454013 0.0010771793 
 7878000    265.01282   -128.02477   -3319.5899   -953.71566   -1802.6113   -1213.0766  0.001143334 0.0011449784  0.001076975 
 7880000    306.54894   -127.87329    730.44222    -2376.734    5777.2252    1378.8246 0.0011428816 0.0011447123  0.001076676 
 7882000    304.20695   -127.92837   -1886.0293   -3309.9607    872.87815   -59.425978 0.0011437472 0.0011444614 0.0010763746 
 7884000     313.9502      -127.07   -2334.6407    9.5069024    1206.3205    2910.6931 0.0011443858 0.0011442726 0.0010760868 
 7886000    272.89809   -127.49084    2976.3429    162.26144   -2124.0994    310.01877 0.0011449314 0.0011446071 0.0010758293 
 7888000    253.70582   -127.70279   -3955.7577    1360.6013    832.09773   -3543.7676 0.0011445222 0.0011442171 0.0010755853 
 7890000    256.92036   -128.01289     2643.966    1032.2778   -6.2987464     109.5957 0.0011443592 0.0011439695 0.0010753534 
 7892000    283.61692   -127.83888   -1257.1887    2761.6365   -3397.5537   -5170.1174 0.0011444292  0.001143657 0.0010753181 
 7894000    275.12238   -127.79774   -1277.6435    1481.1791    2039.8973   -958.86557 0.0011441139 0.0011433652 0.0010750462 
 7896000    378.00009   -127.21208    4611.1869   -230.40344    1234.1281    2091.4299 0.0011439419 0.0011433976 0.0010751592 
 7898000    306.02252   -127.19577   -5877.8922    1919.7107    2678.3528   -1547.4773 0.0011445797 0.0011430194 0.0010750264 
 7900000       303.87   -127.44628    3734.1353   -1364.2518    5272.6835    5206.7444 0.0011443414 0.0011425753 0.0010747307 
 7902000    274.29059   -127.77689   -2672.0129    860.58362    1167.0389    -1801.847 0.0011441536 0.0011422252 0.0010749303 
 7904000    274.64751   -128.30167   -2537.5786     1997.355   -410.47457    996.11337  0.001143829  0.001142093 0.0010748688 
 7906000    297.15149   -127.99574    3935.3285   -510.86543   -275.52482    -1019.721  0.001143719 0.0011418195 0.0010746058 
 7908000    307.40645   -127.62954   -5832.9306   -523.06289   -1709.4826    1330.0176 0.0011434555 0.0011415241 0.0010746134 
 7910000    280.17464   -127.61994    3915.0822   -850.91467    2381.8538    2246.6072 0.0011432622 0.0011414219 0.0010743537 
 7912000    293.94986   -128.41946   -3527.1566     3103.193    -1139.652   -494.33753 0.0011429591 0.0011411684 0.0010742031 
 7914000    315.27174   -126.61428   -2970.2535   -646.26184   -354.13819    -492.3957  0.001143055 0.0011408891 0.0010740628 
 7916000    270.74028   -128.01066    2451.5442    1972.1097    -2203.962    -3107.668 0.0011427314  0.001141262  0.001073874 
 7918000    287.99362   -128.62418   -5317.3673     2603.676   -2403.8705   -963.89611 0.0011424057 0.0011412444 0.0010735325 
 7920000    346.57028   -127.85554    4879.8509   -1344.0566    2759.4618    -2008.697 0.0011422368 0.0011410459  0.001073201 
 7922000    317.17263   -127.22466    -109.6005      656.423    -4671.251   -1471.3241  0.001141945 0.0011407247 0.0010729296 
 7924000    284.96707    -126.8855    188.68858   -530.07168    3765.7597   -704.79894 0.0011416562 0.0011410639 0.0010726481 
 7926000    309.15244   -127.62406    2621.4376   -368.37529   -870.46432   -1734.6643 0.0011415481 0.0011408965 0.0010724185 
 7928000    306.84694   -128.48423   -5710.7542   -4837.8687   -24.600409    4290.2865 0.0011410352 0.0011406633 0.0010721097 
 7930000    287.89655   -128.45269    904.18006   -1388.1121    1610.1757    2066.6229 0.0011406901 0.0011404761 0.0010719512 
 7932000    338.91037   -127.63245    -2868.498   -2073.4275   -1603.2681   -992.91931 0.0011403746 0.0011401503 0.0010718781 
 7934000    312.30964   -128.20694   -1568.2102   -2128.9681    5652.4744    4106.1736 0.0011401057 0.0011398577 0.0010722064 
 7936000    301.42887   -127.93567     1756.112    653.82232   -813.61083   -401.41332 0.0011395837 0.0011397749 0.0010720721 
 7938000    318.30688   -127.34945   -2327.6886   -2679.6671    3479.1206    671.19933 0.0011396459 0.0011397167 0.0010718397 
 7940000    308.65349   -127.67826    3047.7973   -755.79182    3461.0494   -2870.5146 0.0011394728 0.0011402091 0.0010715221 
 7942000    305.24981    -126.2878   -1818.4065   -1242.9743   -3921.8517   -1885.2056 0.0011391785  0.001140316  0.001071193 
 7944000    290.63371     -128.028   0.35412143    2261.0683    2389.1219   -2109.2531 0.0011393019 0.0011405519 0.0010716163 
 7946000    306.29378   -127.24321    1657.5167   -1581.7777   -5298.7273    514.16993 0.0011391505 0.0011405944 0.0010715948 
 7948000    309.87474   -127.60407   -3012.0874   -3218.4192    321.75978    2842.3732 0.0011390899 0.0011403644 0.0010712996 
 7950000    255.36887   -127.61905    3624.6122    5444.4926    3561.4591    3621.9486 0.0011392075 0.0011401032 0.0010712742 
 7952000    273.17981   -128.00765   -3238.7174   -2110.9379   -5248.9932      1536.51 0.0011390212 0.0011399319 0.0010718668 
 7954000    307.35213    -127.8741   -911.62158    1212.3667    793.31798    4033.9357 0.0011387888 0.0011396205 0.0010723379 
 7956000    299.86683   -127.67087   -48.734664   -289.25794   -624.70104   -2762.4518 0.0011384576 0.0011393379 0.0010720558 
 7958000     325.8247   -128.27978   -3985.1953   -1590.2152    967.04319    483.93676 0.0011386682 0.0011390848 0.0010719179 
 7960000    260.85135   -128.01621    3061.1588    1236.7554    70.390626    2411.1631 0.0011384796 0.0011387837 0.0010722445 
 7962000    313.93486   -127.95122   -1399.8493   -2227.2009   -1014.2826   -4136.9565 0.0011383007 0.0011385329 0.0010724647 
 7964000    305.89649   -127.82109    2123.5121    1406.5787   -1177.3235    947.25676 0.0011379772 0.0011382951 0.0010724475 
 7966000    293.46821   -127.57594    868.04225    242.05777    626.44544   -1862.0875 0.0011378242 0.0011381425 0.0010725857 
 7968000      334.031   -127.96889   -3781.2575    1276.1478    635.75121   -2130.1536 0.0011380994 0.0011377693 0.0010724235 
 7970000     292.2639   -127.23825    1737.7457    5555.2419    5009.4705    1759.6994 0.0011376967 0.0011374719 0.0010721639 
 7972000    302.08744   -127.87895   -3678.7293   -1319.6666   -545.81842    310.04519 0.0011374349 0.0011374436 0.0010718313 
 7974000    287.93879   -127.71682    630.03329   -412.62047   -895.29547    3663.4683 0.0011371882 0.0011373344  0.001071662 
 7976000     292.4081   -127.82743     674.6065   -3308.9675    217.71897   -782.02091 0.0011370102 0.0011370859  0.001071392 
 7978000    314.92763   -127.63119   -2043.2857    2221.8982   -1882.9304    1048.6708 0.0011368529 0.0011369267 0.0010711156 
 7980000    315.45325   -128.20425    2786.7407   -1077.3884    1388.5285   -823.84446 0.0011366527 0.0011371345 0.0010711341 
 7982000     290.4763   -126.68134   -3810.1469   -544.41427    2728.9761   -820.87049  0.001136363 0.0011368097 0.0010709321 
 7984000    309.61454   -127.47326    1237.9272    1.0770206    1403.6405    2877.0505 0.0011362296 0.0011366231  0.001070856 
 7986000    266.34024   -127.69959    913.02635   -4499.5233    421.63578   -4623.8848 0.0011362273  0.001136589 0.0010705784 
 7988000    325.59776   -127.11721   -504.75184    2157.1394    622.11311    -1450.547 0.0011358854 0.0011364062 0.0010704727 
 7990000    314.09534   -127.84381    4879.9212    1400.7466   -4957.8154   -217.72003 0.0011355996  0.001136102  0.001070202 
 7992000    333.57606   -127.41607   -757.51499    3428.1657    398.82539   -2494.5169 0.0011355152 0.0011359147 0.0010699953 
 7994000    277.31011   -127.41654    905.92226    3407.2331   -2092.2961    7766.9238  0.001135185 0.0011356376  0.001069731 
 7996000    294.43941   -127.50315   -1983.6684    1079.5707    3132.8004   -29.875783 0.0011350149 0.0011354284 0.0010696534 
 7998000    306.32381     -127.236    -2828.912    896.60174    4492.7305    1239.1784 0.0011346619 0.0011355277 0.0010693992 
 8000000    294.40288   -127.63877    762.57372   -2501.8269   -1078.7936    98.566234  0.001134464 0.0011354191 0.0010692632 
Loop time of 8254.1 on 1 procs for 8000000 steps with 160 atoms

Performance: 83.740 ns/day, 0.287 hours/ns, 969.215 timesteps/s
98.8% CPU use with 1 MPI tasks x no OpenMP threads

MPI task timing breakdown:
Section |  min time  |  avg time  |  max time  |%varavg| %total
---------------------------------------------------------------
Pair    | 6891.2     | 6891.2     | 6891.2     |   0.0 | 83.49
Bond    | 48.62      | 48.62      | 48.62      |   0.0 |  0.59
Kspace  | 976.98     | 976.98     | 976.98     |   0.0 | 11.84
Neigh   | 108.4      | 108.4      | 108.4      |   0.0 |  1.31
Comm    | 137.4      | 137.4      | 137.4      |   0.0 |  1.66
Output  | 1.5276     | 1.5276     | 1.5276     |   0.0 |  0.02
Modify  | 58.68      | 58.68      | 58.68      |   0.0 |  0.71
Other   |            | 31.28      |            |       |  0.38

Nlocal:    160 ave 160 max 160 min
Histogram: 1 0 0 0 0 0 0 0 0 0
Nghost:    3409 ave 3409 max 3409 min
Histogram: 1 0 0 0 0 0 0 0 0 0
Neighs:    39431 ave 39431 max 39431 min
Histogram: 1 0 0 0 0 0 0 0 0 0

Total # of neighbors = 39431
Ave neighs/atom = 246.444
Ave special neighs/atom = 1.5
Neighbor list builds = 86925
Dangerous builds = 0
variable     ndens equal count(all)/vol
print        "average viscosity: $v [Pa.s] @ $T K, ${ndens} /A^3"
average viscosity: 0.00111304873800873 [Pa.s] @ 300 K, 0.0147094139492742 /A^3
Total wall time: 2:22:30
