LAMMPS (16 Mar 2018)
# in.03
# 3d random polymer

atom_style bond
units lj

read_data data.ab
  orthogonal box = (-5.42561 -5.42561 -5.42561) to (5.42561 5.42561 5.42561)
  1 by 1 by 1 MPI processor grid
  reading atoms ...
  800 atoms
  scanning bonds ...
  1 = max bonds/atom
  reading bonds ...
  784 bonds
  2 = max # of 1-2 neighbors
  2 = max # of 1-3 neighbors
  4 = max # of 1-4 neighbors
  6 = max # of special neighbors
special_bonds fene
  2 = max # of 1-2 neighbors
  6 = max # of special neighbors

# Step 1: soft potential push-off to remove overlaps

pair_style soft 1.12246
pair_coeff * * 0.0 1.12246

# these have to match the data in def.chain.ab
bond_style harmonic
bond_coeff 1 50.0 0.97
bond_coeff 2 50.0 1.17

# make type 2 particles a bit heavier
mass 2 1.5

velocity all create 0.45 2349852

fix 1 all nve
# use a crude implicit solvent model
fix 2 all langevin 0.45 0.45 0.02 8742

# use this to ramp up the height of the soft core repulsion
variable prefactor equal ramp(1.0,20.0)
fix 3 all adapt 1 pair soft a * * v_prefactor

thermo 50
run 10000
Neighbor list info ...
  update every 1 steps, delay 10 steps, check yes
  max neighbors/atom: 2000, page size: 100000
  master list distance cutoff = 1.42246
  ghost atom cutoff = 1.42246
  binsize = 0.71123, bins = 16 16 16
  1 neighbor lists, perpetual/occasional/extra = 1 0 0
  (1) pair soft, perpetual
      attributes: half, newton on
      pair build: half/bin/newton
      stencil: half/bin/3d/newton
      bin: standard
Per MPI rank memory allocation (min/avg/max) = 4.076 | 4.076 | 4.076 Mbytes
Step Temp E_pair E_mol TotEng Press 
       0         0.45   0.85482606 8.3632808e-08    1.5289824   0.80722514 
      50    0.4534374   0.87735782   0.16582804    1.7224918   0.59626566 
     100   0.45109729   0.90333872   0.21399689    1.7931357   0.54391407 
     150    0.4544638   0.93262897   0.22312167    1.8365942    0.6018034 
     200    0.4555107   0.95485848   0.23476777    1.8720382   0.64427369 
     250   0.44404608   0.97741678   0.24378998    1.8864433   0.68944869 
     300   0.45369896   0.99019079   0.23953611    1.9094246   0.74347365 
     350   0.47213023   0.97508718   0.26124671     1.943644   0.70799808 
     400   0.46881219   0.98721674   0.25699033    1.9465463   0.73853612 
     450   0.44845182     1.019124   0.23474938    1.9257103   0.73272948 
     500   0.45821629    1.0137596   0.22862359    1.9288485   0.79238214 
     550   0.46068068    1.0183957   0.24034982    1.9489028    0.7485526 
     600   0.45573607    1.0002845    0.2363834    1.9194176   0.77895532 
     650   0.45337011    1.0115226   0.24553349    1.9362612   0.84936815 
     700   0.43986035    1.0211939   0.23116926    1.9113289   0.92750918 
     750   0.45182771    1.0081589   0.24269019    1.9277435   0.92863087 
     800   0.45944694    1.0177793   0.25716096    1.9632492   0.93481325 
     850   0.44937623   0.99326465   0.24784052    1.9143269   0.90998516 
     900   0.46088847    1.0172509   0.23318127    1.9409007    1.0176416 
     950   0.45371433    1.0169838   0.25059478    1.9472993    1.0143642 
    1000   0.44057963   0.99663921   0.24366773    1.9003503   0.99152959 
    1050   0.44202577   0.96020632   0.26339193    1.8858081   0.94948837 
    1100   0.43420568   0.95683235   0.25908367    1.8664104    1.0087313 
    1150   0.45269262   0.93742579   0.25275369    1.8683696    1.0107367 
    1200   0.44982388   0.93354214   0.24918332    1.8566179    1.0080368 
    1250   0.45949064   0.91963194   0.24994137    1.8579477    1.0551527 
    1300   0.46747624   0.91220147   0.25901755    1.8715569    1.0778031 
    1350   0.46897991   0.89295698   0.26653918    1.8620867    1.0655916 
    1400    0.4484342   0.89547069   0.27161783     1.838899    1.0684476 
    1450   0.42947702   0.88022277   0.26284917    1.7864822    1.1098893 
    1500   0.43938422   0.87652533   0.26184908    1.7966269    1.1230403 
    1550   0.45582242   0.86413575   0.27491713    1.8219318    1.0906953 
    1600   0.42737952    0.8621339   0.27285757    1.7752594    1.0701588 
    1650   0.44782116   0.85107249   0.26518657    1.7871511    1.1443121 
    1700    0.4547502   0.85543289   0.25269276    1.7893983    1.1381055 
    1750   0.46469345   0.83531062   0.26486298    1.7963425    1.1595952 
    1800   0.43633838   0.81863979   0.27081698    1.7431462    1.1924304 
    1850   0.44955275   0.81079009   0.28713063    1.7714069    1.1524702 
    1900    0.4535335   0.81183712   0.29114284    1.7824298    1.2065492 
    1950   0.46947781   0.79833449   0.29907882    1.8007497    1.1786278 
    2000   0.44487627   0.77738749   0.26927628     1.713144    1.2093546 
    2050   0.44744695   0.77427763   0.26009545    1.7047045    1.2426447 
    2100    0.4509621   0.78311629   0.26935005    1.7280639    1.1743568 
    2150   0.43523581   0.75158036   0.28761548    1.6912335    1.1454565 
    2200   0.46943201   0.74692756   0.26039479    1.7105902    1.2476672 
    2250   0.46243962    0.7493235   0.28864986    1.7307657    1.2214283 
    2300    0.4558444   0.74308932   0.28450272    1.7105039    1.2001572 
    2350   0.43462012   0.70856824   0.28739094    1.6470744    1.2531742 
    2400   0.43939878   0.68853663   0.25652497    1.6033359    1.2688239 
    2450   0.44623811   0.68589714   0.26388343     1.618301    1.2982293 
    2500   0.44370205   0.70464757   0.25848228     1.627851    1.2973002 
    2550   0.43478815   0.67430212   0.26686852    1.5925376    1.3235798 
    2600   0.45427696   0.63985101   0.26941724    1.5898319    1.2934159 
    2650    0.4758081   0.63296033   0.28289763     1.628678    1.3409071 
    2700    0.4354176    0.6395393   0.29587594    1.5877252    1.3189284 
    2750   0.46816877   0.63982059   0.26397179    1.6051677    1.2695305 
    2800    0.4721137   0.62530653   0.28331673    1.6159086    1.2623992 
    2850   0.45369996   0.62243694   0.28057474    1.5827109    1.2623258 
    2900    0.4477482   0.60727989   0.28039015    1.5584528    1.2759399 
    2950    0.4555386   0.61306224   0.26003585    1.5555519    1.3206947 
    3000   0.44345152   0.58925036   0.27743408    1.5310303    1.3907207 
    3050   0.44926481   0.59062611    0.2988619    1.5625429    1.4458181 
    3100   0.45609342   0.60453823   0.25902356    1.5468468    1.3945484 
    3150   0.44229507    0.5806038   0.26115837    1.5043755     1.376892 
    3200   0.45014543   0.56775194    0.2783781    1.5205042    1.3517289 
    3250   0.45476478   0.54379495    0.2855829    1.5106723    1.3230181 
    3300   0.46446243   0.53853744   0.26236993    1.4967301    1.3703312 
    3350   0.44924028   0.51310614   0.25578408    1.4419083    1.2822014 
    3400   0.44031901   0.51150297   0.25627627    1.4274322    1.2644986 
    3450   0.44162965   0.52972047   0.27014383    1.4614807    1.2302702 
    3500   0.42363024    0.5171193    0.2722968    1.4240671    1.2316457 
    3550   0.43724281    0.5064829   0.25939022    1.4209175    1.2353366 
    3600   0.43648215   0.50514541   0.27918248    1.4382327    1.2161299 
    3650   0.45792116   0.48874137   0.27973487    1.4544994    1.2178917 
    3700   0.45836208   0.49656624   0.30333158    1.4865815    1.2411438 
    3750   0.44211793   0.47996049    0.3123651    1.4546735    1.1935063 
    3800   0.44748335   0.47279831   0.29843969     1.441624    1.2490265 
    3850   0.44634583   0.46194693   0.28700298    1.4176318    1.2434471 
    3900   0.45370166   0.46929627   0.27592893     1.424927    1.2355194 
    3950   0.45651488   0.43501162   0.25607682    1.3750048    1.1863972 
    4000   0.44315144   0.42199429   0.29513029    1.3810208    1.1202047 
    4050   0.46033285   0.43186843   0.28278774    1.4042923     1.271796 
    4100   0.45333893   0.41822882   0.27513969    1.3725269    1.4150913 
    4150   0.43285718   0.40460353   0.26646726     1.319545    1.3080068 
    4200   0.44241646   0.40982344   0.26982634    1.3424449    1.2586559 
    4250   0.46086173   0.38229831   0.26285687    1.3355837    1.3276782 
    4300   0.45511734   0.37537004   0.28863976    1.3458325     1.271993 
    4350   0.44363396    0.3978093   0.30078482    1.3632132     1.223951 
    4400   0.45157216   0.37772216   0.28604157    1.3402753    1.2692259 
    4450   0.44379882   0.37775883   0.28489581    1.3275207    1.2991661 
    4500   0.43314263   0.38393273   0.27381072    1.3066452    1.3333668 
    4550   0.45203154   0.38686248   0.27547125    1.3395335    1.3011237 
    4600   0.46960964   0.36534156    0.2858064    1.3546819    1.2847077 
    4650    0.4525506   0.36631469   0.27708035    1.3213724    1.2271966 
    4700   0.44643912   0.38233992   0.28445267    1.3356142    1.1981209 
    4750   0.44413637   0.38054287   0.26791847    1.3138331    1.2390537 
    4800   0.44465357   0.36669057   0.27037283      1.30321    1.2225077 
    4850   0.45838285   0.36983575   0.27082635    1.3273769    1.2659673 
    4900   0.46986731   0.37568668   0.24743701    1.3270436    1.3405399 
    4950   0.48457494    0.3831592   0.25758475    1.3666978    1.2961975 
    5000   0.45772412   0.36547747   0.26628747    1.3174929    1.2777764 
    5050   0.43470422   0.35623062   0.25317612     1.260648     1.262747 
    5100   0.44581233    0.3773585   0.24673446    1.2919756    1.2579417 
    5150   0.45502768     0.324361   0.25904344    1.2650928    1.2081553 
    5200   0.43973178   0.31035953    0.2617762    1.2309089    1.1920228 
    5250   0.44688033   0.32563489   0.24530969    1.2404272    1.2530632 
    5300   0.44772427   0.31847827    0.2598363    1.2490615    1.3228676 
    5350   0.43811913   0.32578495   0.26790422    1.2500464    1.3155881 
    5400   0.46762842   0.32215854   0.25620359     1.278928    1.2495778 
    5450   0.44287891   0.32443896   0.26195624    1.2498832    1.2594491 
    5500   0.44567479   0.34192715   0.26245301    1.2720567      1.29112 
    5550   0.43854639   0.32153931   0.26602315    1.2445598    1.2906123 
    5600   0.46685102   0.31748534   0.25618084    1.2730674    1.2866407 
    5650    0.4372579   0.32911394   0.25034147    1.2345224    1.2875895 
    5700   0.46607681   0.32630738   0.27311706    1.2976658    1.2497648 
    5750   0.44947543   0.31135002   0.25082459     1.235545    1.2892379 
    5800    0.4659094   0.32611475   0.25265804    1.2767633     1.332309 
    5850   0.44181387   0.33511134   0.25496579    1.2519695    1.3183741 
    5900   0.48195848    0.3189137   0.26667526     1.307623    1.2840142 
    5950   0.44865609   0.33753803    0.2686311     1.278312    1.2799115 
    6000   0.45259202   0.31536156   0.27399013    1.2673911    1.3368846 
    6050   0.46808012   0.31915836   0.25470029    1.2751012    1.3878659 
    6100   0.44586717   0.30152486   0.26736197    1.2368516     1.315021 
    6150    0.4396152   0.30816095   0.25574218    1.2225016    1.3802979 
    6200   0.46409811    0.2915688    0.2640582     1.250904    1.4059075 
    6250   0.44403477   0.32153743   0.25163936    1.2383964    1.3257192 
    6300   0.44887233   0.28820512   0.26708553    1.2277575    1.3396587 
    6350   0.46473696   0.30471047   0.26110199    1.2620465    1.3893426 
    6400   0.45257986   0.29458469   0.25713036    1.2297363    1.3266026 
    6450   0.42884769   0.28070565   0.25593138    1.1791045    1.2815851 
    6500   0.43445368   0.29751777   0.25664713    1.2050308    1.3071056 
    6550   0.45081393   0.29222859   0.24283165    1.2104359    1.3347408 
    6600   0.45706958     0.287485   0.24580503    1.2180374    1.2973325 
    6650   0.46791087   0.26850884   0.25128528    1.2207831    1.2724977 
    6700   0.46550759   0.25962316   0.25475935    1.2117711     1.162798 
    6750    0.4293142   0.26698694   0.25598577     1.166139    1.1513707 
    6800   0.44874465   0.27882317   0.25629892    1.2073977    1.1768013 
    6850   0.43008898   0.28057023   0.25683876     1.181736    1.2712134 
    6900   0.45231403   0.26457513   0.25752576    1.1997239    1.2619323 
    6950   0.44778236   0.28184528   0.25567161    1.2083508    1.2789503 
    7000   0.44476997   0.28757226   0.24437601    1.1982693    1.2941967 
    7050   0.44292233   0.29082358   0.27011457    1.2244912    1.2901143 
    7100   0.45273126   0.26658145   0.25817728    1.2030067    1.2719414 
    7150   0.41619186   0.27911499   0.26713847    1.1697609    1.2600225 
    7200   0.45543651   0.28112799   0.25539101    1.2188198    1.3286637 
    7250   0.45103928   0.27289222   0.22533784    1.1739433    1.2517798 
    7300   0.47321157   0.26784465    0.2538983     1.230673    1.2128795 
    7350   0.44895894   0.25196715   0.26923844    1.1938022    1.2424355 
    7400   0.46597572   0.25670813   0.22829116    1.1830892    1.2808928 
    7450   0.43537164   0.25268972   0.24309029    1.1480211    1.2094659 
    7500   0.47650338    0.2581799   0.22865311    1.2006946    1.2414937 
    7550   0.44080474    0.2594573   0.26000352    1.1798414    1.1977502 
    7600   0.44895635   0.24968365   0.27257325    1.1948496    1.2130049 
    7650   0.45783115   0.26401725   0.23997068    1.1898762    1.2535597 
    7700    0.4590624   0.25800643   0.23653073      1.18227    1.2858595 
    7750   0.44995151   0.25905388    0.2366424    1.1697799    1.2561289 
    7800   0.45841862   0.25692094   0.23932342    1.1830128    1.2784195 
    7850   0.44233496    0.2510397   0.24847537    1.1621881    1.2462962 
    7900   0.45302493   0.23129636    0.2574667     1.167451     1.189574 
    7950    0.4434034   0.23865359   0.24164833    1.1445756    1.2482048 
    8000   0.46023889   0.24305615   0.24842671    1.1809783    1.2299303 
    8050    0.4462507   0.24882531   0.25972282    1.1770874    1.1801019 
    8100    0.4508989   0.23618057   0.26121691    1.1729004    1.1805154 
    8150   0.44456669   0.22340248   0.25360972    1.1430287    1.2263587 
    8200   0.45035233   0.23641249   0.24942483    1.1605214    1.2767276 
    8250   0.44392377   0.24536327   0.25135284    1.1617694      1.25318 
    8300    0.4404152   0.22603992   0.26006785    1.1459048    1.1466909 
    8350   0.44142062   0.24632028   0.25364004    1.1612636    1.2285316 
    8400   0.46781596   0.23798057   0.25421829    1.1930456    1.2730956 
    8450   0.42248287   0.21460257   0.25231683    1.0998515    1.1253165 
    8500   0.43756077   0.21989562   0.26359168     1.139008    1.1174532 
    8550   0.45081915   0.21208078    0.2525302    1.1399944    1.1760105 
    8600   0.43892421   0.22070704   0.27237576    1.1506461    1.1979334 
    8650   0.47170598    0.2319935   0.23762773    1.1762957    1.2425276 
    8700   0.45730958   0.23955809   0.26229876    1.1869638    1.2604724 
    8750   0.44607457   0.24254316   0.24178987    1.1526085     1.309551 
    8800   0.45097806   0.22416981    0.2698557     1.169647    1.2219159 
    8850   0.46108501   0.26138513   0.26641574    1.2185639    1.3051265 
    8900   0.44658536    0.2211182   0.24475122    1.1349101    1.3260593 
    8950   0.45430033   0.18904387   0.22253965    1.0921822    1.2007715 
    9000   0.44006941   0.21682615   0.24242348    1.1185286    1.2816716 
    9050   0.44210591   0.20934688   0.24888965    1.1205664    1.2279124 
    9100   0.43313235   0.22095278   0.22600812    1.0958473    1.1995877 
    9150   0.43789497   0.20868444    0.2489978    1.1137037    1.1319025 
    9200   0.44872847   0.20012353   0.24920868    1.1215836     1.200338 
    9250   0.45124388   0.20419491   0.24383415    1.1240488    1.2149516 
    9300   0.43952911    0.2088411   0.25919144    1.1265021    1.2046066 
    9350   0.42471184    0.1981249   0.23084818    1.0652445    1.2679318 
    9400   0.44552551   0.21307718   0.23354479    1.1140749    1.2932243 
    9450   0.44898439   0.23575102   0.23103571    1.1394215    1.3610228 
    9500   0.45796338   0.20668158   0.22998318    1.1227511    1.3619992 
    9550   0.45355498   0.21733087   0.24483426    1.1416472    1.3508194 
    9600   0.46061631   0.19599257   0.25378017    1.1398335    1.3441495 
    9650   0.46387682   0.20800172   0.23016507    1.1331123    1.3061914 
    9700   0.43200348   0.20598003   0.24778517    1.1009604    1.2900515 
    9750   0.46300091   0.20548454    0.2450064    1.1441242    1.2985271 
    9800   0.44101609   0.20142765    0.2343446    1.0964695    1.2838152 
    9850   0.45410163   0.19005367   0.24799418    1.1183489    1.2809639 
    9900   0.46942784   0.19742309   0.24297845    1.1436631    1.3383005 
    9950   0.43596759   0.20140839    0.2494216    1.1039639    1.2813325 
   10000   0.43255406   0.17506399    0.2336211    1.0567051    1.1869949 
Loop time of 2.92656 on 1 procs for 10000 steps with 800 atoms

Performance: 1476135.722 tau/day, 3416.981 timesteps/s
99.6% CPU use with 1 MPI tasks x no OpenMP threads

MPI task timing breakdown:
Section |  min time  |  avg time  |  max time  |%varavg| %total
---------------------------------------------------------------
Pair    | 1.1605     | 1.1605     | 1.1605     |   0.0 | 39.65
Bond    | 0.3382     | 0.3382     | 0.3382     |   0.0 | 11.56
Neigh   | 0.28116    | 0.28116    | 0.28116    |   0.0 |  9.61
Comm    | 0.15357    | 0.15357    | 0.15357    |   0.0 |  5.25
Output  | 0.0045445  | 0.0045445  | 0.0045445  |   0.0 |  0.16
Modify  | 0.93118    | 0.93118    | 0.93118    |   0.0 | 31.82
Other   |            | 0.0574     |            |       |  1.96

Nlocal:    800 ave 800 max 800 min
Histogram: 1 0 0 0 0 0 0 0 0 0
Nghost:    697 ave 697 max 697 min
Histogram: 1 0 0 0 0 0 0 0 0 0
Neighs:    2424 ave 2424 max 2424 min
Histogram: 1 0 0 0 0 0 0 0 0 0

Total # of neighbors = 2424
Ave neighs/atom = 3.03
Ave special neighs/atom = 1.96
Neighbor list builds = 457
Dangerous builds = 0

unfix 3
unfix 2
#undump d1

neighbor 0.5 bin

# Main run
pair_style lj/cut 5.0

pair_coeff 1 1 1.0 1.0
pair_coeff 1 2 1.1 1.122462
pair_coeff 2 2 1.2 1.2
thermo 1000

reset_timestep 0

dump d1 all custom 200 lammps.lammpstrj id type x y z
dump_modify d1 pad 5 element N O

run 10000
Neighbor list info ...
  update every 1 steps, delay 10 steps, check yes
  max neighbors/atom: 2000, page size: 100000
  master list distance cutoff = 5.5
  ghost atom cutoff = 5.5
  binsize = 2.75, bins = 4 4 4
  1 neighbor lists, perpetual/occasional/extra = 1 0 0
  (1) pair lj/cut, perpetual
      attributes: half, newton on
      pair build: half/bin/newton
      stencil: half/bin/3d/newton
      bin: standard
Per MPI rank memory allocation (min/avg/max) = 6.278 | 6.278 | 6.278 Mbytes
Step Temp E_pair E_mol TotEng Press 
       0   0.43255406   -1.7609396    0.2336211  -0.87929843    13.119078 
    1000    2.1647623   -5.3492081    1.2143469  -0.89177674    0.9688882 
    2000    2.1038513   -5.3006402    1.2567208  -0.89208728    1.0210521 
    3000     2.154627   -5.2764951    1.1567279  -0.89186661    1.3640498 
    4000    2.1454285   -5.3487448     1.242967  -0.89165778   0.93176542 
    5000    2.1577867   -5.2293491     1.104235  -0.89247991    1.4064471 
    6000    2.1719962   -5.1957786    1.0498223  -0.89203456    1.6524811 
    7000    2.1858343   -5.3108778    1.1442479  -0.89197674    1.2381324 
    8000    2.1765029   -5.2507275    1.0979937  -0.89206026    1.2746867 
    9000     2.253244    -5.415323    1.1470213  -0.89266047   0.72026728 
   10000    2.1476151   -5.2613754     1.152323  -0.89165658    1.2935891 
Loop time of 73.352 on 1 procs for 10000 steps with 800 atoms

Performance: 58894.120 tau/day, 136.329 timesteps/s
100.0% CPU use with 1 MPI tasks x no OpenMP threads

MPI task timing breakdown:
Section |  min time  |  avg time  |  max time  |%varavg| %total
---------------------------------------------------------------
Pair    | 57.457     | 57.457     | 57.457     |   0.0 | 78.33
Bond    | 0.33379    | 0.33379    | 0.33379    |   0.0 |  0.46
Neigh   | 13.986     | 13.986     | 13.986     |   0.0 | 19.07
Comm    | 1.2331     | 1.2331     | 1.2331     |   0.0 |  1.68
Output  | 0.036671   | 0.036671   | 0.036671   |   0.0 |  0.05
Modify  | 0.23519    | 0.23519    | 0.23519    |   0.0 |  0.32
Other   |            | 0.0706     |            |       |  0.10

Nlocal:    800 ave 800 max 800 min
Histogram: 1 0 0 0 0 0 0 0 0 0
Nghost:    5746 ave 5746 max 5746 min
Histogram: 1 0 0 0 0 0 0 0 0 0
Neighs:    173332 ave 173332 max 173332 min
Histogram: 1 0 0 0 0 0 0 0 0 0

Total # of neighbors = 173332
Ave neighs/atom = 216.665
Ave special neighs/atom = 1.96
Neighbor list builds = 994
Dangerous builds = 941
Total wall time: 0:01:16
